17
zwitterion CPCM-opt conformer 1
N       2.87354767    -0.03022063    -0.36294125
C       1.53246497    -0.60292807    -0.68274244
C       0.49610425     0.26952380     0.04526827
O       0.88918848     1.23613300     0.73176890
N      -0.77655350    -0.08516021    -0.11714052
C      -1.91684975     0.59174046     0.48194793
C      -3.22974865    -0.12871473     0.07836073
O      -3.12383189    -1.13893969    -0.67935511
O      -4.28935681     0.36841664     0.55000887
H       2.67535225     0.79703454     0.25115976
H       3.47390376    -0.68844476     0.14664849
H       3.38020692     0.28464561    -1.19828838
H       1.48719405    -1.64040263    -0.33475542
H       1.37479934    -0.58048241    -1.76626830
H      -1.04790983    -0.89075550    -0.69195330
H      -1.83251577     0.59815161     1.57968720
H      -1.96599543     1.64040300     0.14954755
