14
Coordinates from ORCA-job geo_opt E -399.164852044303
  N      -0.674948     -1.239854      0.053818
  C      -0.231846      0.053446     -0.500104
  C       1.072826      0.479303      0.166996
  O       1.978288     -0.600504      0.068480
  C      -1.350460      1.111606     -0.119475
  O      -2.203153      0.658506      0.669767
  O      -1.253085      2.240378     -0.603176
  H      -1.022344     -1.880953     -0.661791
  H       0.090222     -1.683946      0.573987
  H      -1.477459     -0.935568      0.677004
  H      -0.104237      0.018075     -1.580667
  H       0.881360      0.726932      1.220696
  H       1.441223      1.379585     -0.333273
  H       2.853613     -0.327007      0.367738
14
Coordinates from ORCA-job geo_opt E -399.167457594542
  N      -0.676151     -1.244345      0.056405
  C      -0.231759      0.066205     -0.495427
  C       1.078878      0.484555      0.170132
  O       1.994217     -0.603398      0.046695
  C      -1.360813      1.114495     -0.127775
  O      -2.225957      0.670485      0.681784
  O      -1.258456      2.252964     -0.626676
  H      -1.024870     -1.885787     -0.664115
  H       0.084371     -1.704606      0.576088
  H      -1.481867     -0.945979      0.680970
  H      -0.105428      0.009560     -1.581744
  H       0.893806      0.719303      1.235147
  H       1.443852      1.396704     -0.324459
  H       2.870178     -0.330155      0.372974
14
Coordinates from ORCA-job geo_opt E -399.166729244598
  N      -0.677342     -1.236517      0.069337
  C      -0.226419      0.091631     -0.472537
  C       1.094259      0.486650      0.183787
  O       2.012585     -0.603842     -0.003940
  C      -1.348112      1.129658     -0.105973
  O      -2.275364      0.664938      0.638061
  O      -1.301506      2.234336     -0.703501
  H      -1.038735     -1.864827     -0.658175
  H       0.077994     -1.723795      0.572082
  H      -1.473163     -0.951116      0.707020
  H      -0.108904      0.018884     -1.561532
  H       0.932165      0.680507      1.262261
  H       1.451590      1.416542     -0.286995
  H       2.880953     -0.343048      0.360105
14
Coordinates from ORCA-job geo_opt E -399.168096925858
  N      -0.679198     -1.241997      0.075497
  C      -0.229398      0.097125     -0.477157
  C       1.085566      0.496347      0.179700
  O       2.020515     -0.586672     -0.042020
  C      -1.362670      1.110186     -0.154314
  O      -2.266446      0.688613      0.655854
  O      -1.246032      2.259395     -0.668414
  H      -1.029612     -1.876333     -0.652163
  H       0.066523     -1.734856      0.585067
  H      -1.480624     -0.968941      0.702646
  H      -0.108159     -0.018774     -1.562827
  H       0.931885      0.665086      1.262688
  H       1.431555      1.436962     -0.278621
  H       2.866095     -0.326139      0.374063
14
Coordinates from ORCA-job geo_opt E -399.168603618371
  N      -0.679207     -1.242161      0.073369
  C      -0.230883      0.084320     -0.480070
  C       1.082606      0.488752      0.177525
  O       2.018455     -0.582745     -0.032642
  C      -1.359368      1.115276     -0.145811
  O      -2.254004      0.692691      0.654740
  O      -1.250055      2.252510     -0.664431
  H      -1.027727     -1.877553     -0.653086
  H       0.072475     -1.721807      0.587095
  H      -1.482694     -0.962312      0.698183
  H      -0.106545     -0.012099     -1.564799
  H       0.924679      0.660041      1.257419
  H       1.426030      1.428249     -0.280093
  H       2.866238     -0.323161      0.372601
14
Coordinates from ORCA-job geo_opt E -399.168728953007
  N      -0.680332     -1.241216      0.078798
  C      -0.230789      0.086102     -0.475618
  C       1.083707      0.488386      0.178728
  O       2.027028     -0.572137     -0.058038
  C      -1.357382      1.118079     -0.147415
  O      -2.262248      0.697930      0.642005
  O      -1.248452      2.250809     -0.676805
  H      -1.030652     -1.874781     -0.648578
  H       0.070854     -1.723840      0.590082
  H      -1.481726     -0.965321      0.705281
  H      -0.106190     -0.015991     -1.560102
  H       0.933465      0.638553      1.262850
  H       1.417549      1.437930     -0.265617
  H       2.865169     -0.324503      0.374428
14
Coordinates from ORCA-job geo_opt E -399.168870791450
  N      -0.681522     -1.240567      0.087819
  C      -0.231364      0.087387     -0.469548
  C       1.084412      0.489660      0.177324
  O       2.043163     -0.546688     -0.105580
  C      -1.356434      1.121833     -0.153769
  O      -2.270664      0.710554      0.625876
  O      -1.240012      2.249376     -0.692740
  H      -1.033631     -1.871680     -0.640917
  H       0.069195     -1.726555      0.595848
  H      -1.480085     -0.974391      0.716521
  H      -0.106031     -0.024529     -1.553279
  H       0.948678      0.602464      1.267501
  H       1.398107      1.456715     -0.243793
  H       2.856189     -0.333579      0.388738
14
Coordinates from ORCA-job geo_opt E -399.168922396895
  N      -0.680577     -1.240790      0.090194
  C      -0.231906      0.087102     -0.468400
  C       1.085129      0.492282      0.173330
  O       2.051196     -0.533066     -0.125038
  C      -1.357956      1.123120     -0.156099
  O      -2.272397      0.715821      0.623607
  O      -1.236432      2.249876     -0.695866
  H      -1.034822     -1.870676     -0.638597
  H       0.071000     -1.728153      0.595524
  H      -1.476893     -0.980476      0.722079
  H      -0.107446     -0.026914     -1.552084
  H       0.956155      0.593518      1.265168
  H       1.388694      1.465318     -0.241479
  H       2.846254     -0.346962      0.407662
14
Coordinates from ORCA-job geo_opt E -399.168960547298
  N      -0.677788     -1.241038      0.088920
  C      -0.232490      0.086576     -0.469789
  C       1.086105      0.496057      0.167335
  O       2.055774     -0.525192     -0.132560
  C      -1.360133      1.123394     -0.155310
  O      -2.270237      0.717257      0.629507
  O      -1.237197      2.250489     -0.694642
  H      -1.035355     -1.870068     -0.639028
  H       0.076028     -1.729188      0.590518
  H      -1.471191     -0.985414      0.725711
  H      -0.110731     -0.025155     -1.554045
  H       0.960811      0.598726      1.259231
  H       1.383695      1.469810     -0.250261
  H       2.832708     -0.366255      0.434413
14
Coordinates from ORCA-job geo_opt E -399.168986893244
  N      -0.673352     -1.240668      0.085323
  C      -0.233101      0.086886     -0.472961
  C       1.086968      0.500153      0.160776
  O       2.056514     -0.522996     -0.131659
  C      -1.361785      1.122834     -0.152092
  O      -2.265126      0.715335      0.640310
  O      -1.242609      2.250417     -0.691848
  H      -1.035170     -1.869357     -0.640882
  H       0.084260     -1.728851      0.581729
  H      -1.462962     -0.988084      0.728243
  H      -0.115342     -0.020415     -1.558101
  H       0.962810      0.612486      1.251662
  H       1.382969      1.470935     -0.265118
  H       2.815925     -0.388675      0.464617
14
Coordinates from ORCA-job geo_opt E -399.169004579038
  N      -0.667955     -1.239671      0.080954
  C      -0.233890      0.088398     -0.477088
  C       1.087546      0.504158      0.154389
  O       2.054718     -0.524000     -0.127121
  C      -1.362743      1.121747     -0.148070
  O      -2.258267      0.711763      0.652800
  O      -1.251348      2.249561     -0.689283
  H      -1.034836     -1.868277     -0.642809
  H       0.095131     -1.727138      0.570180
  H      -1.452692     -0.988773      0.731006
  H      -0.120470     -0.014769     -1.563046
  H       0.963164      0.628666      1.243715
  H       1.385291      1.470291     -0.281130
  H       2.796353     -0.411958      0.495501
14
Coordinates from ORCA-job geo_opt E -399.169014032929
  N      -0.664081     -1.238693      0.077867
  C      -0.234713      0.090311     -0.480423
  C       1.087603      0.506536      0.150500
  O       2.052001     -0.526519     -0.122234
  C      -1.363027      1.120712     -0.145444
  O      -2.252570      0.708830      0.661766
  O      -1.259377      2.248412     -0.688262
  H      -1.035308     -1.867083     -0.643830
  H       0.104318     -1.725124      0.560075
  H      -1.444414     -0.987768      0.733661
  H      -0.123858     -0.011168     -1.566736
  H       0.962165      0.639497      1.238522
  H       1.389103      1.468739     -0.291220
  H       2.782158     -0.426681      0.515757
14
Coordinates from ORCA-job geo_opt E -399.169018656618
  N      -0.662307     -1.238141      0.076576
  C      -0.235359      0.091815     -0.482311
  C       1.087238      0.507374      0.149191
  O       2.049852     -0.528585     -0.119267
  C      -1.363069      1.120137     -0.144724
  O      -2.249082      0.707702      0.666294
  O      -1.264691      2.247370     -0.689154
  H      -1.036793     -1.865870     -0.643939
  H       0.110184     -1.723789      0.553121
  H      -1.439331     -0.986357      0.736129
  H      -0.124932     -0.010141     -1.568571
  H       0.960621      0.643358      1.236596
  H       1.392294      1.467541     -0.294433
  H       2.775376     -0.432415      0.524491
14
Coordinates from ORCA-job geo_opt E -399.169020254121
  N      -0.662074     -1.238073      0.076644
  C      -0.235595      0.092392     -0.482773
  C       1.086813      0.507413      0.149464
  O       2.049153     -0.529015     -0.118842
  C      -1.363203      1.120114     -0.145291
  O      -2.247903      0.708209      0.667306
  O      -1.266604      2.246764     -0.691076
  H      -1.038641     -1.864824     -0.643586
  H       0.112495     -1.723681      0.549845
  H      -1.437168     -0.985777      0.738115
  H      -0.124340     -0.010708     -1.568834
  H       0.959519      0.642469      1.236888
  H       1.393369      1.467446     -0.293306
  H       2.774179     -0.432730      0.525444
14
Coordinates from ORCA-job geo_opt E -399.169021026848
  N      -0.662027     -1.238132      0.076849
  C      -0.235644      0.092581     -0.482913
  C       1.086439      0.507469      0.149921
  O       2.049013     -0.528781     -0.118927
  C      -1.363467      1.120237     -0.146034
  O      -2.247168      0.709152      0.667893
  O      -1.267594      2.246239     -0.693276
  H      -1.040793     -1.863651     -0.643279
  H       0.113972     -1.724270      0.547156
  H      -1.435300     -0.985828      0.740182
  H      -0.123469     -0.011330     -1.568799
  H       0.958697      0.641190      1.237456
  H       1.393509      1.467755     -0.291851
  H       2.773832     -0.432628      0.525623
