14
Coordinates from ORCA-job geo_opt E -399.169021026848
  N          -0.66202705818473     -1.23813212619993      0.07684882116740
  C          -0.23564403537312      0.09258072088720     -0.48291301392321
  C           1.08643858005587      0.50746852170743      0.14992130001942
  O           2.04901345827271     -0.52878122114600     -0.11892684747797
  C          -1.36346732533185      1.12023686783075     -0.14603421739366
  O          -2.24716752818966      0.70915156054415      0.66789288936968
  O          -1.26759431186299      2.24623850783238     -0.69327595466448
  H          -1.04079283753972     -1.86365130219854     -0.64327903465250
  H           0.11397203052474     -1.72427035629049      0.54715566252391
  H          -1.43529999551101     -0.98582796358441      0.74018224641698
  H          -0.12346940696558     -0.01132991347683     -1.56879897250467
  H           0.95869728056193      0.64118989710351      1.23745557057551
  H           1.39350942556270      1.46775483698594     -0.29185143976759
  H           2.77383174398071     -0.43262802999516      0.52562300031119
