14
zwitterion conformer 1
N      -0.67494818    -1.23985365     0.05381799
C      -0.23184596     0.05344619    -0.50010378
C       1.07282590     0.47930259     0.16699578
O       1.97828816    -0.60050410     0.06847978
C      -1.35045979     1.11160607    -0.11947522
O      -2.20315282     0.65850623     0.66976713
O      -1.25308454     2.24037842    -0.60317577
H      -1.02234442    -1.88095271    -0.66179052
H       0.09022231    -1.68394570     0.57398724
H      -1.47745911    -0.93556768     0.67700354
H      -0.10423727     0.01807472    -1.58066750
H       0.88135972     0.72693231     1.22069639
H       1.44122303     1.37958480    -0.33327311
H       2.85361299    -0.32700749     0.36773806
