27
Coordinates from ORCA-job geo_opt E -43.626604880300
  N      -2.738570      0.692160     -0.773534
  C      -2.539974      0.251697      0.589858
  C      -1.247361     -0.484693      0.689218
  C      -0.062782      0.300193      0.319877
  C       0.072981      1.587298     -0.099201
  N       1.367439      1.876432     -0.323815
  C       2.084026      0.774364     -0.050952
  C       3.441131      0.509765     -0.107763
  C       3.974467     -0.719265      0.223976
  C       3.103018     -1.710109      0.625760
  C       1.737764     -1.480459      0.694412
  C       1.230459     -0.228801      0.352864
  C      -3.620981     -0.731401      0.899073
  O      -4.778800     -0.265158      1.086713
  O      -3.387281     -2.097647      0.981405
  H      -2.979806      1.708278     -0.791946
  H      -3.523099      0.187971     -1.242339
  H      -1.883329      0.501182     -1.341855
  H      -2.588971      1.132536      1.266523
  H      -1.285143     -1.352633      0.004950
  H      -1.179232     -0.906334      1.712291
  H      -0.717007      2.283768     -0.236820
  H       1.757564      2.795106     -0.653200
  H       4.148557      1.268355     -0.419529
  H       5.037054     -0.937121      0.182846
  H       3.524333     -2.676716      0.886474
  H       1.053543     -2.278768      1.016277
27
Coordinates from ORCA-job geo_opt E -43.657556575370
  N      -2.817806      0.674563     -0.818702
  C      -2.582818      0.236655      0.580503
  C      -1.253366     -0.496638      0.684766
  C      -0.040634      0.294189      0.324254
  C       0.105507      1.596637     -0.080262
  N       1.417114      1.886897     -0.301220
  C       2.151303      0.778359     -0.040271
  C       3.515294      0.533141     -0.102327
  C       4.021199     -0.707983      0.222156
  C       3.143263     -1.720557      0.615965
  C       1.783569     -1.504241      0.686492
  C       1.275556     -0.246954      0.357466
  C      -3.710656     -0.725022      0.947341
  O      -4.851244     -0.244386      1.118856
  O      -3.490941     -2.000209      1.022426
  H      -3.052481      1.676635     -0.858414
  H      -3.609732      0.170356     -1.248828
  H      -1.987364      0.477451     -1.401353
  H      -2.623129      1.109954      1.242081
  H      -1.298635     -1.371876      0.020839
  H      -1.176994     -0.909216      1.697843
  H      -0.673240      2.318773     -0.210602
  H       1.789553      2.779727     -0.605182
  H       4.217997      1.302393     -0.404576
  H       5.078134     -0.920188      0.180930
  H       3.558335     -2.688659      0.867251
  H       1.112216     -2.299801      0.994135
27
Coordinates from ORCA-job geo_opt E -43.664138026010
  N      -2.804782      0.653821     -0.856721
  C      -2.585094      0.218823      0.564682
  C      -1.259938     -0.528364      0.683312
  C      -0.040501      0.266574      0.333887
  C       0.092964      1.574526     -0.052369
  N       1.408260      1.879733     -0.271735
  C       2.165116      0.773775     -0.028134
  C       3.535565      0.563629     -0.101227
  C       4.028880     -0.683716      0.209568
  C       3.163908     -1.721793      0.592731
  C       1.805900     -1.530471      0.669900
  C       1.287578     -0.273183      0.359387
  C      -3.778723     -0.701501      0.966271
  O      -4.883316     -0.145907      1.119216
  O      -3.563402     -1.892043      1.111154
  H      -3.015673      1.653102     -0.915637
  H      -3.603056      0.156063     -1.267490
  H      -1.976238      0.438287     -1.423692
  H      -2.604700      1.091592      1.213299
  H      -1.315556     -1.414271      0.041958
  H      -1.182186     -0.913098      1.699880
  H      -0.676507      2.312212     -0.168800
  H       1.760843      2.770861     -0.555373
  H       4.217831      1.351262     -0.393272
  H       5.087110     -0.878846      0.163574
  H       3.585696     -2.687549      0.830706
  H       1.150022     -2.333518      0.966489
27
Coordinates from ORCA-job geo_opt E -43.665391895730
  N      -2.799254      0.605931     -0.878875
  C      -2.576895      0.222969      0.558981
  C      -1.257312     -0.524176      0.702955
  C      -0.037158      0.269398      0.354936
  C       0.094220      1.581451     -0.009529
  N       1.408543      1.887406     -0.234243
  C       2.166283      0.776592     -0.014635
  C       3.537270      0.572698     -0.103039
  C       4.024888     -0.682069      0.185566
  C       3.164954     -1.726170      0.558642
  C       1.806870     -1.536940      0.649361
  C       1.288835     -0.274286      0.362529
  C      -3.795734     -0.665558      1.017785
  O      -4.899461     -0.082895      1.015852
  O      -3.598858     -1.876983      1.152115
  H      -3.009766      1.602977     -0.975221
  H      -3.600077      0.089907     -1.261190
  H      -1.968529      0.371622     -1.435567
  H      -2.585462      1.123553      1.170778
  H      -1.309339     -1.427160      0.086193
  H      -1.185607     -0.880738      1.731354
  H      -0.665382      2.332247     -0.100182
  H       1.760618      2.788035     -0.502612
  H       4.212232      1.367472     -0.386988
  H       5.084239     -0.875395      0.128608
  H       3.587633     -2.695616      0.778793
  H       1.152248     -2.344273      0.939200
27
Coordinates from ORCA-job geo_opt E -43.665589489360
  N      -2.787058      0.535947     -0.951026
  C      -2.571463      0.216946      0.503509
  C      -1.261349     -0.529362      0.692676
  C      -0.036958      0.267704      0.368380
  C       0.093326      1.589832      0.053816
  N       1.408379      1.901426     -0.159578
  C       2.165347      0.782714      0.018565
  C       3.538594      0.591084     -0.079497
  C       4.017934     -0.676667      0.164754
  C       3.163519     -1.733995      0.498877
  C       1.803079     -1.550986      0.596740
  C       1.286172     -0.278530      0.355952
  C      -3.830380     -0.628329      1.019009
  O      -4.898006      0.020440      0.988456
  O      -3.608841     -1.792239      1.464187
  H      -3.000286      1.528296     -1.092817
  H      -3.587899     -0.004411     -1.300399
  H      -1.947006      0.283886     -1.487150
  H      -2.568448      1.147474      1.074992
  H      -1.299002     -1.450705      0.103279
  H      -1.210584     -0.855562      1.735539
  H      -0.650460      2.359193      0.001643
  H       1.761897      2.819255     -0.389080
  H       4.204255      1.401112     -0.333228
  H       5.080222     -0.864661      0.100861
  H       3.587093     -2.710424      0.684380
  H       1.147922     -2.369437      0.858722
27
Coordinates from ORCA-job geo_opt E -43.667675820610
  N      -2.777604      0.539477     -0.937232
  C      -2.568934      0.220595      0.515813
  C      -1.261358     -0.527266      0.709928
  C      -0.037890      0.267336      0.378334
  C       0.090371      1.588832      0.058366
  N       1.404687      1.900184     -0.160963
  C       2.161964      0.781657      0.016104
  C       3.534518      0.588441     -0.088989
  C       4.016422     -0.678641      0.154851
  C       3.163221     -1.734648      0.495112
  C       1.803347     -1.550884      0.599238
  C       1.284887     -0.278875      0.358896
  C      -3.825763     -0.622910      1.019640
  O      -4.908688     -0.019840      0.904388
  O      -3.611020     -1.766530      1.449816
  H      -2.993272      1.531027     -1.077794
  H      -3.574765     -0.002135     -1.291863
  H      -1.934127      0.291463     -1.468931
  H      -2.572566      1.149326      1.087722
  H      -1.296947     -1.449865      0.122994
  H      -1.212157     -0.849114      1.754069
  H      -0.654964      2.356700      0.002238
  H       1.755952      2.814035     -0.394489
  H       4.199167      1.397985     -0.348123
  H       5.078029     -0.867109      0.085688
  H       3.587670     -2.710753      0.680299
  H       1.149821     -2.368488      0.866451
27
Coordinates from ORCA-job geo_opt E -43.668919749870
  N      -2.760012      0.522040     -0.943767
  C      -2.564743      0.222326      0.512153
  C      -1.263201     -0.525186      0.732650
  C      -0.038528      0.266915      0.399946
  C       0.087652      1.591855      0.094000
  N       1.400874      1.903897     -0.133338
  C       2.157263      0.782236      0.024751
  C       3.528937      0.589578     -0.096464
  C       4.011593     -0.681046      0.128941
  C       3.161430     -1.738922      0.465293
  C       1.802143     -1.555127      0.583871
  C       1.282453     -0.280153      0.362157
  C      -3.833192     -0.605752      1.016859
  O      -4.916730     -0.075616      0.722233
  O      -3.619984     -1.672472      1.592101
  H      -2.982187      1.510192     -1.096065
  H      -3.552050     -0.028892     -1.295910
  H      -1.908083      0.277297     -1.462756
  H      -2.575107      1.157924      1.072465
  H      -1.288211     -1.456703      0.160291
  H      -1.226269     -0.829595      1.782959
  H      -0.653856      2.364238      0.048453
  H       1.750445      2.819100     -0.358573
  H       4.189345      1.403236     -0.353107
  H       5.072636     -0.869038      0.047417
  H       3.586692     -2.717329      0.636044
  H       1.150691     -2.375002      0.848957
27
Coordinates from ORCA-job geo_opt E -43.671395434580
  N      -2.727587      0.494596     -0.953467
  C      -2.557465      0.226236      0.504348
  C      -1.267747     -0.519821      0.773469
  C      -0.039496      0.266370      0.439156
  C       0.083989      1.597493      0.158101
  N       1.395168      1.910357     -0.084522
  C       2.148334      0.783211      0.040364
  C       3.517625      0.589765     -0.109903
  C       4.002524     -0.686331      0.082000
  C       3.156608     -1.746223      0.412043
  C       1.798976     -1.561339      0.557377
  C       1.277650     -0.281406      0.368908
  C      -3.844192     -0.577187      1.003008
  O      -4.879043     -0.253725      0.407973
  O      -3.674802     -1.442929      1.839112
  H      -2.958973      1.477131     -1.124466
  H      -3.515757     -0.067749     -1.299332
  H      -1.863196      0.254422     -1.452273
  H      -2.582963      1.171281      1.047954
  H      -1.270857     -1.465390      0.225422
  H      -1.256778     -0.795876      1.832776
  H      -0.650878      2.377210      0.128987
  H       1.742416      2.827201     -0.295958
  H       4.171253      1.410304     -0.362602
  H       5.061778     -0.873920     -0.022446
  H       3.582378     -2.728721      0.556666
  H       1.151038     -2.384958      0.818870
27
Coordinates from ORCA-job geo_opt E -43.673239219880
  N      -2.710243      0.485291     -0.954681
  C      -2.552851      0.229970      0.498372
  C      -1.271483     -0.515693      0.797980
  C      -0.038994      0.264658      0.462669
  C       0.083013      1.600010      0.194815
  N       1.392787      1.913515     -0.058419
  C       2.142467      0.783427      0.049214
  C       3.509558      0.586590     -0.118032
  C       3.999659     -0.690985      0.054614
  C       3.155117     -1.750179      0.382898
  C       1.798886     -1.563497      0.544684
  C       1.275708     -0.281335      0.374319
  C      -3.843153     -0.565112      0.983404
  O      -4.816341     -0.414646      0.238993
  O      -3.738045     -1.266691      1.962197
  H      -2.945501      1.465487     -1.131193
  H      -3.506382     -0.076455     -1.291514
  H      -1.843605      0.246570     -1.448883
  H      -2.593224      1.175715      1.040043
  H      -1.255354     -1.466663      0.259908
  H      -1.282541     -0.780693      1.860146
  H      -0.649435      2.382344      0.170211
  H       1.738714      2.830070     -0.264031
  H       4.159862      1.410969     -0.370140
  H       5.056971     -0.878523     -0.064032
  H       3.580847     -2.734929      0.512880
  H       1.153562     -2.389216      0.805140
27
Coordinates from ORCA-job geo_opt E -43.674619685710
  N      -2.718240      0.498717     -0.943854
  C      -2.550691      0.237494      0.489036
  C      -1.275013     -0.512206      0.807196
  C      -0.032810      0.257770      0.471961
  C       0.087514      1.597929      0.204248
  N       1.396397      1.913568     -0.057270
  C       2.141483      0.782982      0.051574
  C       3.506007      0.574956     -0.119482
  C       4.014023     -0.697031      0.048009
  C       3.166151     -1.751189      0.381237
  C       1.811208     -1.560881      0.549427
  C       1.282122     -0.279758      0.380543
  C      -3.815624     -0.572823      0.944323
  O      -4.769125     -0.515449      0.155602
  O      -3.779681     -1.178371      2.004070
  H      -2.958601      1.478851     -1.109163
  H      -3.552631     -0.047544     -1.245067
  H      -1.870660      0.258303     -1.466519
  H      -2.612721      1.168602      1.054873
  H      -1.228567     -1.456982      0.257768
  H      -1.318879     -0.791562      1.863368
  H      -0.650108      2.375150      0.167999
  H       1.741091      2.827776     -0.267141
  H       4.157136      1.400777     -0.376518
  H       5.068379     -0.884448     -0.076508
  H       3.592079     -2.736594      0.509247
  H       1.169761     -2.388036      0.812603
27
Coordinates from ORCA-job geo_opt E -43.677216450020
  N      -2.709848      0.472033     -0.964719
  C      -2.544366      0.243387      0.475622
  C      -1.277690     -0.506377      0.826824
  C      -0.030665      0.257984      0.494930
  C       0.090570      1.601158      0.250869
  N       1.398996      1.918335     -0.015362
  C       2.144061      0.784043      0.066666
  C       3.507559      0.580961     -0.120030
  C       4.008667     -0.696201      0.021138
  C       3.161465     -1.756694      0.341646
  C       1.808650     -1.569044      0.523862
  C       1.282005     -0.283621      0.382812
  C      -3.827630     -0.546757      0.946078
  O      -4.679109     -0.689550      0.054230
  O      -3.865574     -0.966247      2.089105
  H      -2.940662      1.449221     -1.159315
  H      -3.564096     -0.074285     -1.223228
  H      -1.870852      0.206638     -1.487534
  H      -2.603717      1.185145      1.024433
  H      -1.226041     -1.463967      0.300567
  H      -1.337026     -0.756744      1.889840
  H      -0.638605      2.386829      0.235007
  H       1.743342      2.838418     -0.208029
  H       4.154211      1.412337     -0.365905
  H       5.062432     -0.881690     -0.114922
  H       3.585502     -2.745183      0.449009
  H       1.168422     -2.400129      0.777968
27
Coordinates from ORCA-job geo_opt E -43.678484170320
  N      -2.722765      0.456099     -0.999929
  C      -2.546748      0.254891      0.468630
  C      -1.274846     -0.494733      0.823737
  C      -0.026299      0.270019      0.500557
  C       0.103047      1.608389      0.274626
  N       1.412607      1.922734      0.013203
  C       2.166595      0.786452      0.075418
  C       3.531790      0.597978     -0.112432
  C       4.001261     -0.688128      0.016615
  C       3.150066     -1.762916      0.320959
  C       1.800760     -1.581323      0.503506
  C       1.286494     -0.290307      0.380944
  C      -3.856174     -0.545893      0.963334
  O      -4.666127     -0.743815      0.023236
  O      -3.866447     -0.919192      2.134553
  H      -2.933737      1.426044     -1.251580
  H      -3.604013     -0.111303     -1.165198
  H      -1.911679      0.134579     -1.532658
  H      -2.573851      1.204632      1.007206
  H      -1.259968     -1.466009      0.319299
  H      -1.315768     -0.703364      1.897093
  H      -0.613990      2.404159      0.289806
  H       1.759604      2.855585     -0.160548
  H       4.178714      1.428210     -0.341836
  H       5.057350     -0.874113     -0.118143
  H       3.567833     -2.754416      0.416239
  H       1.156292     -2.414258      0.744926
27
Coordinates from ORCA-job geo_opt E -43.679661245830
  N      -2.707981      0.451900     -0.985274
  C      -2.546028      0.265261      0.469318
  C      -1.276546     -0.477036      0.845360
  C      -0.024850      0.282225      0.519648
  C       0.110265      1.624588      0.302949
  N       1.418253      1.933017      0.031348
  C       2.160919      0.791931      0.081046
  C       3.521895      0.587055     -0.119086
  C       3.997070     -0.699942     -0.007075
  C       3.140284     -1.766299      0.296335
  C       1.793091     -1.573330      0.492915
  C       1.282368     -0.278928      0.385062
  C      -3.827686     -0.565423      0.923297
  O      -4.524811     -0.958461     -0.042193
  O      -3.991155     -0.746123      2.126388
  H      -2.905687      1.419654     -1.248051
  H      -3.614901     -0.102794     -1.120489
  H      -1.910574      0.104745     -1.520307
  H      -2.600274      1.208545      1.015625
  H      -1.239867     -1.446776      0.339130
  H      -1.338319     -0.687390      1.917205
  H      -0.609133      2.418525      0.319547
  H       1.769556      2.859629     -0.139812
  H       4.175526      1.414634     -0.349277
  H       5.049172     -0.893359     -0.153611
  H       3.553343     -2.761413      0.378837
  H       1.146071     -2.404437      0.732727
27
Coordinates from ORCA-job geo_opt E -43.680330435970
  N      -2.698402      0.455603     -0.970290
  C      -2.555030      0.264738      0.483616
  C      -1.274253     -0.467525      0.841269
  C      -0.030406      0.298750      0.510062
  C       0.110687      1.640049      0.283365
  N       1.419081      1.940409      0.015071
  C       2.153831      0.797029      0.074418
  C       3.513724      0.579867     -0.118844
  C       3.987934     -0.708322      0.001178
  C       3.127074     -1.765497      0.307294
  C       1.778856     -1.561645      0.498827
  C       1.273694     -0.266009      0.381702
  C      -3.811017     -0.588592      0.926051
  O      -4.575210     -0.879170     -0.016167
  O      -3.931057     -0.867882      2.114773
  H      -2.908768      1.420709     -1.228975
  H      -3.566706     -0.133439     -1.165869
  H      -1.876537      0.128975     -1.482617
  H      -2.616997      1.207745      1.026775
  H      -1.241002     -1.430824      0.324121
  H      -1.320258     -0.694346      1.910886
  H      -0.614919      2.428788      0.295217
  H       1.776825      2.860016     -0.163101
  H       4.177537      1.399570     -0.352880
  H       5.038933     -0.910474     -0.140667
  H       3.537033     -2.761587      0.395673
  H       1.125354     -2.386937      0.740673
27
Coordinates from ORCA-job geo_opt E -43.680702207380
  N      -2.696379      0.453173     -0.974240
  C      -2.557815      0.271043      0.486425
  C      -1.273501     -0.458960      0.847171
  C      -0.030962      0.307832      0.514243
  C       0.114747      1.647852      0.291731
  N       1.423357      1.944488      0.022298
  C       2.157352      0.798798      0.075464
  C       3.516665      0.581670     -0.120612
  C       3.980862     -0.709811     -0.004403
  C       3.117761     -1.768113      0.299116
  C       1.770994     -1.562212      0.493278
  C       1.271648     -0.264233      0.381543
  C      -3.814713     -0.593705      0.923918
  O      -4.546984     -0.918965     -0.036142
  O      -3.941839     -0.858689      2.118368
  H      -2.901974      1.414647     -1.249856
  H      -3.562458     -0.150009     -1.155225
  H      -1.876973      0.112337     -1.481206
  H      -2.617679      1.216788      1.024668
  H      -1.250031     -1.426989      0.338144
  H      -1.311409     -0.673244      1.919981
  H      -0.609083      2.438001      0.312657
  H       1.784479      2.866263     -0.152846
  H       4.183236      1.398602     -0.352033
  H       5.031516     -0.914944     -0.147676
  H       3.524447     -2.765595      0.383530
  H       1.114736     -2.386022      0.733267
27
Coordinates from ORCA-job geo_opt E -43.680787205180
  N      -2.689938      0.453061     -0.972804
  C      -2.560957      0.276515      0.489422
  C      -1.273835     -0.450051      0.854720
  C      -0.032687      0.316899      0.518193
  C       0.117601      1.656806      0.298488
  N       1.426196      1.949384      0.026890
  C       2.156716      0.801042      0.075755
  C       3.514756      0.579976     -0.123316
  C       3.974000     -0.713679     -0.010732
  C       3.108342     -1.770158      0.291925
  C       1.762700     -1.559983      0.489309
  C       1.268022     -0.260035      0.381556
  C      -3.808872     -0.603196      0.917869
  O      -4.513943     -0.964796     -0.050752
  O      -3.957675     -0.845356      2.116072
  H      -2.893336      1.411692     -1.257959
  H      -3.550040     -0.163478     -1.152931
  H      -1.869021      0.104878     -1.472647
  H      -2.625520      1.223218      1.024694
  H      -1.252855     -1.420563      0.350459
  H      -1.308216     -0.658611      1.928763
  H      -0.607152      2.446004      0.324735
  H       1.790962      2.870201     -0.147655
  H       4.185356      1.393657     -0.354115
  H       5.023621     -0.922597     -0.156149
  H       3.512016     -2.769040      0.373042
  H       1.103755     -2.381791      0.728730
27
Coordinates from ORCA-job geo_opt E -43.680802629860
  N      -2.686042      0.453671     -0.971413
  C      -2.562311      0.278868      0.491042
  C      -1.274353     -0.445870      0.860470
  C      -0.033751      0.320647      0.520754
  C       0.118571      1.660633      0.301964
  N       1.426995      1.951378      0.028382
  C       2.155624      0.801692      0.075423
  C       3.512940      0.578726     -0.125922
  C       3.970653     -0.715753     -0.014675
  C       3.104142     -1.771097      0.288845
  C       1.759029     -1.558929      0.488395
  C       1.266164     -0.258223      0.382040
  C      -3.805299     -0.608034      0.913619
  O      -4.498480     -0.981829     -0.059246
  O      -3.965359     -0.842700      2.112330
  H      -2.891075      1.411007     -1.258726
  H      -3.539433     -0.171140     -1.155602
  H      -1.862523      0.105833     -1.467576
  H      -2.630979      1.225906      1.024853
  H      -1.253345     -1.418254      0.359948
  H      -1.308014     -0.650988      1.935094
  H      -0.607216      2.448817      0.330487
  H       1.793364      2.871250     -0.147123
  H       4.185175      1.390891     -0.357449
  H       5.019705     -0.926213     -0.161758
  H       3.506626     -2.770531      0.368842
  H       1.099191     -2.379759      0.728564
27
Coordinates from ORCA-job geo_opt E -43.680807547610
  N      -2.681664      0.453390     -0.971851
  C      -2.562790      0.279742      0.490937
  C      -1.275236     -0.443490      0.865428
  C      -0.034527      0.322052      0.523422
  C       0.118646      1.662137      0.305410
  N       1.426835      1.952158      0.030200
  C       2.154504      0.801715      0.075517
  C       3.511380      0.578151     -0.128047
  C       3.968498     -0.716740     -0.018210
  C       3.101823     -1.771660      0.286054
  C       1.757082     -1.558768      0.487660
  C       1.264931     -0.257689      0.382734
  C      -3.804412     -0.610045      0.911519
  O      -4.491030     -0.992057     -0.062998
  O      -3.970682     -0.838498      2.110562
  H      -2.889456      1.409984     -1.259432
  H      -3.529566     -0.176712     -1.160694
  H      -1.854860      0.108622     -1.464968
  H      -2.634405      1.227388      1.023200
  H      -1.253198     -1.417940      0.369012
  H      -1.310163     -0.644638      1.940666
  H      -0.607588      2.449840      0.335456
  H       1.793816      2.871557     -0.146144
  H       4.183941      1.389858     -0.360189
  H       5.017212     -0.927644     -0.167053
  H       3.503783     -2.771394      0.364951
  H       1.097125     -2.379317      0.728422
27
Coordinates from ORCA-job geo_opt E -43.680811297250
  N      -2.677116      0.449992     -0.973423
  C      -2.562820      0.280728      0.489992
  C      -1.276205     -0.440258      0.871987
  C      -0.034900      0.323552      0.527651
  C       0.119194      1.663863      0.311248
  N       1.427043      1.953167      0.033959
  C       2.153603      0.801823      0.076335
  C       3.509937      0.577692     -0.130324
  C       3.966345     -0.717715     -0.023112
  C       3.099454     -1.772306      0.281593
  C       1.755251     -1.558733      0.486177
  C       1.263878     -0.257135      0.383906
  C      -3.804328     -0.610262      0.908755
  O      -4.483636     -1.000041     -0.067824
  O      -3.977140     -0.832107      2.108149
  H      -2.889634      1.405089     -1.262588
  H      -3.518884     -0.185682     -1.165550
  H      -1.846450      0.109349     -1.463155
  H      -2.638062      1.229856      1.019136
  H      -1.252318     -1.417629      0.381396
  H      -1.314013     -0.635504      1.948127
  H      -0.607001      2.451500      0.343658
  H       1.794587      2.872200     -0.142935
  H       4.182573      1.389209     -0.362820
  H       5.014621     -0.928984     -0.174485
  H       3.500734     -2.772482      0.358453
  H       1.095290     -2.379180      0.727258
27
Coordinates from ORCA-job geo_opt E -43.680815466630
  N      -2.669622      0.441564     -0.977638
  C      -2.562683      0.281977      0.487366
  C      -1.277599     -0.435041      0.881315
  C      -0.035231      0.326218      0.534815
  C       0.120330      1.666973      0.321972
  N       1.427692      1.955196      0.041815
  C       2.152565      0.802496      0.078567
  C       3.508037      0.577424     -0.132914
  C       3.962955     -0.718931     -0.030973
  C       3.095506     -1.773218      0.273263
  C       1.752224     -1.558584      0.482636
  C       1.262263     -0.256004      0.385749
  C      -3.805187     -0.608891      0.905939
  O      -4.475158     -1.011337     -0.071857
  O      -3.986225     -0.818541      2.106273
  H      -2.888583      1.393709     -1.271943
  H      -3.504255     -0.201304     -1.172143
  H      -1.833353      0.105685     -1.461264
  H      -2.642388      1.234255      1.010153
  H      -1.250814     -1.416735      0.399568
  H      -1.320495     -0.620827      1.958898
  H      -0.605040      2.455182      0.358757
  H       1.796080      2.873992     -0.134696
  H       4.180819      1.388873     -0.365042
  H       5.010521     -0.930896     -0.186309
  H       3.495546     -2.774212      0.345956
  H       1.092096     -2.379023      0.723299
27
Coordinates from ORCA-job geo_opt E -43.680826911990
  N      -2.645487      0.409178     -0.992192
  C      -2.561970      0.285875      0.477794
  C      -1.281693     -0.417253      0.910051
  C      -0.036015      0.336465      0.558513
  C       0.125036      1.678744      0.358801
  N       1.430996      1.963070      0.070014
  C       2.149763      0.805897      0.087152
  C       3.502165      0.576966     -0.139788
  C       3.951321     -0.722710     -0.056630
  C       3.081309     -1.775845      0.244357
  C       1.741244     -1.557148      0.469263
  C       1.256794     -0.251097      0.391532
  C      -3.807607     -0.602550      0.897802
  O      -4.449357     -1.045303     -0.081070
  O      -4.014091     -0.772125      2.100404
  H      -2.882161      1.350179     -1.308543
  H      -3.460487     -0.254904     -1.188792
  H      -1.793121      0.084013     -1.454949
  H      -2.654655      1.249453      0.977020
  H      -1.245910     -1.411812      0.456197
  H      -1.341008     -0.573028      1.991573
  H      -0.596776      2.469393      0.410858
  H       1.802594      2.881282     -0.103222
  H       4.176235      1.387959     -0.369379
  H       4.996341     -0.937633     -0.224653
  H       3.476653     -2.779693      0.302162
  H       1.079884     -2.377374      0.707290
27
Coordinates from ORCA-job geo_opt E -43.680846908630
  N      -2.566370      0.300526     -1.031813
  C      -2.557199      0.294810      0.445670
  C      -1.294912     -0.358615      0.993632
  C      -0.038781      0.372044      0.629975
  C       0.142757      1.717963      0.473715
  N       1.444696      1.988889      0.159986
  C       2.141258      0.818473      0.115157
  C       3.482850      0.576121     -0.158265
  C       3.910353     -0.733207     -0.135313
  C       3.029777     -1.781318      0.152343
  C       1.700855     -1.548865      0.423909
  C       1.237420     -0.232627      0.407669
  C      -3.811938     -0.583727      0.872351
  O      -4.368144     -1.148726     -0.094621
  O      -4.096931     -0.630383      2.070190
  H      -2.849639      1.199744     -1.424326
  H      -3.323369     -0.424608     -1.221966
  H      -1.670728      0.005325     -1.429110
  H      -2.686349      1.291186      0.865302
  H      -1.233987     -1.387259      0.627535
  H      -1.405148     -0.422145      2.080458
  H      -0.565498      2.516356      0.573929
  H       1.828146      2.904896      0.000210
  H       4.163439      1.384314     -0.377406
  H       4.946373     -0.958461     -0.341394
  H       3.407684     -2.793502      0.162506
  H       1.033384     -2.367205      0.651243
27
Coordinates from ORCA-job geo_opt E -43.680866658010
  N      -2.589371      0.331124     -1.021475
  C      -2.559118      0.292304      0.455318
  C      -1.290431     -0.376099      0.970341
  C      -0.037892      0.362246      0.610521
  C       0.137252      1.707376      0.441644
  N       1.440244      1.982066      0.134135
  C       2.143720      0.815456      0.106897
  C       3.488399      0.576387     -0.153455
  C       3.922522     -0.730345     -0.113084
  C       3.045131     -1.779994      0.178754
  C       1.712941     -1.551141      0.437091
  C       1.243131     -0.237614      0.403102
  C      -3.810780     -0.588596      0.879396
  O      -4.393326     -1.116730     -0.093355
  O      -4.072344     -0.672604      2.080537
  H      -2.855689      1.243562     -1.394110
  H      -3.367857     -0.373890     -1.213237
  H      -1.706496      0.022512     -1.436148
  H      -2.677503      1.280242      0.897536
  H      -1.236445     -1.395458      0.578131
  H      -1.385379     -0.465928      2.056759
  H      -0.574879      2.503895      0.528354
  H       1.820072      2.898946     -0.028775
  H       4.167277      1.385297     -0.375773
  H       4.961160     -0.953124     -0.308177
  H       3.428368     -2.789909      0.202730
  H       1.047293     -2.369982      0.667907
27
Coordinates from ORCA-job geo_opt E -43.680904987650
  N      -2.568684      0.303108     -1.029203
  C      -2.558167      0.292653      0.448480
  C      -1.292224     -0.362201      0.990246
  C      -0.038793      0.373402      0.628698
  C       0.141538      1.719262      0.469848
  N       1.443464      1.989865      0.154766
  C       2.141406      0.820478      0.112687
  C       3.482854      0.576170     -0.158600
  C       3.911042     -0.732853     -0.132250
  C       3.030397     -1.780637      0.156732
  C       1.701261     -1.547023      0.425896
  C       1.237468     -0.231023      0.406095
  C      -3.809631     -0.585728      0.871185
  O      -4.375552     -1.136637     -0.098973
  O      -4.088954     -0.648046      2.069849
  H      -2.832171      1.206161     -1.425622
  H      -3.346374     -0.407523     -1.215168
  H      -1.679354     -0.011284     -1.424764
  H      -2.683734      1.288603      0.869574
  H      -1.232877     -1.388382      0.618115
  H      -1.397235     -0.429427      2.077323
  H      -0.566435      2.518231      0.568354
  H       1.826569      2.906396     -0.002114
  H       4.164878      1.383288     -0.378368
  H       4.947088     -0.959855     -0.335652
  H       3.408959     -2.792469      0.169745
  H       1.033262     -2.364529      0.654683
27
Coordinates from ORCA-job geo_opt E -43.680942167820
  N      -2.525756      0.241714     -1.045373
  C      -2.554533      0.292059      0.431478
  C      -1.297212     -0.333587      1.029178
  C      -0.040744      0.394753      0.663718
  C       0.151114      1.741806      0.528388
  N       1.450847      2.004936      0.199266
  C       2.136627      0.830136      0.125343
  C       3.471558      0.576900     -0.168183
  C       3.887403     -0.736280     -0.171261
  C       3.000345     -1.780636      0.110634
  C       1.677433     -1.538606      0.401791
  C       1.225924     -0.218157      0.411530
  C      -3.809199     -0.576309      0.856758
  O      -4.347755     -1.169356     -0.104519
  O      -4.119841     -0.593594      2.049312
  H      -2.784806      1.123863     -1.488972
  H      -3.297590     -0.481200     -1.218882
  H      -1.623619     -0.081806     -1.402351
  H      -2.692939      1.304417      0.806604
  H      -1.226932     -1.373299      0.700821
  H      -1.425355     -0.354315      2.115572
  H      -0.547773      2.545278      0.652451
  H       1.841156      2.920734      0.056418
  H       4.159320      1.380925     -0.381864
  H       4.918208     -0.970522     -0.391979
  H       3.369281     -2.795985      0.100472
  H       1.004836     -2.353866      0.625214
27
Coordinates from ORCA-job geo_opt E -43.680984487330
  N      -2.469481      0.159608     -1.063371
  C      -2.547252      0.289999      0.406889
  C      -1.305368     -0.294399      1.077234
  C      -0.043272      0.421698      0.706853
  C       0.165273      1.769336      0.604154
  N       1.462167      2.023168      0.258539
  C       2.130449      0.841742      0.142582
  C       3.456825      0.578436     -0.179247
  C       3.855509     -0.739347     -0.221266
  C       2.959508     -1.778933      0.049713
  C       1.644788     -1.527081      0.368192
  C       1.210309     -0.201661      0.417312
  C      -3.808608     -0.563027      0.838406
  O      -4.309855     -1.215146     -0.105006
  O      -4.160382     -0.516038      2.018684
  H      -2.724759      1.011982     -1.563856
  H      -3.228652     -0.581113     -1.220285
  H      -1.552067     -0.170037     -1.372535
  H      -2.701163      1.320894      0.720474
  H      -1.221421     -1.349742      0.809045
  H      -1.466486     -0.254341      2.158488
  H      -0.521278      2.577618      0.761995
  H       1.862916      2.937195      0.134473
  H       4.151874      1.378545     -0.384009
  H       4.879379     -0.981630     -0.464320
  H       3.315068     -2.798237      0.009195
  H       0.965981     -2.339488      0.583231
27
Coordinates from ORCA-job geo_opt E -43.681221254870
  N      -2.359572      0.013800     -1.079375
  C      -2.529190      0.282766      0.364073
  C      -1.322877     -0.220672      1.157664
  C      -0.048900      0.470570      0.781184
  C       0.192435      1.816212      0.734230
  N       1.484307      2.052674      0.361641
  C       2.117992      0.861543      0.172664
  C       3.427794      0.580732     -0.198256
  C       3.791916     -0.742960     -0.309714
  C       2.877523     -1.771696     -0.059536
  C       1.578835     -1.502573      0.306623
  C       1.178746     -0.170570      0.426637
  C      -3.804341     -0.544898      0.799692
  O      -4.230621     -1.304484     -0.099217
  O      -4.236319     -0.381172      1.942396
  H      -2.609547      0.804737     -1.674521
  H      -3.088944     -0.762261     -1.206219
  H      -1.415639     -0.310624     -1.301637
  H      -2.706952      1.337144      0.566741
  H      -1.220330     -1.295605      0.998822
  H      -1.543797     -0.073438      2.218523
  H      -0.470617      2.631223      0.949051
  H       1.905486      2.961120      0.267793
  H       4.137258      1.372226     -0.386490
  H       4.802244     -0.999140     -0.591829
  H       3.206044     -2.796366     -0.154498
  H       0.887065     -2.308288      0.505122
27
Coordinates from ORCA-job geo_opt E -43.681512115950
  N      -2.259228     -0.112667     -1.077513
  C      -2.506959      0.271895      0.328103
  C      -1.339288     -0.159376      1.218283
  C      -0.054287      0.510563      0.842438
  C       0.215257      1.851755      0.839418
  N       1.502815      2.074427      0.446003
  C       2.106011      0.878169      0.198202
  C       3.400909      0.584374     -0.212619
  C       3.733337     -0.741365     -0.383024
  C       2.802190     -1.759600     -0.152144
  C       1.517942     -1.477488      0.252976
  C       1.149785     -0.143011      0.434124
  C      -3.799225     -0.527847      0.762636
  O      -4.169995     -1.366438     -0.089575
  O      -4.294988     -0.271918      1.861648
  H      -2.488164      0.621161     -1.749741
  H      -2.972071     -0.908082     -1.175202
  H      -1.300111     -0.436958     -1.222019
  H      -2.694868      1.338655      0.434388
  H      -1.227435     -1.242489      1.148942
  H      -1.610813      0.072438      2.251389
  H      -0.427250      2.670328      1.099110
  H       1.941860      2.976596      0.377121
  H       4.123195      1.367505     -0.386465
  H       4.731434     -1.007907     -0.697225
  H       3.106084     -2.786429     -0.293540
  H       0.813862     -2.276293      0.435849
27
Coordinates from ORCA-job geo_opt E -43.681736044560
  N      -2.190404     -0.199128     -1.069995
  C      -2.488040      0.261614      0.302941
  C      -1.350903     -0.118288      1.255002
  C      -0.057793      0.536819      0.882924
  C       0.231248      1.873647      0.908825
  N       1.516078      2.087428      0.502550
  C       2.097672      0.889122      0.215614
  C       3.381975      0.587374     -0.221797
  C       3.691853     -0.738213     -0.431826
  C       2.748874     -1.748446     -0.214048
  C       1.474938     -1.458336      0.217175
  C       1.129702     -0.123754      0.439353
  C      -3.794232     -0.516157      0.735355
  O      -4.132407     -1.403380     -0.080437
  O      -4.329890     -0.199834      1.799311
  H      -2.400124      0.494531     -1.789649
  H      -2.895090     -1.003463     -1.147287
  H      -1.224714     -0.523585     -1.163129
  H      -2.678259      1.332635      0.344072
  H      -1.235314     -1.203195      1.246122
  H      -1.656943      0.168390      2.263851
  H      -0.397188      2.693376      1.197729
  H       1.967666      2.984546      0.450224
  H       4.113165      1.364290     -0.385893
  H       4.681210     -1.010877     -0.767640
  H       3.035098     -2.775476     -0.386979
  H       0.761824     -2.251639      0.389197
27
Coordinates from ORCA-job geo_opt E -43.682001838500
  N      -2.118862     -0.286655     -1.055836
  C      -2.466060      0.248578      0.278079
  C      -1.363152     -0.078060      1.289500
  C      -0.061410      0.562247      0.923515
  C       0.247683      1.893647      0.978536
  N       1.529335      2.098991      0.558502
  C       2.088617      0.900090      0.232223
  C       3.361346      0.591032     -0.233039
  C       3.648096     -0.733036     -0.482141
  C       2.693746     -1.734851     -0.275355
  C       1.431069     -1.437532      0.183222
  C       1.109113     -0.104133      0.445188
  C      -3.788860     -0.503813      0.703604
  O      -4.099217     -1.433540     -0.075168
  O      -4.362455     -0.130305      1.728477
  H      -2.301814      0.365536     -1.820066
  H      -2.821188     -1.094623     -1.114267
  H      -1.150170     -0.613366     -1.095511
  H      -2.654041      1.320550      0.253716
  H      -1.246482     -1.161594      1.341109
  H      -1.703690      0.262275      2.269732
  H      -0.365837      2.713943      1.296582
  H       1.993538      2.990521      0.522692
  H       4.101263      1.361337     -0.388839
  H       4.627908     -1.011198     -0.840607
  H       2.961951     -2.761028     -0.479161
  H       0.709575     -2.225014      0.346878
27
Coordinates from ORCA-job geo_opt E -43.682329236750
  N      -2.043557     -0.374373     -1.033726
  C      -2.441737      0.233728      0.253924
  C      -1.376234     -0.036223      1.321515
  C      -0.065796      0.589041      0.962697
  C       0.264582      1.913732      1.045900
  N       1.543729      2.109669      0.614117
  C       2.079066      0.911101      0.248682
  C       3.339610      0.594245     -0.243730
  C       3.600999     -0.727137     -0.532284
  C       2.633727     -1.718967     -0.337917
  C       1.382773     -1.413945      0.147109
  C       1.086613     -0.082941      0.449774
  C      -3.780999     -0.494321      0.668680
  O      -4.062897     -1.465397     -0.069449
  O      -4.392631     -0.066047      1.649118
  H      -2.194944      0.234010     -1.839497
  H      -2.744245     -1.184858     -1.074677
  H      -1.074036     -0.701397     -1.016650
  H      -2.625049      1.303083      0.162985
  H      -1.261125     -1.115379      1.433267
  H      -1.750267      0.356138      2.269048
  H      -0.333254      2.734084      1.392483
  H       2.021798      2.994369      0.595570
  H       4.089514      1.356548     -0.390642
  H       4.570722     -1.011065     -0.912935
  H       2.882225     -2.743327     -0.573107
  H       0.651412     -2.194370      0.301309
27
Coordinates from ORCA-job geo_opt E -43.682626450840
  N      -1.951749     -0.459051     -1.002645
  C      -2.406526      0.215683      0.232039
  C      -1.389364      0.002780      1.357542
  C      -0.071015      0.616054      1.013043
  C       0.279200      1.933432      1.115821
  N       1.554646      2.120261      0.667242
  C       2.063676      0.922311      0.263594
  C       3.308071      0.598045     -0.264236
  C       3.540773     -0.720301     -0.590544
  C       2.562469     -1.701608     -0.399041
  C       1.326931     -1.389073      0.120238
  C       1.060673     -0.060787      0.462405
  C      -3.768500     -0.486646      0.621628
  O      -4.021658     -1.492746     -0.078753
  O      -4.420556     -0.007529      1.550754
  H      -2.051643      0.112527     -1.842384
  H      -2.653425     -1.266586     -1.039070
  H      -0.987740     -0.796183     -0.918688
  H      -2.581614      1.279726      0.078200
  H      -1.277119     -1.070352      1.526261
  H      -1.799128      0.441950      2.267848
  H      -0.302925      2.752991      1.489524
  H       2.046123      2.997771      0.660117
  H       4.066482      1.351641     -0.410653
  H       4.497476     -1.008768     -0.999714
  H       2.789146     -2.723571     -0.664379
  H       0.587294     -2.161972      0.275415
27
Coordinates from ORCA-job geo_opt E -43.682615156610
  N      -1.887655     -0.576555     -0.965859
  C      -2.386037      0.190996      0.195323
  C      -1.410406      0.068042      1.373836
  C      -0.075569      0.651198      1.034414
  C       0.311637      1.953365      1.195605
  N       1.586243      2.126399      0.742606
  C       2.063038      0.934638      0.285802
  C       3.297041      0.600799     -0.259537
  C       3.498222     -0.707660     -0.640193
  C       2.497094     -1.672046     -0.482856
  C       1.271826     -1.350848      0.054330
  C       1.035440     -0.030943      0.447985
  C      -3.757712     -0.482508      0.588961
  O      -3.984548     -1.542952     -0.037150
  O      -4.446500      0.066629      1.451374
  H      -1.973285     -0.080222     -1.853832
  H      -2.589009     -1.388402     -0.958022
  H      -0.922420     -0.888786     -0.830698
  H      -2.552281      1.238911     -0.048608
  H      -1.309052     -0.986125      1.631662
  H      -1.857213      0.579857      2.227652
  H      -0.245709      2.770193      1.611665
  H       2.100359      2.990337      0.771253
  H       4.073950      1.341216     -0.376034
  H       4.446042     -1.003715     -1.063920
  H       2.698913     -2.687955     -0.788439
  H       0.517592     -2.113863      0.184243
27
Coordinates from ORCA-job geo_opt E -43.682622714480
  N      -1.865129     -0.581995     -0.972681
  C      -2.349036      0.177258      0.198560
  C      -1.402013      0.035900      1.393947
  C      -0.069536      0.637816      1.086868
  C       0.301505      1.945455      1.215449
  N       1.565932      2.131536      0.730206
  C       2.045316      0.938813      0.279253
  C       3.265836      0.614993     -0.302791
  C       3.471091     -0.696799     -0.672707
  C       2.493765     -1.674302     -0.461862
  C       1.281813     -1.364080      0.113137
  C       1.039816     -0.037218      0.487130
  C      -3.761898     -0.449347      0.555398
  O      -4.038747     -1.463408     -0.123545
  O      -4.425678      0.096260      1.438637
  H      -1.864704     -0.034486     -1.834561
  H      -2.607663     -1.344115     -1.026424
  H      -0.932909     -0.984027     -0.814627
  H      -2.497210      1.233199     -0.029176
  H      -1.292733     -1.023558      1.641136
  H      -1.864208      0.528749      2.248588
  H      -0.256807      2.760400      1.632374
  H       2.069055      3.002162      0.734390
  H       4.026168      1.365087     -0.456938
  H       4.409583     -0.979732     -1.125130
  H       2.702140     -2.692997     -0.753335
  H       0.556251     -2.141563      0.310266
27
Coordinates from ORCA-job geo_opt E -43.682766454770
  N      -1.945015     -0.519437     -1.000533
  C      -2.395583      0.197589      0.210595
  C      -1.395263      0.022989      1.358317
  C      -0.069383      0.627304      1.023453
  C       0.294940      1.938214      1.154289
  N       1.568741      2.123727      0.700299
  C       2.065594      0.929767      0.271426
  C       3.305655      0.605853     -0.266889
  C       3.529958     -0.708371     -0.614269
  C       2.549164     -1.687682     -0.426492
  C       1.317948     -1.376175      0.103909
  C       1.056022     -0.049119      0.456895
  C      -3.772024     -0.471526      0.611630
  O      -4.045451     -1.484805     -0.070221
  O      -4.416355      0.040160      1.529279
  H      -2.024193      0.034675     -1.854113
  H      -2.664408     -1.310977     -1.025727
  H      -0.989021     -0.875508     -0.902569
  H      -2.562497      1.257121      0.019729
  H      -1.284309     -1.041816      1.572818
  H      -1.824636      0.495379      2.242847
  H      -0.275497      2.754768      1.552086
  H       2.068399      2.996503      0.710345
  H       4.068335      1.357396     -0.402411
  H       4.483339     -0.995160     -1.032078
  H       2.771034     -2.708159     -0.701479
  H       0.584506     -2.152710      0.270425
27
Coordinates from ORCA-job geo_opt E -43.682804130200
  N      -1.915714     -0.550818     -0.987486
  C      -2.385517      0.189880      0.201903
  C      -1.400954      0.042387      1.366630
  C      -0.071821      0.640209      1.034909
  C       0.303019      1.946799      1.177378
  N       1.576921      2.126864      0.721549
  C       2.062473      0.933616      0.277764
  C       3.298064      0.605516     -0.268210
  C       3.509965     -0.706597     -0.631344
  C       2.521571     -1.679722     -0.451487
  C       1.294672     -1.363799      0.086335
  C       1.045344     -0.038795      0.455416
  C      -3.765451     -0.474856      0.598402
  O      -4.026364     -1.503736     -0.064587
  O      -4.423804      0.054617      1.495722
  H      -1.981683     -0.013493     -1.853032
  H      -2.631839     -1.344961     -1.007098
  H      -0.960961     -0.904223     -0.867568
  H      -2.551927      1.244844     -0.013426
  H      -1.292469     -1.017217      1.606447
  H      -1.842092      0.534936      2.234170
  H      -0.260666      2.762779      1.585917
  H       2.083808      2.995278      0.739216
  H       4.066819      1.351911     -0.397587
  H       4.459413     -0.996430     -1.055958
  H       2.733798     -2.698821     -0.738856
  H       0.555395     -2.136166      0.246444
27
Coordinates from ORCA-job geo_opt E -43.682809658330
  N      -1.913681     -0.555385     -0.987621
  C      -2.383974      0.187646      0.200000
  C      -1.401459      0.045275      1.366698
  C      -0.071874      0.642583      1.036467
  C       0.305135      1.948097      1.181887
  N       1.578804      2.127572      0.724814
  C       2.062288      0.934447      0.278432
  C       3.297071      0.605742     -0.269018
  C       3.507393     -0.706239     -0.633758
  C       2.518303     -1.678579     -0.453748
  C       1.292096     -1.361959      0.085392
  C       1.044250     -0.036941      0.455562
  C      -3.764537     -0.476188      0.597157
  O      -4.026328     -1.505220     -0.065079
  O      -4.422314      0.054580      1.494080
  H      -1.976154     -0.018015     -1.853464
  H      -2.630538     -1.348207     -1.008108
  H      -0.959996     -0.911661     -0.865905
  H      -2.551668      1.241949     -0.018003
  H      -1.292370     -1.013174      1.611865
  H      -1.844982      0.541177      2.231131
  H      -0.257220      2.764001      1.592350
  H       2.086786      2.995323      0.743247
  H       4.066504      1.351502     -0.397943
  H       4.456215     -0.996318     -1.059556
  H       2.729370     -2.697723     -0.741802
  H       0.552881     -2.134286      0.246486
27
Coordinates from ORCA-job geo_opt E -43.682814556950
  N      -1.915683     -0.553924     -0.990367
  C      -2.385423      0.186109      0.199269
  C      -1.401371      0.048509      1.364577
  C      -0.072192      0.646079      1.033992
  C       0.307305      1.950443      1.182011
  N       1.581703      2.128307      0.726045
  C       2.063246      0.934823      0.278379
  C       3.298236      0.604503     -0.267596
  C       3.507128     -0.707820     -0.632166
  C       2.516440     -1.678698     -0.453329
  C       1.289875     -1.360194      0.084044
  C       1.043335     -0.034846      0.453607
  C      -3.762872     -0.483009      0.599828
  O      -4.023901     -1.511259     -0.063697
  O      -4.418844      0.044043      1.500149
  H      -1.977944     -0.013810     -1.854595
  H      -2.630973     -1.347567     -1.012309
  H      -0.962021     -0.911324     -0.870343
  H      -2.558604      1.239787     -0.017772
  H      -1.290481     -1.008856      1.614260
  H      -1.845513      0.546868      2.227411
  H      -0.254118      2.766979      1.592458
  H       2.091115      2.995187      0.745269
  H       4.068989      1.349102     -0.395138
  H       4.456104     -0.999105     -1.056781
  H       2.726514     -2.698325     -0.740382
  H       0.549952     -2.132001      0.244738
27
Coordinates from ORCA-job geo_opt E -43.682816148260
  N      -1.916761     -0.549127     -0.992043
  C      -2.387235      0.186244      0.200170
  C      -1.401193      0.049995      1.363812
  C      -0.072487      0.647963      1.032022
  C       0.308028      1.952006      1.180032
  N       1.582847      2.128674      0.724684
  C       2.063751      0.934650      0.277716
  C       3.298978      0.602986     -0.266868
  C       3.507271     -0.709793     -0.630167
  C       2.515683     -1.679781     -0.451519
  C       1.288841     -1.359873      0.084405
  C       1.042930     -0.034116      0.452739
  C      -3.761349     -0.489233      0.601537
  O      -4.019925     -1.516342     -0.064746
  O      -4.417371      0.032509      1.504885
  H      -1.979567     -0.006365     -1.854592
  H      -2.630993     -1.343797     -1.016040
  H      -0.962759     -0.906061     -0.873278
  H      -2.565029      1.239669     -0.014295
  H      -1.289010     -1.007095      1.614089
  H      -1.844761      0.548368      2.226989
  H      -0.252979      2.769452      1.589237
  H       2.092786      2.995258      0.743506
  H       4.070385      1.346909     -0.394394
  H       4.456427     -1.002176     -1.053624
  H       2.725271     -2.699836     -0.737396
  H       0.548223     -2.131089      0.244702
27
Coordinates from ORCA-job geo_opt E -43.682817016520
  N      -1.916247     -0.542893     -0.993044
  C      -2.388749      0.186907      0.201803
  C      -1.401095      0.051163      1.364180
  C      -0.072835      0.649464      1.030941
  C       0.308245      1.953488      1.177576
  N       1.583293      2.128956      0.722350
  C       2.063794      0.934242      0.276789
  C       3.299047      0.601210     -0.266893
  C       3.506724     -0.712094     -0.628601
  C       2.514475     -1.681304     -0.449383
  C       1.287609     -1.360073      0.085682
  C       1.042419     -0.033810      0.452657
  C      -3.759606     -0.495826      0.602183
  O      -4.014491     -1.521513     -0.067791
  O      -4.416879      0.019705      1.508164
  H      -1.979587      0.002728     -1.853739
  H      -2.629199     -1.338940     -1.019855
  H      -0.961704     -0.898520     -0.874940
  H      -2.571324      1.240128     -0.009440
  H      -1.287815     -1.005917      1.613969
  H      -1.843950      0.548832      2.228111
  H      -0.252261      2.772058      1.585215
  H       2.093445      2.995450      0.739958
  H       4.070879      1.344564     -0.395166
  H       4.455915     -1.005586     -1.051218
  H       2.723539     -2.701792     -0.734090
  H       0.546357     -2.130628      0.246146
