27
Coordinates from ORCA-job geo_opt E -43.682817016520
  N          -1.91624692784500     -0.54289293818834     -0.99304447943316
  C          -2.38874918523863      0.18690702062764      0.20180310201488
  C          -1.40109483514282      0.05116296959472      1.36418042134248
  C          -0.07283495333854      0.64946445549529      1.03094138419983
  C           0.30824504875411      1.95348828441003      1.17757582914573
  N           1.58329304097488      2.12895620040049      0.72234998532475
  C           2.06379445256424      0.93424163250363      0.27678853498405
  C           3.29904686619496      0.60121029544784     -0.26689265452092
  C           3.50672357604715     -0.71209373853611     -0.62860112501508
  C           2.51447479916459     -1.68130393466106     -0.44938250381555
  C           1.28760882501022     -1.36007250790250      0.08568188791433
  C           1.04241902811558     -0.03381006464924      0.45265668131347
  C          -3.75960569708476     -0.49582566191655      0.60218304764577
  O          -4.01449103901062     -1.52151299078358     -0.06779114124631
  O          -4.41687899388525      0.01970527835982      1.50816411181518
  H          -1.97958712884851      0.00272782248145     -1.85373872443551
  H          -2.62919895946581     -1.33894039255021     -1.01985543916772
  H          -0.96170370538334     -0.89852008743617     -0.87494025772427
  H          -2.57132444888670      1.24012761882561     -0.00944001143939
  H          -1.28781459892403     -1.00591673209078      1.61396918575014
  H          -1.84395033435465      0.54883166415574      2.22811078941291
  H          -0.25226067489741      2.77205763411715      1.58521488318627
  H           2.09344503813323      2.99545019146031      0.73995839234745
  H           4.07087888199139      1.34456425860230     -0.39516638259496
  H           4.45591521781632     -1.00558566549999     -1.05121830530844
  H           2.72353921318786     -2.70179222854097     -0.73409027424059
  H           0.54635749435155     -2.13062841372654      0.24614634254467
