27
zwitterion conformer 3
N      -2.73856973     0.69216010    -0.77353392
C      -2.53997435     0.25169669     0.58985776
C      -1.24736093    -0.48469304     0.68921778
C      -0.06278216     0.30019341     0.31987736
C       0.07298093     1.58729847    -0.09920142
N       1.36743858     1.87643157    -0.32381477
C       2.08402584     0.77436426    -0.05095160
C       3.44113091     0.50976535    -0.10776318
C       3.97446709    -0.71926520     0.22397562
C       3.10301781    -1.71010894     0.62576005
C       1.73776416    -1.48045867     0.69441167
C       1.23045922    -0.22880092     0.35286387
C      -3.62098125    -0.73140130     0.89907333
O      -4.77879989    -0.26515802     1.08671300
O      -3.38728128    -2.09764699     0.98140457
H      -2.97980583     1.70827783    -0.79194558
H      -3.52309891     0.18797053    -1.24233907
H      -1.88332933     0.50118242    -1.34185532
H      -2.58897079     1.13253578     1.26652285
H      -1.28514324    -1.35263279     0.00495041
H      -1.17923236    -0.90633357     1.71229130
H      -0.71700677     2.28376786    -0.23681958
H       1.75756441     2.79510590    -0.65320031
H       4.14855706     1.26835456    -0.41952907
H       5.03705446    -0.93712150     0.18284587
H       3.52433317    -2.67671554     0.88647423
H       1.05354318    -2.27876828     1.01627743
