24
Coordinates from ORCA-job geo_opt E -43.531287286070
  N           3.34903290819540      1.22680693450925      0.18532150242588
  C           3.37607336599552     -0.00451162791232      0.99930172886022
  C           2.12613699594187     -0.88094817891251      0.93490417623105
  O           2.11585628915700     -1.95739870171613      1.51688505677656
  N           1.11183179120670     -0.42847322979117      0.19044872337564
  C          -0.17150416389217     -1.08542714973400      0.13137812606483
  C          -1.23762414719048      0.00164914472491      0.00737109822722
  O          -0.89369350415861      1.17052912854624     -0.15916782853151
  N          -2.49886008384544     -0.40981275163128      0.17295004422654
  C          -3.59618673798294      0.38756068789380     -0.31552160292073
  C          -3.74735446681499      0.22060080772155     -1.87412104839551
  O          -2.84252661385766     -0.41329477840187     -2.44538209034575
  O          -4.75359994598224      0.74164264391655     -2.38346624754837
  H           4.25622349159686      1.70637955535689      0.26169027757810
  H           3.18312054775740      1.00611865885326     -0.80462897345122
  H           2.61841211496151      1.87349720134059      0.50803300860567
  H           4.20842831774245     -0.64046289882582      0.69120832342737
  H           3.52871297433068      0.24026526135079      2.05242065885208
  H           1.01445113696046      0.53607522753638     -0.12071924765373
  H          -0.24403789201444     -1.72547925587726     -0.75536352749123
  H          -0.32541974550450     -1.70025507498698      1.02173261979178
  H          -2.65816413195033     -1.40721656246670      0.13924247950311
  H          -3.39077475719007      1.44170015884598     -0.12255550372984
  H          -4.52853375346197      0.10045481965985      0.16803823612186
