24
Coordinates from ORCA-job geo_opt E -43.469490672690
  N       3.687136      0.681281     -0.001775
  C       2.850729      0.699673      1.162476
  C       1.581351     -0.024046      1.003347
  O       0.780863     -0.053333      1.997544
  N       1.261569     -0.668358     -0.220712
  C       0.009878     -1.377876     -0.367062
  C      -1.147604     -0.465701     -0.161807
  O      -0.883905      0.754842      0.101617
  N      -2.457942     -0.960691     -0.261183
  C      -3.605695     -0.109487     -0.069221
  C      -3.640678      1.005847     -1.043238
  O      -2.765355      1.183257     -1.933220
  O      -4.680296      1.907598     -0.986824
  H       4.504215      1.304360      0.208867
  H       4.072227     -0.238906     -0.255068
  H       3.203623      1.105232     -0.822322
  H       3.426614      0.373338      2.052166
  H       2.575470      1.776841      1.334320
  H       1.973291     -0.594883     -0.983108
  H      -0.007278     -1.775684     -1.423584
  H      -0.083238     -2.241934      0.338217
  H      -2.610488     -1.975519     -0.480610
  H      -3.498379      0.369977      0.945091
  H      -4.546108     -0.675829     -0.133913
24
Coordinates from ORCA-job geo_opt E -43.506077322510
  N       3.710405      0.696629     -0.038029
  C       2.881770      0.649365      1.169042
  C       1.586239     -0.071335      1.031650
  O       0.839706     -0.160483      2.022734
  N       1.253364     -0.645093     -0.170244
  C      -0.002128     -1.322886     -0.338260
  C      -1.169654     -0.394624     -0.134616
  O      -0.964362      0.806318      0.117300
  N      -2.421698     -0.914843     -0.231534
  C      -3.598350     -0.097173     -0.080170
  C      -3.686795      0.983170     -1.119011
  O      -2.829667      1.138110     -2.011668
  O      -4.730620      1.773967     -1.073837
  H       4.534471      1.291325      0.172549
  H       4.074085     -0.215325     -0.345837
  H       3.214141      1.159836     -0.816931
  H       3.462998      0.265806      2.017151
  H       2.613059      1.692967      1.426897
  H       1.927474     -0.562133     -0.925452
  H      -0.029747     -1.701766     -1.377971
  H      -0.097962     -2.180845      0.349973
  H      -2.532522     -1.908530     -0.424168
  H      -3.528364      0.419410      0.899936
  H      -4.505842     -0.701866     -0.119503
24
Coordinates from ORCA-job geo_opt E -43.519226707130
  N       3.688567      0.739220     -0.064563
  C       2.884639      0.609724      1.172800
  C       1.582225     -0.148356      1.058188
  O       0.887103     -0.301747      2.050206
  N       1.252885     -0.656542     -0.135933
  C      -0.009619     -1.307727     -0.331783
  C      -1.159600     -0.335527     -0.099618
  O      -0.954621      0.842044      0.159145
  N      -2.378779     -0.865702     -0.184839
  C      -3.570245     -0.058773     -0.073242
  C      -3.702381      0.966693     -1.204938
  O      -2.844734      1.039714     -2.100722
  O      -4.722301      1.679203     -1.160693
  H       4.508730      1.327106      0.142797
  H       4.043226     -0.158704     -0.417736
  H       3.160320      1.224133     -0.800820
  H       3.484422      0.180337      1.975239
  H       2.601707      1.612449      1.508183
  H       1.886806     -0.540077     -0.905255
  H      -0.064695     -1.658225     -1.363904
  H      -0.116056     -2.161937      0.344017
  H      -2.475781     -1.850454     -0.359502
  H      -3.524030      0.509242      0.863909
  H      -4.457788     -0.686091     -0.070935
24
Coordinates from ORCA-job geo_opt E -43.524054566560
  N       3.596474      0.864040     -0.071093
  C       2.908427      0.529665      1.198726
  C       1.644345     -0.313362      1.097344
  O       1.057226     -0.634602      2.120117
  N       1.268582     -0.715963     -0.126285
  C      -0.022524     -1.315018     -0.332677
  C      -1.129844     -0.286582     -0.065881
  O      -0.873789      0.890160      0.153345
  N      -2.363380     -0.798105     -0.079988
  C      -3.535097      0.045792     -0.054759
  C      -3.700073      0.883704     -1.353048
  O      -2.875000      0.733636     -2.272431
  O      -4.691144      1.639313     -1.370513
  H       4.399681      1.472337      0.139929
  H       3.959291      0.032249     -0.553963
  H       2.975215      1.392118     -0.696095
  H       3.594875      0.031911      1.883384
  H       2.595487      1.453238      1.691598
  H       1.836454     -0.501096     -0.928009
  H      -0.112705     -1.641887     -1.367456
  H      -0.156284     -2.168046      0.337428
  H      -2.488572     -1.789419     -0.200979
  H      -3.457259      0.753141      0.776447
  H      -4.430385     -0.557225      0.074857
24
Coordinates from ORCA-job geo_opt E -43.526239015410
  N       3.520003      0.938833     -0.063880
  C       2.884036      0.497643      1.198404
  C       1.669394     -0.428768      1.082742
  O       1.109622     -0.801996      2.102342
  N       1.275477     -0.772034     -0.151772
  C      -0.033613     -1.340578     -0.349103
  C      -1.100735     -0.274253     -0.030453
  O      -0.795272      0.892478      0.179209
  N      -2.342594     -0.760898      0.014071
  C      -3.486980      0.114264     -0.019462
  C      -3.646573      0.813654     -1.418968
  O      -2.809926      0.518144     -2.289836
  O      -4.572322      1.639588     -1.492931
  H       4.292539      1.581504      0.157201
  H       3.910445      0.145649     -0.587310
  H       2.846295      1.449861     -0.647778
  H       3.612506     -0.010631      1.831621
  H       2.525706      1.364700      1.755714
  H       1.755385     -0.440153     -0.970649
  H      -0.163946     -1.645875     -1.384445
  H      -0.171667     -2.191573      0.320702
  H      -2.497114     -1.741960     -0.145994
  H      -3.385007      0.902484      0.729357
  H      -4.395661     -0.450082      0.181215
24
Coordinates from ORCA-job geo_opt E -43.526420052000
  N       3.454130      1.008301     -0.037521
  C       2.891021      0.443583      1.203291
  C       1.688792     -0.503500      1.057188
  O       1.184059     -0.970406      2.067671
  N       1.276007     -0.789419     -0.187254
  C      -0.047804     -1.341722     -0.359466
  C      -1.078532     -0.246568      0.000553
  O      -0.720936      0.909455      0.197325
  N      -2.328570     -0.705303      0.113955
  C      -3.436618      0.203742      0.012871
  C      -3.575259      0.749520     -1.474289
  O      -2.804953      0.219551     -2.291391
  O      -4.544824      1.498617     -1.676735
  H       4.229618      1.641999      0.199319
  H       3.818781      0.261179     -0.640452
  H       2.736480      1.547768     -0.539125
  H       3.655265     -0.123088      1.741557
  H       2.541366      1.239397      1.862612
  H       1.640373     -0.320562     -1.000805
  H      -0.216752     -1.637923     -1.392195
  H      -0.179229     -2.186005      0.319771
  H      -2.515661     -1.666082     -0.124974
  H      -3.300128      1.066026      0.666282
  H      -4.366626     -0.298559      0.281814
24
Coordinates from ORCA-job geo_opt E -43.528519986230
  N       3.441097      1.024340     -0.038952
  C       2.920367      0.425127      1.200764
  C       1.688119     -0.476940      1.064028
  O       1.226944     -0.991065      2.073409
  N       1.264506     -0.766718     -0.179137
  C      -0.055344     -1.338282     -0.333467
  C      -1.099894     -0.252113      0.001688
  O      -0.745897      0.909116      0.181191
  N      -2.350283     -0.712432      0.136257
  C      -3.456269      0.195528      0.006902
  C      -3.580310      0.692768     -1.498046
  O      -2.753636      0.202391     -2.284292
  O      -4.479857      1.520918     -1.724949
  H       4.245568      1.625489      0.187206
  H       3.753267      0.293193     -0.689559
  H       2.717410      1.604872     -0.482951
  H       3.690607     -0.185080      1.680702
  H       2.621094      1.201369      1.907803
  H       1.585818     -0.258829     -0.989546
  H      -0.219184     -1.658289     -1.361489
  H      -0.175258     -2.171739      0.361951
  H      -2.535681     -1.665429     -0.140205
  H      -3.314081      1.077494      0.633955
  H      -4.389105     -0.295688      0.286734
24
Coordinates from ORCA-job geo_opt E -43.529247386890
  N       3.445125      1.016403     -0.046381
  C       2.930945      0.420882      1.200017
  C       1.708608     -0.487792      1.067638
  O       1.218302     -0.963095      2.082163
  N       1.267396     -0.770652     -0.173363
  C      -0.053216     -1.342149     -0.318241
  C      -1.105907     -0.264673      0.000032
  O      -0.758064      0.897149      0.186119
  N      -2.359474     -0.722441      0.130967
  C      -3.467310      0.188155      0.001535
  C      -3.583452      0.700729     -1.492059
  O      -2.739397      0.253993     -2.287136
  O      -4.488240      1.522493     -1.717762
  H       4.242414      1.628492      0.175402
  H       3.767434      0.287596     -0.695255
  H       2.718239      1.588192     -0.495133
  H       3.706198     -0.173931      1.687409
  H       2.626722      1.203579      1.898437
  H       1.564865     -0.231954     -0.973266
  H      -0.209224     -1.673033     -1.344468
  H      -0.170583     -2.173773      0.379076
  H      -2.542222     -1.666511     -0.178278
  H      -3.318134      1.063398      0.636220
  H      -4.401027     -0.301055      0.276328
24
Coordinates from ORCA-job geo_opt E -43.529710820710
  N       3.423079      1.036560     -0.046808
  C       2.961871      0.384243      1.192879
  C       1.724835     -0.501250      1.069716
  O       1.260318     -1.007938      2.080245
  N       1.255797     -0.754146     -0.168628
  C      -0.063745     -1.332110     -0.290087
  C      -1.117300     -0.258968      0.023267
  O      -0.769646      0.904713      0.199333
  N      -2.372382     -0.713138      0.163861
  C      -3.471050      0.203620     -0.009141
  C      -3.558433      0.664715     -1.518463
  O      -2.687652      0.207650     -2.279328
  O      -4.477645      1.450438     -1.799626
  H       4.238365      1.628202      0.164681
  H       3.702662      0.338331     -0.747205
  H       2.683992      1.638452     -0.431127
  H       3.750669     -0.243127      1.612145
  H       2.703270      1.133694      1.943787
  H       1.479348     -0.139346     -0.937556
  H      -0.224338     -1.679450     -1.310887
  H      -0.165927     -2.155738      0.417830
  H      -2.551528     -1.639968     -0.197396
  H      -3.312044      1.098094      0.594283
  H      -4.412515     -0.263535      0.274225
24
Coordinates from ORCA-job geo_opt E -43.529897436390
  N       3.443794      1.027633     -0.046033
  C       2.995537      0.362663      1.193804
  C       1.734570     -0.487695      1.084740
  O       1.277761     -1.001740      2.094256
  N       1.247469     -0.722885     -0.151934
  C      -0.067033     -1.310314     -0.273660
  C      -1.130303     -0.245271      0.016592
  O      -0.795416      0.920998      0.199611
  N      -2.384315     -0.709337      0.150120
  C      -3.493718      0.196682     -0.026980
  C      -3.587221      0.651598     -1.530721
  O      -2.692038      0.235191     -2.288077
  O      -4.547157      1.382673     -1.824601
  H       4.278825      1.594463      0.156240
  H       3.690015      0.338396     -0.767710
  H       2.713774      1.657354     -0.402305
  H       3.780037     -0.290086      1.581242
  H       2.780113      1.105168      1.964870
  H       1.451457     -0.081621     -0.904927
  H      -0.213588     -1.675347     -1.290986
  H      -0.166069     -2.127363      0.442541
  H      -2.551811     -1.638507     -0.211564
  H      -3.335753      1.094760      0.571915
  H      -4.428932     -0.277415      0.263568
24
Coordinates from ORCA-job geo_opt E -43.530023446280
  N       3.435492      1.042101     -0.043249
  C       3.020148      0.338479      1.187151
  C       1.753994     -0.507438      1.089939
  O       1.322092     -1.047370      2.096409
  N       1.239193     -0.712009     -0.142175
  C      -0.076160     -1.300360     -0.252996
  C      -1.137896     -0.232570      0.028935
  O      -0.805726      0.935887      0.202200
  N      -2.393388     -0.696498      0.154413
  C      -3.500978      0.207359     -0.044311
  C      -3.589812      0.631820     -1.554889
  O      -2.669701      0.231274     -2.291271
  O      -4.571284      1.323327     -1.874765
  H       4.279794      1.597522      0.151841
  H       3.655699      0.375701     -0.794121
  H       2.699876      1.687243     -0.357902
  H       3.814708     -0.329472      1.526422
  H       2.835712      1.056316      1.988960
  H       1.414856     -0.039633     -0.875432
  H      -0.224359     -1.680700     -1.264689
  H      -0.169974     -2.108599      0.474274
  H      -2.556374     -1.629876     -0.198068
  H      -3.339192      1.116971      0.536482
  H      -4.436720     -0.259475      0.256841
24
Coordinates from ORCA-job geo_opt E -43.530151250040
  N       3.417172      1.071958     -0.027724
  C       3.061817      0.294929      1.176304
  C       1.792911     -0.551734      1.094391
  O       1.408036     -1.143052      2.090503
  N       1.228294     -0.695125     -0.125475
  C      -0.089611     -1.282910     -0.221556
  C      -1.147368     -0.204206      0.030965
  O      -0.812877      0.965177      0.191778
  N      -2.403948     -0.665482      0.158018
  C      -3.508103      0.233656     -0.072934
  C      -3.608902      0.587146     -1.600470
  O      -2.660867      0.203057     -2.309820
  O      -4.621151      1.215900     -1.954215
  H       4.273783      1.611987      0.156478
  H       3.593851      0.451189     -0.827621
  H       2.669999      1.736487     -0.265886
  H       3.872952     -0.393204      1.426893
  H       2.926580      0.961695      2.030118
  H       1.365574      0.021744     -0.825099
  H      -0.237539     -1.694553     -1.221089
  H      -0.181918     -2.069744      0.529865
  H      -2.565427     -1.611026     -0.160173
  H      -3.330727      1.168342      0.462676
  H      -4.442530     -0.212228      0.264071
24
Coordinates from ORCA-job geo_opt E -43.530216250790
  N       3.401123      1.086820     -0.023189
  C       3.077342      0.280573      1.170045
  C       1.814445     -0.575634      1.095992
  O       1.454970     -1.189738      2.087900
  N       1.224083     -0.693206     -0.113110
  C      -0.093621     -1.282763     -0.201414
  C      -1.150380     -0.198976      0.034472
  O      -0.814974      0.972721      0.174740
  N      -2.408696     -0.655366      0.154504
  C      -3.510193      0.243871     -0.086664
  C      -3.611231      0.581610     -1.618881
  O      -2.654502      0.207896     -2.321501
  O      -4.630503      1.193459     -1.980849
  H       4.258034      1.628234      0.155027
  H       3.564320      0.485199     -0.840385
  H       2.644350      1.751081     -0.231052
  H       3.898802     -0.406832      1.387009
  H       2.955382      0.926717      2.041359
  H       1.355624      0.029424     -0.807902
  H      -0.242159     -1.709839     -1.194523
  H      -0.185678     -2.057572      0.562391
  H      -2.571940     -1.608316     -0.139382
  H      -3.328315      1.183949      0.438151
  H      -4.446283     -0.193312      0.257259
24
Coordinates from ORCA-job geo_opt E -43.530371442080
  N       3.351851      1.128211      0.000933
  C       3.112335      0.241182      1.154885
  C       1.867393     -0.640750      1.089654
  O       1.569019     -1.316790      2.062212
  N       1.218378     -0.693326     -0.089954
  C      -0.100002     -1.283367     -0.158717
  C      -1.150458     -0.182431      0.023933
  O      -0.802926      0.990937      0.115967
  N      -2.412514     -0.620559      0.153921
  C      -3.504307      0.281664     -0.113621
  C      -3.621565      0.550732     -1.662040
  O      -2.660223      0.170194     -2.353208
  O      -4.654046      1.127629     -2.042767
  H       4.205857      1.677437      0.167570
  H       3.481232      0.582274     -0.860102
  H       2.569595      1.784412     -0.125059
  H       3.958045     -0.439399      1.282515
  H       3.021882      0.826322      2.071693
  H       1.324976      0.053655     -0.762836
  H      -0.249192     -1.752847     -1.132848
  H      -0.196159     -2.022809      0.638746
  H      -2.587588     -1.585573     -0.088184
  H      -3.298266      1.242510      0.362753
  H      -4.443316     -0.119306      0.264553
24
Coordinates from ORCA-job geo_opt E -43.530401031770
  N       3.229911      1.223751      0.093346
  C       3.209196      0.136783      1.087952
  C       2.000887     -0.793433      1.039026
  O       1.856358     -1.621818      1.927383
  N       1.197131     -0.682384     -0.027950
  C      -0.123743     -1.268846     -0.036943
  C      -1.155380     -0.135568      0.009882
  O      -0.775421      1.032167     -0.028956
  N      -2.426963     -0.523291      0.165972
  C      -3.491055      0.378368     -0.191353
  C      -3.639546      0.446500     -1.765979
  O      -2.670206      0.028814     -2.420661
  O      -4.698927      0.930573     -2.196894
  H       4.077265      1.790402      0.231247
  H       3.243748      0.844449     -0.861116
  H       2.408560      1.835720      0.199068
  H       4.086744     -0.503334      0.966134
  H       3.235616      0.543357      2.100002
  H       1.235053      0.131597     -0.627016
  H      -0.280362     -1.844005     -0.952997
  H      -0.224886     -1.912869      0.838682
  H      -2.630996     -1.505290      0.049104
  H      -3.225988      1.384047      0.142796
  H      -4.436992      0.084308      0.259270
24
Coordinates from ORCA-job geo_opt E -43.530571895920
  N       3.258448      1.211252      0.085305
  C       3.204013      0.143519      1.100972
  C       1.984006     -0.772131      1.047056
  O       1.813259     -1.585357      1.944564
  N       1.198024     -0.672131     -0.035522
  C      -0.119969     -1.263649     -0.059766
  C      -1.156070     -0.135768      0.001478
  O      -0.781098      1.033961     -0.026323
  N      -2.424797     -0.530041      0.166932
  C      -3.497333      0.367026     -0.178657
  C      -3.651688      0.447412     -1.750436
  O      -2.695443      0.010819     -2.412777
  O      -4.704689      0.952246     -2.173297
  H       4.104920      1.776623      0.234908
  H       3.297219      0.814570     -0.861606
  H       2.438721      1.829542      0.157220
  H       4.077566     -0.507123      1.013568
  H       3.212328      0.570520      2.105140
  H       1.242865      0.138305     -0.639818
  H      -0.271324     -1.822751     -0.986534
  H      -0.224143     -1.925481      0.802299
  H      -2.623513     -1.510982      0.031491
  H      -3.241980      1.371955      0.164244
  H      -4.439319      0.057666      0.269559
24
Coordinates from ORCA-job geo_opt E -43.530888617380
  N       3.284327      1.222429      0.133614
  C       3.252607      0.095033      1.086792
  C       2.012433     -0.794844      1.028950
  O       1.856168     -1.657302      1.882442
  N       1.185712     -0.620579     -0.013022
  C      -0.126622     -1.220470     -0.048134
  C      -1.165359     -0.095124     -0.029343
  O      -0.791934      1.073121     -0.113341
  N      -2.430198     -0.482128      0.176301
  C      -3.515143      0.388649     -0.199055
  C      -3.707884      0.365806     -1.765861
  O      -2.781046     -0.143663     -2.419060
  O      -4.762448      0.861431     -2.195619
  H       4.129561      1.785158      0.301458
  H       3.312334      0.885506     -0.837079
  H       2.462194      1.829072      0.254042
  H       4.115161     -0.557095      0.934662
  H       3.300793      0.462354      2.113709
  H       1.207244      0.226161     -0.568948
  H      -0.265563     -1.795155     -0.968350
  H      -0.243090     -1.875390      0.817918
  H      -2.625021     -1.468013      0.070446
  H      -3.258928      1.414567      0.071760
  H      -4.445298      0.100476      0.285716
24
Coordinates from ORCA-job geo_opt E -43.531006106170
  N       3.297002      1.232650      0.171398
  C       3.287954      0.058336      1.067163
  C       2.036793     -0.816986      1.012026
  O       1.900933     -1.719928      1.826133
  N       1.175872     -0.584891      0.009662
  C      -0.134908     -1.186649     -0.027776
  C      -1.173469     -0.062477     -0.041089
  O      -0.803444      1.102559     -0.171493
  N      -2.436758     -0.444376      0.183196
  C      -3.528644      0.404133     -0.223279
  C      -3.740073      0.304886     -1.782326
  O      -2.827688     -0.250845     -2.419007
  O      -4.794144      0.791592     -2.224009
  H       4.145240      1.788519      0.346823
  H       3.303243      0.946646     -0.815714
  H       2.478204      1.831059      0.340803
  H       4.139413     -0.590039      0.851235
  H       3.378040      0.374198      2.108642
  H       1.177981      0.289318     -0.504533
  H      -0.267467     -1.774630     -0.941345
  H      -0.259922     -1.833679      0.843333
  H      -2.627226     -1.434233      0.110043
  H      -3.275144      1.442840     -0.004177
  H      -4.451790      0.131998      0.284289
24
Coordinates from ORCA-job geo_opt E -43.531063374050
  N       3.306694      1.235928      0.189142
  C       3.303831      0.042249      1.058653
  C       2.049086     -0.827933      1.003516
  O       1.925280     -1.752675      1.794362
  N       1.171404     -0.564886      0.023641
  C      -0.138461     -1.168386     -0.015561
  C      -1.177283     -0.046152     -0.049008
  O      -0.811502      1.116503     -0.207003
  N      -2.439506     -0.427279      0.183613
  C      -3.536783      0.407913     -0.236853
  C      -3.758034      0.277434     -1.790332
  O      -2.859783     -0.310208     -2.419165
  O      -4.804825      0.775207     -2.237392
  H       4.156281      1.788061      0.369612
  H       3.304682      0.971817     -0.803855
  H       2.490500      1.831616      0.377997
  H       4.148956     -0.604007      0.813081
  H       3.414236      0.335813      2.104767
  H       1.161767      0.323317     -0.467251
  H      -0.265742     -1.763353     -0.925988
  H      -0.269950     -1.811147      0.857826
  H      -2.626467     -1.419236      0.131880
  H      -3.289612      1.452002     -0.037436
  H      -4.454770      0.137403      0.281753
24
Coordinates from ORCA-job geo_opt E -43.531134295250
  N       3.302069      1.252742      0.231324
  C       3.336144      0.011075      1.029607
  C       2.083383     -0.861429      0.975273
  O       1.998486     -1.835930      1.709543
  N       1.161330     -0.535531      0.059416
  C      -0.146632     -1.144155      0.025703
  C      -1.182274     -0.023716     -0.064083
  O      -0.813541      1.128917     -0.278791
  N      -2.445345     -0.391315      0.181649
  C      -3.543070      0.427077     -0.270170
  C      -3.782947      0.226236     -1.812733
  O      -2.911161     -0.421510     -2.419503
  O      -4.816196      0.737631     -2.275785
  H       4.154731      1.799784      0.412637
  H       3.263900      1.045176     -0.774070
  H       2.491083      1.832795      0.482055
  H       4.169316     -0.617332      0.707351
  H       3.494515      0.244484      2.084476
  H       1.125158      0.378045     -0.384010
  H      -0.264458     -1.767899     -0.867780
  H      -0.290388     -1.761355      0.915302
  H      -2.635084     -1.384021      0.180660
  H      -3.293361      1.478520     -0.118908
  H      -4.455659      0.181712      0.270838
24
Coordinates from ORCA-job geo_opt E -43.531159312600
  N       3.303640      1.255300      0.236298
  C       3.347776      0.002543      1.016391
  C       2.092698     -0.866773      0.969824
  O       2.021658     -1.856775      1.684740
  N       1.153485     -0.519185      0.080978
  C      -0.151796     -1.134195      0.046742
  C      -1.190158     -0.017319     -0.054207
  O      -0.822513      1.135370     -0.271325
  N      -2.453783     -0.387311      0.181976
  C      -3.549918      0.425979     -0.282533
  C      -3.779539      0.215558     -1.825449
  O      -2.912278     -0.449014     -2.420221
  O      -4.801266      0.738239     -2.301416
  H       4.162781      1.795138      0.407571
  H       3.242482      1.060754     -0.770672
  H       2.501731      1.837139      0.511482
  H       4.171440     -0.624559      0.668256
  H       3.527706      0.219512      2.071104
  H       1.108803      0.400234     -0.350819
  H      -0.263774     -1.763135     -0.843870
  H      -0.297844     -1.747635      0.938436
  H      -2.641161     -1.380247      0.186615
  H      -3.304869      1.478961     -0.134186
  H      -4.465302      0.181418      0.254286
24
Coordinates from ORCA-job geo_opt E -43.531180923850
  N       3.309788      1.249454      0.216456
  C       3.347435      0.009089      1.016212
  C       2.089642     -0.856731      0.978049
  O       2.019120     -1.843368      1.697942
  N       1.147505     -0.510137      0.092785
  C      -0.153894     -1.133864      0.056598
  C      -1.200459     -0.022812     -0.033046
  O      -0.837982      1.136861     -0.221116
  N      -2.463975     -0.405573      0.180401
  C      -3.558565      0.411150     -0.281458
  C      -3.760992      0.234666     -1.832828
  O      -2.887915     -0.423099     -2.426228
  O      -4.770113      0.774532     -2.316544
  H       4.178225      1.779670      0.369232
  H       3.232436      1.037884     -0.786048
  H       2.519775      1.847174      0.491990
  H       4.166709     -0.628926      0.677710
  H       3.527927      0.239914      2.067655
  H       1.103072      0.403350     -0.350848
  H      -0.260966     -1.758891     -0.836839
  H      -0.295803     -1.752251      0.945330
  H      -2.645599     -1.399341      0.163529
  H      -3.324459      1.462139     -0.103620
  H      -4.480912      0.149110      0.234684
24
Coordinates from ORCA-job geo_opt E -43.531199799950
  N       3.310175      1.253513      0.224916
  C       3.358886      0.000289      1.003913
  C       2.100843     -0.865718      0.967058
  O       2.042365     -1.868316      1.665938
  N       1.141638     -0.497668      0.110460
  C      -0.157518     -1.125618      0.076168
  C      -1.205582     -0.017923     -0.032477
  O      -0.842774      1.140319     -0.229880
  N      -2.469788     -0.399285      0.178083
  C      -3.563379      0.413992     -0.292624
  C      -3.762866      0.223245     -1.842735
  O      -2.890984     -0.443230     -2.428002
  O      -4.769200      0.761378     -2.333966
  H       4.183907      1.777641      0.368752
  H       3.211446      1.057656     -0.778846
  H       2.528360      1.850139      0.525031
  H       4.172997     -0.632649      0.643893
  H       3.553827      0.213292      2.056471
  H       1.086441      0.424586     -0.313216
  H      -0.259346     -1.763682     -0.808905
  H      -0.302094     -1.732926      0.972216
  H      -2.651292     -1.393366      0.167668
  H      -3.328968      1.466345     -0.123889
  H      -4.487096      0.157985      0.223975
24
Coordinates from ORCA-job geo_opt E -43.531219781430
  N       3.317554      1.253279      0.227367
  C       3.368823     -0.006591      0.995266
  C       2.108802     -0.870394      0.958286
  O       2.059888     -1.889185      1.634370
  N       1.134758     -0.480952      0.128732
  C      -0.161213     -1.114665      0.093545
  C      -1.212432     -0.012212     -0.029911
  O      -0.852709      1.146441     -0.231029
  N      -2.476288     -0.397173      0.174782
  C      -3.571076      0.411108     -0.301900
  C      -3.764190      0.215712     -1.851955
  O      -2.890052     -0.452920     -2.431469
  O      -4.768989      0.751527     -2.348887
  H       4.199580      1.767033      0.357892
  H       3.196882      1.065982     -0.775510
  H       2.547991      1.855316      0.547084
  H       4.179149     -0.638425      0.624802
  H       3.571173      0.196645      2.048378
  H       1.068930      0.451177     -0.272108
  H      -0.256475     -1.763777     -0.784316
  H      -0.308528     -1.713686      0.995258
  H      -2.654311     -1.391904      0.164812
  H      -3.341319      1.464713     -0.134906
  H      -4.495950      0.152953      0.211419
24
Coordinates from ORCA-job geo_opt E -43.531242561770
  N       3.327925      1.251106      0.226776
  C       3.379035     -0.013483      0.986404
  C       2.118084     -0.876149      0.945151
  O       2.082068     -1.917092      1.587824
  N       1.125886     -0.459575      0.151463
  C      -0.166077     -1.100679      0.115473
  C      -1.221026     -0.004583     -0.023682
  O      -0.865662      1.155350     -0.225553
  N      -2.484305     -0.395885      0.171044
  C      -3.580661      0.405709     -0.312851
  C      -3.763998      0.208478     -1.863767
  O      -2.884686     -0.458734     -2.437134
  O      -4.767851      0.740312     -2.366956
  H       4.221196      1.749952      0.337133
  H       3.179002      1.070853     -0.773565
  H       2.576002      1.862696      0.568826
  H       4.188648     -0.643966      0.612239
  H       3.582263      0.183020      2.040765
  H       1.048012      0.484470     -0.219903
  H      -0.253701     -1.762397     -0.753675
  H      -0.317143     -1.690388      1.023483
  H      -2.657146     -1.391534      0.161592
  H      -3.358537      1.460837     -0.145226
  H      -4.507328      0.141681      0.194139
24
Coordinates from ORCA-job geo_opt E -43.531259842540
  N       3.340997      1.243947      0.215321
  C       3.386099     -0.016947      0.981200
  C       2.124142     -0.877609      0.937631
  O       2.099243     -1.937498      1.549221
  N       1.116513     -0.436915      0.177237
  C      -0.170942     -1.086660      0.136109
  C      -1.231900      0.002173     -0.009194
  O      -0.884043      1.166156     -0.200013
  N      -2.494078     -0.400919      0.168204
  C      -3.592204      0.394440     -0.321617
  C      -3.758095      0.208911     -1.875755
  O      -2.869391     -0.449251     -2.445262
  O      -4.759337      0.739853     -2.384959
  H       4.245919      1.726185      0.301396
  H       3.165718      1.060746     -0.780421
  H       2.608891      1.871173      0.571185
  H       4.196929     -0.650497      0.615357
  H       3.584216      0.184869      2.035724
  H       1.028375      0.517424     -0.165538
  H      -0.249434     -1.752816     -0.730399
  H      -0.325111     -1.675475      1.044529
  H      -2.658493     -1.397864      0.150268
  H      -3.382269      1.450171     -0.142781
  H      -4.521746      0.116403      0.172559
24
Coordinates from ORCA-job geo_opt E -43.531270911720
  N       3.345250      1.237335      0.202003
  C       3.383448     -0.012772      0.985983
  C       2.124414     -0.876901      0.937949
  O       2.103582     -1.941431      1.541461
  N       1.114109     -0.432407      0.183074
  C      -0.171693     -1.085461      0.138865
  C      -1.235374      0.001617     -0.000131
  O      -0.890914      1.168443     -0.178421
  N      -2.497034     -0.407621      0.167894
  C      -3.595301      0.388160     -0.320650
  C      -3.752318      0.217763     -1.877721
  O      -2.855934     -0.427692     -2.449695
  O      -4.754777      0.747218     -2.385975
  H       4.253309      1.715107      0.279128
  H       3.167639      1.041197     -0.791000
  H       2.617602      1.874050      0.550178
  H       4.201402     -0.648542      0.640802
  H       3.566419      0.205038      2.040213
  H       1.024054      0.524370     -0.152018
  H      -0.247879     -1.746737     -0.731484
  H      -0.325350     -1.679904      1.043628
  H      -2.657833     -1.404917      0.141017
  H      -3.390362      1.442894     -0.130504
  H      -4.526459      0.101193      0.165404
24
Coordinates from ORCA-job geo_opt E -43.531280312020
  N       3.347962      1.229950      0.189327
  C       3.378034     -0.006911      0.994700
  C       2.124277     -0.877586      0.938149
  O       2.107584     -1.946344      1.534019
  N       1.113585     -0.431147      0.184623
  C      -0.171169     -1.086271      0.134684
  C      -1.236473      0.000819      0.005856
  O      -0.893695      1.169589     -0.161992
  N      -2.497800     -0.411884      0.169788
  C      -3.595965      0.385092     -0.316907
  C      -3.748713      0.224461     -1.875878
  O      -2.846750     -0.410940     -2.450205
  O      -4.753290      0.751543     -2.382237
  H       4.256024      1.708030      0.264268
  H       3.177799      1.017417     -0.801687
  H       2.618788      1.873544      0.521242
  H       4.206067     -0.643089      0.675742
  H       3.540118      0.230354      2.048271
  H       1.021578      0.528817     -0.140893
  H      -0.246147     -1.737034     -0.743758
  H      -0.324274     -1.691087      1.032253
  H      -2.656607     -1.409286      0.135566
  H      -3.393153      1.438957     -0.119876
  H      -4.527782      0.093007      0.164946
24
Coordinates from ORCA-job geo_opt E -43.531284428470
  N       3.347887      1.227998      0.186181
  C       3.376895     -0.005622      0.996627
  C       2.125668     -0.879783      0.936274
  O       2.113117     -1.952940      1.524237
  N       1.112540     -0.429704      0.188436
  C      -0.171537     -1.085927      0.134466
  C      -1.237206      0.001282      0.008142
  O      -0.893947      1.170267     -0.157732
  N      -2.498606     -0.411273      0.171476
  C      -3.595990      0.385986     -0.316671
  C      -3.747010      0.223417     -1.875827
  O      -2.843620     -0.411342     -2.448467
  O      -4.751689      0.748756     -2.383765
  H       4.255579      1.706882      0.260561
  H       3.179353      1.010964     -0.804154
  H       2.618127      1.873165      0.513799
  H       4.208000     -0.640935      0.684047
  H       3.533348      0.236366      2.049935
  H       1.017739      0.532913     -0.128882
  H      -0.245233     -1.731466     -0.748071
  H      -0.325113     -1.695639      1.028437
  H      -2.657439     -1.408679      0.136672
  H      -3.392499      1.439918     -0.120709
  H      -4.528365      0.095395      0.164989
24
Coordinates from ORCA-job geo_opt E -43.531286914240
  N       3.348145      1.227010      0.185084
  C       3.376279     -0.004764      0.998395
  C       2.126549     -0.881355      0.934855
  O       2.116809     -1.957854      1.516729
  N       1.111746     -0.428688      0.191149
  C      -0.171711     -1.085619      0.132927
  C      -1.237668      0.001605      0.008344
  O      -0.893653      1.170505     -0.157607
  N      -2.499055     -0.409983      0.172870
  C      -3.596021      0.387514     -0.316148
  C      -3.746604      0.221119     -1.874962
  O      -2.842265     -0.413679     -2.445954
  O      -4.751957      0.743663     -2.384500
  H       4.255307      1.706782      0.260499
  H       3.181436      1.006987     -0.804904
  H       2.617622      1.873178      0.509064
  H       4.208805     -0.639990      0.689303
  H       3.529646      0.239658      2.051517
  H       1.014481      0.535873     -0.119958
  H      -0.244258     -1.726405     -0.753278
  H      -0.325718     -1.699700      1.023738
  H      -2.658351     -1.407371      0.138804
  H      -3.390954      1.441613     -0.122689
  H      -4.528612      0.099901      0.166721
24
Coordinates from ORCA-job geo_opt E -43.531287286070
  N       3.349033      1.226807      0.185322
  C       3.376073     -0.004512      0.999302
  C       2.126137     -0.880948      0.934904
  O       2.115856     -1.957399      1.516885
  N       1.111832     -0.428473      0.190449
  C      -0.171504     -1.085427      0.131378
  C      -1.237624      0.001649      0.007371
  O      -0.893694      1.170529     -0.159168
  N      -2.498860     -0.409813      0.172950
  C      -3.596187      0.387561     -0.315522
  C      -3.747354      0.220601     -1.874121
  O      -2.842527     -0.413295     -2.445382
  O      -4.753600      0.741643     -2.383466
  H       4.256223      1.706380      0.261690
  H       3.183121      1.006119     -0.804629
  H       2.618412      1.873497      0.508033
  H       4.208428     -0.640463      0.691208
  H       3.528713      0.240265      2.052421
  H       1.014451      0.536075     -0.120719
  H      -0.244038     -1.725479     -0.755364
  H      -0.325420     -1.700255      1.021733
  H      -2.658164     -1.407217      0.139242
  H      -3.390775      1.441700     -0.122556
  H      -4.528534      0.100455      0.168038
