24
zwitterion conformer 6
N       3.68713617     0.68128114    -0.00177499
C       2.85072881     0.69967313     1.16247608
C       1.58135054    -0.02404627     1.00334744
O       0.78086265    -0.05333293     1.99754414
N       1.26156864    -0.66835785    -0.22071185
C       0.00987839    -1.37787630    -0.36706239
C      -1.14760386    -0.46570085    -0.16180709
O      -0.88390484     0.75484234     0.10161710
N      -2.45794214    -0.96069073    -0.26118260
C      -3.60569483    -0.10948711    -0.06922144
C      -3.64067800     1.00584702    -1.04323793
O      -2.76535525     1.18325739    -1.93321970
O      -4.68029564     1.90759838    -0.98682408
H       4.50421452     1.30435983     0.20886735
H       4.07222694    -0.23890607    -0.25506775
H       3.20362323     1.10523228    -0.82232166
H       3.42661383     0.37333784     2.05216609
H       2.57547038     1.77684111     1.33431984
H       1.97329100    -0.59488326    -0.98310813
H      -0.00727835    -1.77568443    -1.42358425
H      -0.08323779    -2.24193372     0.33821735
H      -2.61048760    -1.97551866    -0.48060963
H      -3.49837868     0.36997676     0.94509109
H      -4.54610813    -0.67582902    -0.13391300
