20
Coordinates from ORCA-job geo_opt E -34.364498256790
  N          -2.69130524246177     -1.27437068165272      0.18349165603864
  C          -1.47387913478394     -0.54039530498532     -0.10000925710288
  C          -0.23238461073569     -1.03628362540796      0.69416657988972
  C           1.00434938329466     -0.30553972485713      0.30215502642956
  C           1.69569591914760     -0.36481522377751     -0.87955617715747
  N           2.73355349931033      0.51302215527262     -0.75629428322931
  C           2.63222263610212      1.06181853947322      0.47230572059668
  N           1.60703575861323      0.59501597495251      1.13506434128223
  C          -1.67620019528717      0.91676806123967      0.26211678209242
  O          -2.32952782650635      1.28981155325209      1.21207651926424
  O          -1.04460438585379      1.74258913151394     -0.54866917911270
  H          -2.49187648498381     -2.26614336215713      0.24857389810200
  H          -3.06448827294061     -0.96736575520850      1.07677156140965
  H          -1.25649510269658     -0.60636575459725     -1.17141504439800
  H          -0.11392985547964     -2.10377618985069      0.49471592631475
  H          -0.40885478306006     -0.88809304436295      1.76115550200474
  H           1.53360583414267     -0.94578844837310     -1.76237326164846
  H           3.43267028566763      0.70939123696121     -1.45438377982395
  H           3.31573480410641      1.79079966547380      0.85677590378889
  H          -1.17132220559524      2.67972077709120     -0.29859982474075
