20
Coordinates from ORCA-job geo_opt E -34.320930517220
  N      -2.614871     -1.280186      0.294347
  C      -1.471994     -0.458067     -0.118668
  C      -0.262032     -1.013851      0.551093
  C       0.989681     -0.277201      0.225754
  C       1.865481     -0.528250     -0.817396
  N       2.884172      0.371931     -0.762471
  C       2.660894      1.171353      0.285834
  N       1.516698      0.785332      0.889088
  C      -1.818477      0.926230      0.169344
  O      -2.966799      1.151089      0.689080
  O      -1.033358      2.030845     -0.060597
  H      -2.365987     -2.279997      0.374782
  H      -2.894205     -0.906676      1.237812
  H      -1.420546     -0.584873     -1.220422
  H      -0.197492     -2.074755      0.225350
  H      -0.420472     -1.062589      1.648973
  H       1.746178     -1.318162     -1.552027
  H       3.710525      0.437413     -1.425136
  H       3.256457      2.013663      0.654169
  H      -1.163853      2.896749      0.439161
20
Coordinates from ORCA-job geo_opt E -34.347747082250
  N      -2.667905     -1.265161      0.279336
  C      -1.484635     -0.481047     -0.105634
  C      -0.225424     -1.027336      0.564862
  C       1.008831     -0.275548      0.223256
  C       1.865961     -0.524782     -0.829919
  N       2.848049      0.399955     -0.768881
  C       2.595585      1.183806      0.293261
  N       1.491579      0.794022      0.910304
  C      -1.793840      0.929315      0.200554
  O      -2.877384      1.218623      0.733814
  O      -0.949597      1.924413     -0.077499
  H      -2.446131     -2.251495      0.364560
  H      -2.977981     -0.898842      1.181393
  H      -1.415758     -0.589421     -1.202955
  H      -0.127880     -2.075238      0.248957
  H      -0.364242     -1.048783      1.654684
  H       1.775177     -1.302457     -1.566523
  H       3.636671      0.489857     -1.407509
  H       3.168149      2.019378      0.644072
  H      -1.059225      2.780738      0.387935
20
Coordinates from ORCA-job geo_opt E -34.357204494770
  N      -2.698661     -1.256480      0.279171
  C      -1.503683     -0.502155     -0.092052
  C      -0.213330     -1.041179      0.572808
  C       1.011877     -0.278107      0.217578
  C       1.850930     -0.505261     -0.848765
  N       2.822638      0.435510     -0.767028
  C       2.554382      1.182700      0.323822
  N       1.475913      0.779163      0.940733
  C      -1.773912      0.934179      0.240697
  O      -2.793913      1.275810      0.804953
  O      -0.879979      1.814316     -0.133665
  H      -2.483878     -2.238947      0.368882
  H      -3.035633     -0.892309      1.159842
  H      -1.412098     -0.592027     -1.183913
  H      -0.098095     -2.078777      0.254924
  H      -0.342008     -1.037108      1.657582
  H       1.781562     -1.254652     -1.606896
  H       3.593559      0.552304     -1.395533
  H       3.129592      2.009026      0.676047
  H      -0.985264      2.693993      0.258883
20
Coordinates from ORCA-job geo_opt E -34.361160148290
  N      -2.707314     -1.266482      0.286654
  C      -1.516856     -0.512549     -0.075400
  C      -0.209389     -1.045014      0.585231
  C       1.016351     -0.281099      0.224973
  C       1.821624     -0.460394     -0.871793
  N       2.818249      0.460890     -0.757493
  C       2.586168      1.139938      0.386615
  N       1.518225      0.720404      1.005592
  C      -1.768331      0.941397      0.270229
  O      -2.721494      1.302773      0.923030
  O      -0.905572      1.773779     -0.255537
  H      -2.484665     -2.247571      0.381473
  H      -3.069266     -0.909533      1.161550
  H      -1.402901     -0.583947     -1.164610
  H      -0.088265     -2.078543      0.260532
  H      -0.334129     -1.027965      1.669075
  H       1.735595     -1.154647     -1.677865
  H       3.578440      0.602476     -1.398712
  H       3.199626      1.930448      0.761889
  H      -1.066096      2.695638      0.012635
20
Coordinates from ORCA-job geo_opt E -34.362768932350
  N      -2.714085     -1.269326      0.280404
  C      -1.519404     -0.535003     -0.078254
  C      -0.219452     -1.061665      0.602253
  C       1.002777     -0.293393      0.240062
  C       1.779323     -0.416784     -0.881564
  N       2.783724      0.500648     -0.748619
  C       2.576731      1.127106      0.429187
  N       1.520086      0.678599      1.051006
  C      -1.733353      0.933338      0.255313
  O      -2.579552      1.321843      1.029671
  O      -0.873455      1.720020     -0.354266
  H      -2.499430     -2.251661      0.399388
  H      -3.087083     -0.898099      1.148283
  H      -1.378230     -0.605485     -1.163951
  H      -0.093722     -2.098988      0.287466
  H      -0.354580     -1.020443      1.684530
  H       1.685771     -1.064691     -1.726091
  H       3.529469      0.671281     -1.403597
  H       3.209564      1.901893      0.812698
  H      -1.035099      2.660812     -0.135848
20
Coordinates from ORCA-job geo_opt E -34.363567008810
  N      -2.704442     -1.264730      0.277179
  C      -1.505918     -0.539759     -0.076236
  C      -0.221279     -1.074412      0.620576
  C       1.004255     -0.311799      0.260733
  C       1.747326     -0.378879     -0.886637
  N       2.765776      0.521683     -0.735903
  C       2.602171      1.086249      0.478269
  N       1.557921      0.611118      1.105711
  C      -1.687426      0.930392      0.268279
  O      -2.460934      1.330928      1.111997
  O      -0.952134      1.720149     -0.493389
  H      -2.496788     -2.248462      0.407095
  H      -3.077177     -0.891894      1.146456
  H      -1.346509     -0.601318     -1.160907
  H      -0.102859     -2.115489      0.311839
  H      -0.364622     -1.021116      1.701909
  H       1.629958     -0.972798     -1.768793
  H       3.492238      0.720043     -1.406094
  H       3.260466      1.834279      0.874514
  H      -1.140022      2.665816     -0.308528
20
Coordinates from ORCA-job geo_opt E -34.364115438740
  N      -2.701009     -1.266810      0.261210
  C      -1.497931     -0.546835     -0.088763
  C      -0.226387     -1.072508      0.635759
  C       1.000852     -0.314761      0.271098
  C       1.728764     -0.364855     -0.887261
  N       2.749506      0.531022     -0.736431
  C       2.605058      1.077160      0.488556
  N       1.568575      0.593615      1.121953
  C      -1.679254      0.920877      0.249491
  O      -2.392258      1.318467      1.145237
  O      -0.979744      1.720474     -0.535910
  H      -2.496961     -2.249574      0.403545
  H      -3.071945     -0.887252      1.128540
  H      -1.326609     -0.617458     -1.170863
  H      -0.107315     -2.120780      0.352794
  H      -0.380313     -0.996023      1.714147
  H       1.601545     -0.942905     -1.778498
  H       3.466391      0.737969     -1.414581
  H       3.271393      1.816540      0.885569
  H      -1.132358      2.663638     -0.317522
20
Coordinates from ORCA-job geo_opt E -34.364379223800
  N      -2.699228     -1.268808      0.234189
  C      -1.485896     -0.551811     -0.101320
  C      -0.230151     -1.066380      0.656914
  C       0.999805     -0.316187      0.283259
  C       1.708557     -0.352739     -0.888352
  N       2.734889      0.534777     -0.739804
  C       2.609546      1.068760      0.493356
  N       1.579392      0.583707      1.134142
  C      -1.665731      0.910829      0.243223
  O      -2.322714      1.302957      1.182861
  O      -1.014174      1.722266     -0.568219
  H      -2.500511     -2.252338      0.377375
  H      -3.069852     -0.893365      1.103014
  H      -1.298638     -0.627942     -1.179160
  H      -0.111029     -2.123453      0.409753
  H      -0.395613     -0.958323      1.730394
  H       1.568953     -0.918860     -1.784825
  H       3.442479      0.745319     -1.425365
  H       3.283812      1.800226      0.889374
  H      -1.133895      2.661364     -0.322742
20
Coordinates from ORCA-job geo_opt E -34.364436871240
  N      -2.698216     -1.270796      0.216031
  C      -1.480794     -0.550047     -0.104412
  C      -0.231083     -1.058657      0.668446
  C       1.001442     -0.314583      0.288940
  C       1.704231     -0.355535     -0.886464
  N       2.731727      0.531564     -0.745062
  C       2.615067      1.066079      0.489042
  N       1.589504      0.581674      1.137303
  C      -1.664588      0.910096      0.248011
  O      -2.311604      1.296264      1.197399
  O      -1.027486      1.727941     -0.567051
  H      -2.498934     -2.255773      0.348149
  H      -3.072357     -0.907700      1.088125
  H      -1.285107     -0.625366     -1.179781
  H      -0.112148     -2.119830      0.439692
  H      -0.400967     -0.934630      1.739385
  H       1.558767     -0.924175     -1.780139
  H       3.435016      0.740710     -1.435032
  H       3.291530      1.796910      0.882054
  H      -1.144000      2.665854     -0.316569
20
Coordinates from ORCA-job geo_opt E -34.364474347050
  N      -2.695376     -1.274878      0.195068
  C      -1.476222     -0.545919     -0.104590
  C      -0.231326     -1.046608      0.681813
  C       1.003519     -0.309429      0.294666
  C       1.699258     -0.358872     -0.884779
  N       2.733420      0.521989     -0.751431
  C       2.625006      1.062854      0.480672
  N       1.598543      0.588898      1.135427
  C      -1.669134      0.911709      0.256882
  O      -2.317512      1.289059      1.209083
  O      -1.039492      1.736203     -0.556052
  H      -2.492312     -2.261704      0.306806
  H      -3.076108     -0.932450      1.072277
  H      -1.270554     -0.617913     -1.177489
  H      -0.111876     -2.111733      0.472228
  H      -0.404935     -0.906228      1.750163
  H       1.545556     -0.933615     -1.772973
  H       3.435326      0.723440     -1.444922
  H       3.305535      1.791785      0.870116
  H      -1.161315      2.673413     -0.304898
20
Coordinates from ORCA-job geo_opt E -34.364487227670
  N      -2.693306     -1.276297      0.185170
  C      -1.474642     -0.542909     -0.102846
  C      -0.231676     -1.040266      0.688442
  C       1.004465     -0.306986      0.297993
  C       1.698142     -0.363325     -0.882324
  N       2.733965      0.516812     -0.755256
  C       2.629225      1.062685      0.474643
  N       1.604088      0.592154      1.134499
  C      -1.673256      0.913891      0.261713
  O      -2.326984      1.286575      1.211926
  O      -1.040741      1.740268     -0.547022
  H      -2.488471     -2.264482      0.281493
  H      -3.077319     -0.947560      1.066209
  H      -1.262974     -0.611824     -1.174850
  H      -0.112195     -2.106908      0.486145
  H      -0.406831     -0.893846      1.755835
  H       1.540241     -0.942910     -1.766683
  H       3.434520      0.714874     -1.451262
  H       3.310579      1.792616      0.861074
  H      -1.166831      2.677438     -0.296829
20
Coordinates from ORCA-job geo_opt E -34.364493327450
  N      -2.691409     -1.276903      0.180943
  C      -1.473841     -0.541113     -0.101221
  C      -0.232035     -1.036605      0.692450
  C       1.004611     -0.305387      0.300320
  C       1.696590     -0.364852     -0.880852
  N       2.734259      0.513526     -0.756978
  C       2.632102      1.062040      0.471654
  N       1.606430      0.595205      1.133721
  C      -1.676161      0.915487      0.263550
  O      -2.332880      1.286131      1.212274
  O      -1.041859      1.742471     -0.543463
  H      -2.486452     -2.266213      0.264782
  H      -3.075197     -0.958249      1.065753
  H      -1.257975     -0.607797     -1.172835
  H      -0.112652     -2.103996      0.493357
  H      -0.408132     -0.887780      1.759439
  H       1.535541     -0.946463     -1.763403
  H       3.434238      0.709315     -1.454360
  H       3.314762      1.791605      0.856615
  H      -1.169940      2.679579     -0.293677
20
Coordinates from ORCA-job geo_opt E -34.364496346420
  N      -2.690537     -1.276424      0.180509
  C      -1.473613     -0.540250     -0.100245
  C      -0.232351     -1.035286      0.694271
  C       1.004507     -0.304932      0.301737
  C       1.695770     -0.365379     -0.879877
  N       2.734069      0.512217     -0.757315
  C       2.632987      1.061862      0.470767
  N       1.607553      0.595963      1.133999
  C      -1.677325      0.916499      0.263482
  O      -2.334260      1.287253      1.211866
  O      -1.042860      1.743276     -0.543893
  H      -2.487192     -2.266826      0.254487
  H      -3.071070     -0.964695      1.069141
  H      -1.255612     -0.605737     -1.171686
  H      -0.113323     -2.102930      0.495867
  H      -0.408904     -0.886204      1.761175
  H       1.533199     -0.947389     -1.761941
  H       3.433541      0.707461     -1.455422
  H       3.316285      1.791201      0.855041
  H      -1.170862      2.680321     -0.293896
20
Coordinates from ORCA-job geo_opt E -34.364497703070
  N      -2.690641     -1.275385      0.181814
  C      -1.473648     -0.540149     -0.099949
  C      -0.232451     -1.035443      0.694700
  C       1.004418     -0.305136      0.302328
  C       1.695478     -0.365152     -0.879497
  N       2.733651      0.512428     -0.756943
  C       2.632961      1.061625      0.471421
  N       1.607640      0.595607      1.134660
  C      -1.677043      0.916829      0.262716
  O      -2.332163      1.288738      1.211863
  O      -1.044094      1.743104     -0.546502
  H      -2.489545     -2.266665      0.249480
  H      -3.066983     -0.967380      1.073462
  H      -1.255335     -0.605548     -1.171306
  H      -0.113790     -2.103090      0.496025
  H      -0.409110     -0.886696      1.761611
  H       1.532690     -0.946637     -1.761869
  H       3.432737      0.708192     -1.455274
  H       3.316621      1.790597      0.855694
  H      -1.171391      2.680162     -0.296365
20
Coordinates from ORCA-job geo_opt E -34.364498256790
  N      -2.691305     -1.274371      0.183492
  C      -1.473879     -0.540395     -0.100009
  C      -0.232385     -1.036284      0.694167
  C       1.004349     -0.305540      0.302155
  C       1.695696     -0.364815     -0.879556
  N       2.733553      0.513022     -0.756294
  C       2.632223      1.061819      0.472306
  N       1.607036      0.595016      1.135064
  C      -1.676200      0.916768      0.262117
  O      -2.329528      1.289812      1.212077
  O      -1.044604      1.742589     -0.548669
  H      -2.491876     -2.266143      0.248574
  H      -3.064488     -0.967366      1.076772
  H      -1.256495     -0.606366     -1.171415
  H      -0.113930     -2.103776      0.494716
  H      -0.408855     -0.888093      1.761156
  H       1.533606     -0.945788     -1.762373
  H       3.432670      0.709391     -1.454384
  H       3.315735      1.790800      0.856776
  H      -1.171322      2.679721     -0.298600
