20
neutral_epsilon conformer 4
N      -2.61487127    -1.28018576     0.29434730
C      -1.47199402    -0.45806720    -0.11866814
C      -0.26203180    -1.01385079     0.55109337
C       0.98968053    -0.27720102     0.22575426
C       1.86548142    -0.52825002    -0.81739623
N       2.88417212     0.37193081    -0.76247141
C       2.66089386     1.17135346     0.28583359
N       1.51669844     0.78533180     0.88908782
C      -1.81847661     0.92623043     0.16934437
O      -2.96679934     1.15108875     0.68907981
O      -1.03335784     2.03084548    -0.06059732
H      -2.36598677    -2.27999706     0.37478171
H      -2.89420511    -0.90667599     1.23781239
H      -1.42054614    -0.58487299    -1.22042248
H      -0.19749225    -2.07475457     0.22535003
H      -0.42047203    -1.06258924     1.64897344
H       1.74617758    -1.31816183    -1.55202692
H       3.71052472     0.43741328    -1.42513632
H       3.25645711     2.01366300     0.65416870
H      -1.16385258     2.89674944     0.43916064
