20
Coordinates from ORCA-job geo_opt E -34.323325706700
  N      -1.393108     -1.123901      1.091370
  C      -1.367862     -0.593558     -0.239766
  C      -0.118116     -0.824502     -0.991322
  C       1.096890     -0.249341     -0.379177
  C       2.352298     -0.366701     -0.941769
  N       3.197556      0.274850     -0.110511
  C       2.486920      0.760518      0.911973
  N       1.192050      0.441813      0.753768
  C      -1.731813      0.831329     -0.346145
  O      -1.722342      1.341944     -1.508372
  O      -2.077322      1.640977      0.707915
  H      -1.723177     -0.457007      1.806893
  H      -1.924639     -2.017344      1.198550
  H      -2.165039     -1.163531     -0.791248
  H      -0.239728     -0.342909     -1.990658
  H       0.041497     -1.923440     -1.093535
  H       2.605346     -0.873099     -1.865824
  H       2.905850      1.333158      1.751649
  H       0.413581      0.677836      1.376795
  H      -1.828842      2.632906      0.659418
20
Coordinates from ORCA-job geo_opt E -34.346445774590
  N      -1.372552     -1.094772      1.115018
  C      -1.407550     -0.580573     -0.243784
  C      -0.126319     -0.836640     -1.019239
  C       1.109908     -0.266983     -0.399371
  C       2.387731     -0.352350     -0.917628
  N       3.242920      0.282429     -0.079045
  C       2.514908      0.734690      0.920499
  N       1.211136      0.414064      0.753877
  C      -1.778537      0.862458     -0.371680
  O      -1.815344      1.384188     -1.492141
  O      -2.075993      1.615810      0.695383
  H      -1.685530     -0.434516      1.815676
  H      -1.883665     -1.958322      1.241849
  H      -2.209008     -1.134370     -0.784742
  H      -0.246313     -0.379749     -2.011276
  H       0.015959     -1.919081     -1.126477
  H       2.671807     -0.832186     -1.830860
  H       2.912491      1.281138      1.754118
  H       0.444569      0.631627      1.375121
  H      -1.910618      2.583139      0.604702
20
Coordinates from ORCA-job geo_opt E -34.354133028000
  N      -1.318179     -1.056067      1.131804
  C      -1.421484     -0.570138     -0.240577
  C      -0.135992     -0.849969     -1.042088
  C       1.104693     -0.285129     -0.423935
  C       2.391978     -0.330909     -0.910599
  N       3.241008      0.295220     -0.054005
  C       2.496550      0.706855      0.936094
  N       1.194324      0.376916      0.756926
  C      -1.781790      0.888201     -0.399787
  O      -1.862600      1.398752     -1.498761
  O      -2.013880      1.597870      0.689478
  H      -1.617228     -0.386778      1.823873
  H      -1.825680     -1.910190      1.278269
  H      -2.229520     -1.110782     -0.763038
  H      -0.264483     -0.410937     -2.032400
  H      -0.008980     -1.925116     -1.148057
  H       2.714749     -0.778236     -1.826344
  H       2.873615      1.232667      1.784015
  H       0.428377      0.561975      1.382530
  H      -1.965477      2.555796      0.556601
20
Coordinates from ORCA-job geo_opt E -34.358090344010
  N      -1.285754     -1.000351      1.148979
  C      -1.423979     -0.563237     -0.235046
  C      -0.136164     -0.869286     -1.046116
  C       1.107167     -0.302088     -0.440423
  C       2.390595     -0.294643     -0.927458
  N       3.235340      0.321148     -0.055906
  C       2.486088      0.675400      0.950278
  N       1.190749      0.323314      0.770829
  C      -1.763501      0.906310     -0.426590
  O      -1.889436      1.403236     -1.522195
  O      -1.927091      1.593385      0.685666
  H      -1.618849     -0.313247      1.810106
  H      -1.784626     -1.859406      1.311704
  H      -2.238715     -1.099098     -0.744096
  H      -0.270124     -0.454172     -2.045714
  H      -0.021039     -1.947302     -1.136054
  H       2.736680     -0.692660     -1.859158
  H       2.851629      1.177654      1.819468
  H       0.429705      0.452583      1.415389
  H      -2.068675      2.542459      0.526337
20
Coordinates from ORCA-job geo_opt E -34.359597504330
  N      -1.313045     -0.964889      1.161657
  C      -1.428270     -0.568413     -0.232094
  C      -0.133770     -0.899180     -1.026195
  C       1.107071     -0.310110     -0.442606
  C       2.375806     -0.243302     -0.956616
  N       3.218237      0.375818     -0.084351
  C       2.477427      0.675600      0.948697
  N       1.193188      0.286499      0.785348
  C      -1.736657      0.907119     -0.438663
  O      -1.857383      1.408315     -1.534240
  O      -1.829900      1.590176      0.686108
  H      -1.728816     -0.273876      1.775290
  H      -1.782429     -1.844731      1.320866
  H      -2.242474     -1.097450     -0.749762
  H      -0.266193     -0.520415     -2.041962
  H      -0.019925     -1.982487     -1.079638
  H       2.725042     -0.595847     -1.906856
  H       2.840025      1.167426      1.827793
  H       0.442441      0.357031      1.452980
  H      -2.040375      2.532717      0.534245
20
Coordinates from ORCA-job geo_opt E -34.360818476770
  N      -1.333674     -0.892168      1.180209
  C      -1.423239     -0.564339     -0.229238
  C      -0.128850     -0.937774     -0.997157
  C       1.106777     -0.320046     -0.441044
  C       2.345458     -0.154543     -1.000109
  N       3.187295      0.455147     -0.120138
  C       2.473552      0.647189      0.960844
  N       1.208722      0.199897      0.819064
  C      -1.688150      0.914082     -0.467233
  O      -1.841534      1.397945     -1.568521
  O      -1.769918      1.606678      0.656661
  H      -1.851768     -0.206607      1.723299
  H      -1.737495     -1.803932      1.358093
  H      -2.241984     -1.091883     -0.746362
  H      -0.256697     -0.610510     -2.032772
  H      -0.020799     -2.025993     -0.994034
  H       2.682206     -0.422062     -1.982961
  H       2.840776      1.104215      1.858737
  H       0.481401      0.164959      1.518907
  H      -2.032078      2.539745      0.503753
20
Coordinates from ORCA-job geo_opt E -34.361986540570
  N      -1.353607     -0.821631      1.198869
  C      -1.424597     -0.567659     -0.225603
  C      -0.132754     -0.982835     -0.964697
  C       1.090528     -0.323591     -0.435460
  C       2.282476     -0.026326     -1.038933
  N       3.125031      0.563510     -0.145581
  C       2.456319      0.613078      0.982028
  N       1.219695      0.092735      0.857038
  C      -1.659211      0.906972     -0.503661
  O      -1.788104      1.371150     -1.617478
  O      -1.696894      1.635441      0.602677
  H      -1.961303     -0.158308      1.675429
  H      -1.666877     -1.762564      1.413156
  H      -2.247015     -1.100674     -0.735816
  H      -0.255609     -0.714406     -2.018022
  H      -0.023807     -2.070880     -0.896677
  H       2.590388     -0.182225     -2.054742
  H       2.833977      1.022023      1.899208
  H       0.526166     -0.071134      1.578210
  H      -1.914801      2.577323      0.430054
20
Coordinates from ORCA-job geo_opt E -34.363330929660
  N      -1.367427     -0.813933      1.209229
  C      -1.422849     -0.565456     -0.222099
  C      -0.138649     -1.018756     -0.942195
  C       1.076756     -0.329740     -0.430888
  C       2.231935      0.056187     -1.057644
  N       3.076587      0.632984     -0.157143
  C       2.442795      0.595872      0.990999
  N       1.225401      0.029551      0.873082
  C      -1.614329      0.913812     -0.516487
  O      -1.705417      1.362166     -1.640354
  O      -1.693303      1.674676      0.564478
  H      -1.994501     -0.172751      1.683992
  H      -1.630587     -1.768489      1.427676
  H      -2.259073     -1.080543     -0.731155
  H      -0.252364     -0.795891     -2.005792
  H      -0.032609     -2.102137     -0.821348
  H       2.512270     -0.030837     -2.088637
  H       2.826804      0.985620      1.912640
  H       0.542020     -0.195734      1.592033
  H      -1.823462      2.623398      0.359614
20
Coordinates from ORCA-job geo_opt E -34.364171308200
  N      -1.388924     -0.824447      1.207684
  C      -1.428241     -0.562497     -0.223413
  C      -0.147405     -1.059478     -0.923997
  C       1.061641     -0.340059     -0.432388
  C       2.188918      0.108381     -1.068481
  N       3.024940      0.704116     -0.170930
  C       2.416852      0.614198      0.985098
  N       1.222295     -0.003380      0.877693
  C      -1.565531      0.922679     -0.515945
  O      -1.604904      1.373687     -1.639766
  O      -1.646583      1.683349      0.557795
  H      -2.040254     -0.216295      1.686495
  H      -1.616046     -1.789910      1.404482
  H      -2.280439     -1.043912     -0.736223
  H      -0.249029     -0.890254     -1.996143
  H      -0.045786     -2.132807     -0.745657
  H       2.453722      0.056835     -2.105086
  H       2.797640      1.011825      1.902800
  H       0.535226     -0.247719      1.586359
  H      -1.688090      2.635689      0.349622
20
Coordinates from ORCA-job geo_opt E -34.364591959060
  N      -1.398327     -0.826813      1.202612
  C      -1.429743     -0.555482     -0.226766
  C      -0.152367     -1.091985     -0.909594
  C       1.051550     -0.351216     -0.434719
  C       2.155070      0.143470     -1.076611
  N       2.984414      0.752786     -0.181632
  C       2.394280      0.629995      0.979161
  N       1.221329     -0.029501      0.881415
  C      -1.517356      0.934133     -0.516419
  O      -1.532007      1.386526     -1.640592
  O      -1.601454      1.688090      0.558755
  H      -2.077409     -0.252520      1.684301
  H      -1.595154     -1.802741      1.378611
  H      -2.296854     -1.007570     -0.741053
  H      -0.243062     -0.969304     -1.987833
  H      -0.057282     -2.155399     -0.682260
  H       2.408392      0.113091     -2.116932
  H       2.775975      1.029442      1.895307
  H       0.526758     -0.276667      1.580455
  H      -1.616753      2.641665      0.353793
20
Coordinates from ORCA-job geo_opt E -34.364765776450
  N      -1.401195     -0.835576      1.197214
  C      -1.430977     -0.551787     -0.229119
  C      -0.154416     -1.103629     -0.904597
  C       1.048007     -0.357261     -0.434983
  C       2.144505      0.148227     -1.079138
  N       2.967086      0.771755     -0.188404
  C       2.380915      0.645113      0.974031
  N       1.218359     -0.032464      0.883129
  C      -1.499299      0.940071     -0.513040
  O      -1.502778      1.395110     -1.637024
  O      -1.569122      1.689175      0.566875
  H      -2.094270     -0.283756      1.687031
  H      -1.587794     -1.817723      1.355179
  H      -2.304899     -0.989822     -0.744142
  H      -0.239420     -0.999382     -1.985310
  H      -0.062785     -2.163052     -0.658286
  H       2.395350      0.112522     -2.120307
  H       2.766408      1.045048      1.888999
  H       0.511045     -0.257400      1.576158
  H      -1.584722      2.644833      0.365732
20
Coordinates from ORCA-job geo_opt E -34.364835509900
  N      -1.403156     -0.819322      1.197521
  C      -1.430792     -0.548003     -0.230461
  C      -0.153010     -1.106917     -0.897436
  C       1.048619     -0.359066     -0.431110
  C       2.132282      0.166349     -1.080067
  N       2.959418      0.782963     -0.189202
  C       2.385178      0.636279      0.977909
  N       1.231146     -0.054445      0.890974
  C      -1.496164      0.941884     -0.523105
  O      -1.509933      1.390682     -1.649790
  O      -1.556874      1.694662      0.555913
  H      -2.119825     -0.287392      1.677483
  H      -1.566485     -1.806284      1.358496
  H      -2.305095     -0.987724     -0.744000
  H      -0.234594     -1.012796     -1.979760
  H      -0.064475     -2.165149     -0.641413
  H       2.371484      0.144436     -2.124739
  H       2.782586      1.018703      1.896019
  H       0.523724     -0.279108      1.585271
  H      -1.594035      2.650251      0.351499
20
Coordinates from ORCA-job geo_opt E -34.364872442290
  N      -1.399591     -0.821386      1.197487
  C      -1.430799     -0.549397     -0.230375
  C      -0.152656     -1.100990     -0.900988
  C       1.049988     -0.359497     -0.429272
  C       2.138252      0.158035     -1.077093
  N       2.965476      0.774118     -0.186264
  C       2.384756      0.637769      0.979272
  N       1.228867     -0.049257      0.891594
  C      -1.504623      0.940203     -0.522704
  O      -1.534251      1.388527     -1.649146
  O      -1.547237      1.694582      0.556540
  H      -2.117840     -0.293722      1.679950
  H      -1.562100     -1.808829      1.358383
  H      -2.303506     -0.993523     -0.742900
  H      -0.235234     -0.996741     -1.982586
  H      -0.064279     -2.161993     -0.655451
  H       2.379104      0.127725     -2.121211
  H       2.783796      1.017862      1.897712
  H       0.514672     -0.253235      1.584875
  H      -1.592795      2.649751      0.352176
20
Coordinates from ORCA-job geo_opt E -34.364898226120
  N      -1.402782     -0.818232      1.198202
  C      -1.432128     -0.552060     -0.230936
  C      -0.152708     -1.099047     -0.900806
  C       1.049414     -0.358785     -0.426526
  C       2.136591      0.160880     -1.075254
  N       2.963709      0.777449     -0.184617
  C       2.385229      0.636657      0.981686
  N       1.230530     -0.052487      0.893905
  C      -1.509595      0.936892     -0.525382
  O      -1.555362      1.383733     -1.651715
  O      -1.531168      1.694046      0.552426
  H      -2.128068     -0.295601      1.675273
  H      -1.555715     -1.806365      1.364422
  H      -2.301998     -1.000400     -0.744732
  H      -0.235442     -0.989510     -1.981923
  H      -0.063776     -2.161364     -0.660556
  H       2.374618      0.132490     -2.119978
  H       2.786217      1.012981      1.900652
  H       0.515800     -0.250010      1.588718
  H      -1.573366      2.648731      0.347140
20
Coordinates from ORCA-job geo_opt E -34.364917796130
  N      -1.406300     -0.815998      1.198434
  C      -1.434965     -0.556103     -0.231896
  C      -0.153739     -1.098620     -0.901094
  C       1.046823     -0.357450     -0.423801
  C       2.132270      0.166983     -1.072553
  N       2.959870      0.781648     -0.180926
  C       2.382205      0.637412      0.985222
  N       1.229353     -0.055464      0.896467
  C      -1.513416      0.932715     -0.528502
  O      -1.586832      1.377531     -1.654040
  O      -1.500655      1.692724      0.546813
  H      -2.139365     -0.299986      1.670003
  H      -1.545612     -1.804870      1.370380
  H      -2.302039     -1.008307     -0.746827
  H      -0.236513     -0.984391     -1.981683
  H      -0.063343     -2.161737     -0.665525
  H       2.368396      0.142012     -2.117671
  H       2.783225      1.011621      1.904751
  H       0.514206     -0.246777      1.592405
  H      -1.533567      2.647058      0.340042
20
Coordinates from ORCA-job geo_opt E -34.364928241000
  N      -1.408400     -0.816234      1.198426
  C      -1.437061     -0.557223     -0.232026
  C      -0.154203     -1.098130     -0.900903
  C       1.045653     -0.355758     -0.422754
  C       2.130867      0.169861     -1.071118
  N       2.958322      0.784267     -0.179148
  C       2.382298      0.636697      0.987219
  N       1.229311     -0.056385      0.897940
  C      -1.515181      0.931806     -0.530152
  O      -1.605437      1.374276     -1.655461
  O      -1.485492      1.693862      0.542971
  H      -2.143636     -0.302816      1.669196
  H      -1.542499     -1.805588      1.370904
  H      -2.302859     -1.010938     -0.747390
  H      -0.236843     -0.983292     -1.981419
  H      -0.062631     -2.161135     -0.666104
  H       2.367000      0.146655     -2.116277
  H       2.783206      1.010113      1.907055
  H       0.515321     -0.247862      1.594812
  H      -1.517735      2.647824      0.334230
20
Coordinates from ORCA-job geo_opt E -34.364941132380
  N      -1.411893     -0.818340      1.197677
  C      -1.440786     -0.558589     -0.232325
  C      -0.155184     -1.098144     -0.900084
  C       1.042832     -0.352336     -0.421927
  C       2.127520      0.175021     -1.069557
  N       2.955448      0.787521     -0.176762
  C       2.380204      0.637784      0.989516
  N       1.226941     -0.055212      0.899539
  C      -1.516702      0.930627     -0.531595
  O      -1.631789      1.369826     -1.656131
  O      -1.455449      1.694806      0.538088
  H      -2.150374     -0.309659      1.668394
  H      -1.538810     -1.808857      1.368232
  H      -2.305060     -1.013383     -0.748712
  H      -0.237203     -0.985661     -1.980853
  H      -0.061243     -2.160266     -0.663072
  H       2.364658      0.154239     -2.114579
  H       2.779930      1.011535      1.909706
  H       0.514850     -0.249381      1.597309
  H      -1.487889      2.648468      0.327134
20
Coordinates from ORCA-job geo_opt E -34.364946047080
  N      -1.412828     -0.820668      1.197129
  C      -1.442015     -0.558330     -0.232327
  C      -0.155408     -1.097200     -0.899716
  C       1.042132     -0.350621     -0.421986
  C       2.127888      0.174654     -1.069166
  N       2.955637      0.787200     -0.176285
  C       2.379514      0.638895      0.989788
  N       1.225345     -0.052340      0.899574
  C      -1.517523      0.930726     -0.531147
  O      -1.641802      1.368567     -1.655396
  O      -1.444337      1.695765      0.537149
  H      -2.151769     -0.314007      1.669483
  H      -1.539331     -1.811837      1.364635
  H      -2.305832     -1.013182     -0.749344
  H      -0.237159     -0.986574     -1.980717
  H      -0.060653     -2.158932     -0.660960
  H       2.366290      0.153210     -2.113929
  H       2.778435      1.013663      1.910004
  H       0.513871     -0.248411      1.597298
  H      -1.480455      2.649422      0.325914
20
Coordinates from ORCA-job geo_opt E -34.364948035100
  N      -1.412960     -0.821632      1.196775
  C      -1.442396     -0.558111     -0.232499
  C      -0.155469     -1.096075     -0.899665
  C       1.042012     -0.349786     -0.422002
  C       2.128887      0.173372     -1.068877
  N       2.956577      0.785863     -0.175888
  C       2.378866      0.639960      0.989812
  N       1.223967     -0.049651      0.899302
  C      -1.518834      0.930559     -0.530600
  O      -1.648835      1.368096     -1.654380
  O      -1.437727      1.695789      0.537030
  H      -2.153250     -0.317302      1.669717
  H      -1.538673     -1.813290      1.362760
  H      -2.305824     -1.013311     -0.749926
  H      -0.237137     -0.986189     -1.980779
  H      -0.060596     -2.157840     -0.660374
  H       2.368121      0.150756     -2.113436
  H       2.777313      1.015361      1.910034
  H       0.512163     -0.246087      1.596597
  H      -1.476206      2.649520      0.326398
20
Coordinates from ORCA-job geo_opt E -34.364948706390
  N      -1.412768     -0.821808      1.196702
  C      -1.442300     -0.557843     -0.232631
  C      -0.155421     -1.095173     -0.899797
  C       1.042377     -0.349641     -0.421997
  C       2.130243      0.171728     -1.068681
  N       2.957804      0.784469     -0.175715
  C       2.378934      0.640430      0.989699
  N       1.223516     -0.048064      0.899025
  C      -1.519929      0.930664     -0.530205
  O      -1.652109      1.368396     -1.653666
  O      -1.436873      1.695887      0.537322
  H      -2.154157     -0.319173      1.669819
  H      -1.537685     -1.813712      1.362250
  H      -2.305535     -1.013326     -0.750199
  H      -0.237125     -0.985156     -1.980916
  H      -0.060844     -2.157149     -0.660896
  H       2.370008      0.147798     -2.113085
  H       2.777182      1.016306      1.909826
  H       0.511157     -0.244315      1.595871
  H      -1.476475      2.649681      0.327273
