20
Coordinates from ORCA-job geo_opt E -34.364948706390
  N          -1.41276762844891     -0.82180826841630      1.19670243373094
  C          -1.44229955398800     -0.55784271553163     -0.23263056687723
  C          -0.15542077268304     -1.09517318269636     -0.89979674775127
  C           1.04237685842491     -0.34964096658759     -0.42199694355152
  C           2.13024291698759      0.17172835390757     -1.06868063214986
  N           2.95780396636120      0.78446948447836     -0.17571548354040
  C           2.37893354310111      0.64043045704064      0.98969886938638
  N           1.22351582354418     -0.04806380477058      0.89902471057580
  C          -1.51992904553481      0.93066372023470     -0.53020477997629
  O          -1.65210925795036      1.36839603655931     -1.65366588079613
  O          -1.43687284960780      1.69588701573545      0.53732197691946
  H          -2.15415745522298     -0.31917268435854      1.66981869552156
  H          -1.53768464568379     -1.81371222687692      1.36225007101090
  H          -2.30553533420458     -1.01332621800642     -0.75019877593681
  H          -0.23712455380805     -0.98515633035783     -1.98091587320160
  H          -0.06084409242043     -2.15714928546135     -0.66089643226571
  H           2.37000780586477      0.14779780433790     -2.11308467674887
  H           2.77718221682170      1.01630606212656      1.90982610011711
  H           0.51115682504171     -0.24431464959191      1.59587062525272
  H          -1.47647476659445      2.64968137823495      0.32727331028081
