20
neutral_delta conformer 5
N      -1.39310793    -1.12390103     1.09136960
C      -1.36786189    -0.59355792    -0.23976648
C      -0.11811564    -0.82450160    -0.99132168
C       1.09688954    -0.24934109    -0.37917733
C       2.35229767    -0.36670065    -0.94176918
N       3.19755636     0.27485033    -0.11051144
C       2.48692038     0.76051787     0.91197253
N       1.19204998     0.44181336     0.75376784
C      -1.73181269     0.83132916    -0.34614479
O      -1.72234244     1.34194389    -1.50837233
O      -2.07732217     1.64097728     0.70791480
H      -1.72317672    -0.45700690     1.80689281
H      -1.92463894    -2.01734355     1.19854988
H      -2.16503929    -1.16353125    -0.79124834
H      -0.23972832    -0.34290926    -1.99065839
H       0.04149660    -1.92343996    -1.09353529
H       2.60534629    -0.87309855    -1.86582395
H       2.90584961     1.33315840     1.75164931
H       0.41358137     0.67783581     1.37679460
H      -1.82884177     2.63290564     0.65941783
