20
zwitterion CPCM-opt conformer 3
N      -1.42687166    -1.29349130    -0.20786712
C      -1.51445672     0.17057013     0.13480837
C      -0.30815193     0.91619361    -0.47224006
C       1.01563104     0.36987411    -0.03202573
C       2.06810459     0.99732161     0.60073715
N       3.03254507     0.02583973     0.77002909
C       2.55565807    -1.13722841     0.25677194
N       1.33591749    -0.96695826    -0.24358656
C      -2.85116416     0.72242597    -0.44672848
O      -3.40880607     0.00249355    -1.32891830
O      -3.22361991     1.84137609    -0.00870781
H      -1.83547949    -1.88232937     0.52655940
H      -0.42265016    -1.57435560    -0.35352270
H      -2.00822266    -1.40687022    -1.06368119
H      -1.50882532     0.26188644     1.22768601
H      -0.39223940     1.97305188    -0.18889619
H      -0.38758475     0.86641508    -1.57212702
H       2.21367786     2.01903072     0.93335867
H       3.94446290     0.15844911     1.20005581
H       3.12207519    -2.06369484     0.26829471
