20
Coordinates from ORCA-job geo_opt E -34.365501263960
  N          -1.32917874570984     -0.47942504559664      1.82736734852403
  C          -1.57366438840583     -0.59531112473287      0.40475878030557
  C          -0.43259745214207     -1.28322324019739     -0.40316597079837
  C           0.80145766647482     -0.44875063034102     -0.40652351869320
  C           1.73950982312836     -0.28208340481567      0.57749410795183
  N           2.62935874971824      0.63959925840721      0.10209437394753
  C           2.19938204925409      0.99253655791653     -1.12730964714824
  N           1.10855462029595      0.35987713122234     -1.46601726326862
  C          -1.74864829491430      0.78605529775004     -0.19413841043079
  O          -1.23574219642395      1.78870854979749      0.25399430113971
  O          -2.49307187046714      0.77446304236045     -1.28044390102492
  H          -0.88639800151445     -1.32296777100914      2.17332948470721
  H          -0.70313400035589      0.30249484954318      1.99446314343534
  H          -2.49575402624001     -1.16499946113627      0.24842998552252
  H          -0.76599169263708     -1.42266400929100     -1.43084249795431
  H          -0.23502696793950     -2.25631465926024      0.04963573373174
  H           1.84928193012503     -0.73812278542342      1.53899591472531
  H           3.43913247165686      0.99015395983556      0.58734749564244
  H           2.70083079762347      1.70611132704505     -1.74860134262666
  H          -2.56830049152680      1.65386216792584     -1.70086811768811
