20
Coordinates from ORCA-job geo_opt E -34.324499308680
  N      -1.232606     -0.309210      1.749213
  C      -1.546607     -0.582806      0.364016
  C      -0.419016     -1.207338     -0.387693
  C       0.808289     -0.388605     -0.436441
  C       1.856562     -0.424151      0.492607
  N       2.790614      0.466423      0.102157
  C       2.360720      1.058571     -1.041797
  N       1.153236      0.541122     -1.374324
  C      -1.986432      0.720175     -0.204784
  O      -2.023216      1.773893      0.516009
  O      -2.377797      0.871533     -1.530765
  H      -0.660376     -1.070315      2.178540
  H      -0.769433      0.626330      1.849515
  H      -2.394761     -1.298925      0.312831
  H      -0.800364     -1.523779     -1.373500
  H      -0.169888     -2.148166      0.148110
  H       1.887239     -1.076837      1.380599
  H       3.684279      0.640572      0.624095
  H       2.944319      1.811464     -1.545259
  H      -3.104762      1.520049     -1.823128
20
Coordinates from ORCA-job geo_opt E -34.349878458570
  N      -1.274315     -0.312759      1.782808
  C      -1.554664     -0.564927      0.384104
  C      -0.405541     -1.213321     -0.393206
  C       0.825669     -0.392133     -0.429477
  C       1.863393     -0.439067      0.488025
  N       2.772436      0.470829      0.090706
  C       2.303975      1.053744     -1.036928
  N       1.129245      0.544900     -1.366494
  C      -1.960485      0.743681     -0.202619
  O      -1.968070      1.783428      0.462141
  O      -2.315597      0.809197     -1.496528
  H      -0.724130     -1.060559      2.193005
  H      -0.813549      0.586702      1.889956
  H      -2.417098     -1.249615      0.318143
  H      -0.767195     -1.490117     -1.389518
  H      -0.162333     -2.157763      0.117193
  H       1.928173     -1.079074      1.352320
  H       3.644369      0.658670      0.575863
  H       2.851179      1.814864     -1.548310
  H      -2.955462      1.493319     -1.791183
20
Coordinates from ORCA-job geo_opt E -34.358544446480
  N      -1.294613     -0.329070      1.808625
  C      -1.563950     -0.555852      0.403605
  C      -0.414733     -1.230518     -0.391406
  C       0.820810     -0.404064     -0.414423
  C       1.858757     -0.451235      0.488129
  N       2.748337      0.488442      0.082634
  C       2.234057      1.062885     -1.028398
  N       1.081317      0.549722     -1.349468
  C      -1.916311      0.769307     -0.208284
  O      -1.874689      1.807272      0.411293
  O      -2.260058      0.732079     -1.475547
  H      -0.759859     -1.086242      2.203519
  H      -0.814917      0.551719      1.919973
  H      -2.446014     -1.205312      0.324784
  H      -0.766528     -1.458238     -1.397082
  H      -0.185915     -2.181120      0.098844
  H       1.968746     -1.083847      1.339807
  H       3.617496      0.697630      0.538819
  H       2.740944      1.842095     -1.554620
  H      -2.772877      1.484348     -1.800804
20
Coordinates from ORCA-job geo_opt E -34.363173548560
  N      -1.292238     -0.347943      1.829900
  C      -1.569027     -0.555419      0.423106
  C      -0.432749     -1.255208     -0.384375
  C       0.804372     -0.424610     -0.402177
  C       1.848349     -0.460559      0.486277
  N       2.716790      0.511750      0.082559
  C       2.168593      1.082584     -1.013459
  N       1.027056      0.549613     -1.331476
  C      -1.876411      0.781664     -0.219169
  O      -1.741531      1.838567      0.349715
  O      -2.291159      0.664843     -1.455844
  H      -0.759457     -1.116970      2.206201
  H      -0.785194      0.518844      1.941773
  H      -2.469463     -1.175914      0.340343
  H      -0.784371     -1.435654     -1.397651
  H      -0.217714     -2.214094      0.089610
  H       2.002928     -1.090743      1.331991
  H       3.587707      0.743523      0.524895
  H       2.639121      1.882695     -1.545933
  H      -2.575604      1.503030     -1.856287
20
Coordinates from ORCA-job geo_opt E -34.364532296520
  N      -1.283762     -0.359473      1.830073
  C      -1.568037     -0.556820      0.423916
  C      -0.442571     -1.271808     -0.381489
  C       0.795247     -0.441195     -0.392586
  C       1.837648     -0.458575      0.495879
  N       2.695759      0.528543      0.094217
  C       2.141261      1.092694     -1.000673
  N       1.004540      0.540393     -1.321574
  C      -1.835964      0.785765     -0.237126
  O      -1.597550      1.852280      0.284921
  O      -2.378572      0.650098     -1.425278
  H      -0.750307     -1.138664      2.193553
  H      -0.750359      0.495764      1.942821
  H      -2.481472     -1.158294      0.336130
  H      -0.791844     -1.425483     -1.400857
  H      -0.240425     -2.235440      0.086697
  H       2.016666     -1.081925      1.345598
  H       3.565358      0.775956      0.536461
  H       2.595627      1.900975     -1.537343
  H      -2.531243      1.505209     -1.873339
20
Coordinates from ORCA-job geo_opt E -34.364817299030
  N      -1.291679     -0.383549      1.835743
  C      -1.575091     -0.566810      0.428348
  C      -0.454312     -1.284472     -0.375849
  C       0.780612     -0.450145     -0.387250
  C       1.819966     -0.440139      0.503963
  N       2.665880      0.554597      0.094107
  C       2.110362      1.098754     -1.009116
  N       0.981881      0.523050     -1.328652
  C      -1.808475      0.783137     -0.229140
  O      -1.439499      1.836279      0.245102
  O      -2.389827      0.667982     -1.405103
  H      -0.760911     -1.171728      2.189602
  H      -0.738534      0.461039      1.954292
  H      -2.496792     -1.153741      0.329202
  H      -0.802390     -1.428257     -1.398050
  H      -0.254903     -2.249382      0.090381
  H       2.016535     -1.047371      1.363474
  H       3.531138      0.821645      0.536584
  H       2.552199      1.907109     -1.556362
  H      -2.446159      1.522001     -1.881276
20
Coordinates from ORCA-job geo_opt E -34.365151103770
  N      -1.307583     -0.401774      1.826407
  C      -1.573404     -0.573663      0.413446
  C      -0.445104     -1.291336     -0.377550
  C       0.789454     -0.456997     -0.384134
  C       1.811976     -0.414346      0.525138
  N       2.660045      0.571197      0.101397
  C       2.125714      1.079575     -1.028294
  N       1.006414      0.486952     -1.351664
  C      -1.772794      0.781510     -0.240198
  O      -1.352028      1.821993      0.219398
  O      -2.453595      0.702107     -1.367012
  H      -0.783720     -1.195562      2.179730
  H      -0.743923      0.434311      1.958411
  H      -2.498214     -1.151500      0.293706
  H      -0.782095     -1.439837     -1.403300
  H      -0.250364     -2.254176      0.094878
  H       2.002858     -0.992545      1.406035
  H       3.515212      0.857006      0.551957
  H       2.572384      1.872979     -1.592401
  H      -2.521234      1.564107     -1.825948
20
Coordinates from ORCA-job geo_opt E -34.365314825720
  N      -1.324200     -0.424829      1.825299
  C      -1.576842     -0.581003      0.407126
  C      -0.437793     -1.286694     -0.382690
  C       0.796362     -0.451624     -0.387689
  C       1.800669     -0.381732      0.540444
  N       2.661064      0.583707      0.098922
  C       2.151610      1.055058     -1.058249
  N       1.035865      0.457862     -1.381698
  C      -1.773038      0.781662     -0.227696
  O      -1.337989      1.813206      0.237542
  O      -2.463807      0.724619     -1.348691
  H      -0.803608     -1.221367      2.175545
  H      -0.762623      0.409272      1.972025
  H      -2.497699     -1.160532      0.272345
  H      -0.768753     -1.442414     -1.409059
  H      -0.240123     -2.249477      0.089867
  H       1.972764     -0.930122      1.443180
  H       3.507843      0.881482      0.556125
  H       2.612664      1.826775     -1.639960
  H      -2.552366      1.596151     -1.782688
20
Coordinates from ORCA-job geo_opt E -34.365421688730
  N      -1.343134     -0.463600      1.823842
  C      -1.580372     -0.593182      0.399817
  C      -0.431645     -1.286413     -0.390652
  C       0.801301     -0.449897     -0.394594
  C       1.772811     -0.327263      0.562525
  N       2.647361      0.613403      0.097490
  C       2.177891      1.019069     -1.100875
  N       1.075063      0.402386     -1.429017
  C      -1.758085      0.782218     -0.207796
  O      -1.267939      1.791790      0.250001
  O      -2.481451      0.763227     -1.307916
  H      -0.834458     -1.270219      2.167160
  H      -0.773109      0.360781      1.989363
  H      -2.499862     -1.167306      0.242786
  H      -0.756258     -1.444970     -1.418243
  H      -0.232532     -2.250830      0.079635
  H       1.916743     -0.822016      1.499850
  H       3.476220      0.939624      0.566696
  H       2.657115      1.758940     -1.708398
  H      -2.565661      1.644257     -1.721675
20
Coordinates from ORCA-job geo_opt E -34.365455339150
  N      -1.343094     -0.478802      1.825317
  C      -1.579511     -0.596722      0.399802
  C      -0.431027     -1.286048     -0.395446
  C       0.801547     -0.449350     -0.399845
  C       1.757240     -0.304082      0.570026
  N       2.639296      0.626162      0.097453
  C       2.188395      1.004117     -1.117005
  N       1.090333      0.380574     -1.448051
  C      -1.752620      0.783869     -0.198753
  O      -1.249571      1.787284      0.259064
  O      -2.483038      0.774601     -1.293899
  H      -0.844762     -1.293310      2.164947
  H      -0.764935      0.338455      1.997002
  H      -2.499574     -1.168085      0.237515
  H      -0.757084     -1.440963     -1.423109
  H      -0.231855     -2.252865      0.070289
  H       1.885224     -0.776270      1.521171
  H       3.459842      0.964231      0.572783
  H       2.677634      1.730008     -1.733511
  H      -2.562440      1.657196     -1.705749
20
Coordinates from ORCA-job geo_opt E -34.365485309290
  N      -1.336585     -0.494026      1.828673
  C      -1.576131     -0.599168      0.402921
  C      -0.432311     -1.285420     -0.402150
  C       0.800536     -0.449419     -0.407746
  C       1.736728     -0.277785      0.577000
  N       2.627098      0.642248      0.098483
  C       2.199229      0.987993     -1.133695
  N       1.109877      0.352497     -1.471552
  C      -1.745312      0.786527     -0.188080
  O      -1.232874      1.785059      0.270480
  O      -2.481199      0.783247     -1.279330
  H      -0.858931     -1.322392      2.164438
  H      -0.741885      0.310047      2.005565
  H      -2.498397     -1.166204      0.238285
  H      -0.764068     -1.430522     -1.429560
  H      -0.234068     -2.256951      0.053982
  H       1.843450     -0.724561      1.543083
  H       3.436350      0.995388      0.582611
  H       2.701327      1.698168     -1.758449
  H      -2.552834      1.665273     -1.694959
20
Coordinates from ORCA-job geo_opt E -34.365491760200
  N      -1.331879     -0.490416      1.828730
  C      -1.574490     -0.598126      0.404406
  C      -0.433265     -1.285041     -0.403248
  C       0.799957     -0.449419     -0.408237
  C       1.735697     -0.278781      0.577241
  N       2.626682      0.641356      0.100160
  C       2.199291      0.989024     -1.131570
  N       1.108674      0.355676     -1.469869
  C      -1.745664      0.786193     -0.189417
  O      -1.235105      1.786433      0.267328
  O      -2.482918      0.779155     -1.280036
  H      -0.859892     -1.321629      2.165552
  H      -0.731841      0.310314      2.002894
  H      -2.497451     -1.165261      0.243072
  H      -0.767188     -1.426130     -1.430621
  H      -0.235618     -2.257975      0.049935
  H       1.841738     -0.728020      1.542350
  H       3.436013      0.993304      0.585192
  H       2.702425      1.699618     -1.755030
  H      -2.555165      1.659723     -1.698832
20
Coordinates from ORCA-job geo_opt E -34.365496461060
  N      -1.327189     -0.483844      1.828292
  C      -1.573018     -0.596494      0.405689
  C      -0.434038     -1.284343     -0.404116
  C       0.799989     -0.449679     -0.408094
  C       1.736979     -0.282596      0.576958
  N       2.627190      0.639299      0.102458
  C       2.198708      0.991586     -1.127555
  N       1.108357      0.358525     -1.467492
  C      -1.747096      0.785621     -0.192134
  O      -1.238097      1.788108      0.261084
  O      -2.486895      0.774159     -1.281392
  H      -0.862901     -1.318372      2.167785
  H      -0.719754      0.312208      1.998211
  H      -2.496421     -1.164422      0.248620
  H      -0.769600     -1.421726     -1.431516
  H      -0.237013     -2.258503      0.046406
  H       1.844218     -0.736997      1.539576
  H       3.436757      0.989576      0.588374
  H       2.701470      1.704581     -1.748513
  H      -2.561647      1.653315     -1.702640
20
Coordinates from ORCA-job geo_opt E -34.365498695890
  N      -1.326220     -0.480655      1.827883
  C      -1.572823     -0.595950      0.405820
  C      -0.433916     -1.283820     -0.404407
  C       0.800353     -0.449475     -0.407549
  C       1.737796     -0.283445      0.577291
  N       2.627911      0.638526      0.103238
  C       2.198930      0.992352     -1.126198
  N       1.108264      0.359936     -1.466153
  C      -1.748093      0.785253     -0.193467
  O      -1.238130      1.788361      0.257061
  O      -2.490031      0.772678     -1.281392
  H      -0.868262     -1.317773      2.169665
  H      -0.712858      0.311241      1.995647
  H      -2.495999     -1.164627      0.250293
  H      -0.769319     -1.420243     -1.431944
  H      -0.236797     -2.258210      0.045486
  H       1.846107     -0.739962      1.538762
  H       3.437702      0.988133      0.589222
  H       2.701357      1.706117     -1.746476
  H      -2.565971      1.651564     -1.702782
20
Coordinates from ORCA-job geo_opt E -34.365500432280
  N      -1.326832     -0.478638      1.827553
  C      -1.573148     -0.595539      0.405520
  C      -0.433382     -1.283249     -0.404243
  C       0.801009     -0.449121     -0.406891
  C       1.738802     -0.283273      0.577626
  N       2.628804      0.638553      0.103267
  C       2.199423      0.992557     -1.126045
  N       1.108622      0.360281     -1.465588
  C      -1.749074      0.785329     -0.194259
  O      -1.237640      1.788625      0.254085
  O      -2.492746      0.772658     -1.281059
  H      -0.877207     -1.319185      2.171985
  H      -0.706102      0.307683      1.993932
  H      -2.495715     -1.165060      0.250525
  H      -0.767882     -1.420144     -1.431926
  H      -0.235952     -2.257360      0.046216
  H       1.848166     -0.740663      1.538524
  H       3.438609      0.988266      0.589084
  H       2.701346      1.706594     -1.746377
  H      -2.569102      1.651687     -1.701929
20
Coordinates from ORCA-job geo_opt E -34.365501006310
  N      -1.328102     -0.478883      1.827430
  C      -1.573485     -0.595443      0.405098
  C      -0.432929     -1.283146     -0.403753
  C       0.801324     -0.448890     -0.406611
  C       1.739148     -0.282442      0.577715
  N       2.629181      0.639111      0.102679
  C       2.199552      0.992443     -1.126750
  N       1.108755      0.359940     -1.465822
  C      -1.749002      0.785668     -0.194236
  O      -1.236529      1.788621      0.253700
  O      -2.493311      0.773637     -1.280608
  H      -0.882804     -1.321296      2.172922
  H      -0.703863      0.304591      1.994003
  H      -2.495708     -1.165164      0.249482
  H      -0.766721     -1.421269     -1.431472
  H      -0.235361     -2.256752      0.047859
  H       1.848783     -0.739137      1.538909
  H       3.438944      0.989306      0.588202
  H       2.701218      1.706196     -1.747631
  H      -2.569088      1.652907     -1.701116
20
Coordinates from ORCA-job geo_opt E -34.365501263960
  N      -1.329179     -0.479425      1.827367
  C      -1.573664     -0.595311      0.404759
  C      -0.432597     -1.283223     -0.403166
  C       0.801458     -0.448751     -0.406524
  C       1.739510     -0.282083      0.577494
  N       2.629359      0.639599      0.102094
  C       2.199382      0.992537     -1.127310
  N       1.108555      0.359877     -1.466017
  C      -1.748648      0.786055     -0.194138
  O      -1.235742      1.788709      0.253994
  O      -2.493072      0.774463     -1.280444
  H      -0.886398     -1.322968      2.173329
  H      -0.703134      0.302495      1.994463
  H      -2.495754     -1.164999      0.248430
  H      -0.765992     -1.422664     -1.430842
  H      -0.235027     -2.256315      0.049636
  H       1.849282     -0.738123      1.538996
  H       3.439132      0.990154      0.587347
  H       2.700831      1.706111     -1.748601
  H      -2.568300      1.653862     -1.700868
