20
neutral_epsilon conformer 5
N      -1.23260625    -0.30920965     1.74921326
C      -1.54660750    -0.58280572     0.36401623
C      -0.41901621    -1.20733752    -0.38769344
C       0.80828916    -0.38860538    -0.43644065
C       1.85656214    -0.42415129     0.49260655
N       2.79061403     0.46642340     0.10215686
C       2.36072005     1.05857120    -1.04179713
N       1.15323629     0.54112178    -1.37432390
C      -1.98643243     0.72017518    -0.20478352
O      -2.02321599     1.77389282     0.51600912
O      -2.37779741     0.87153342    -1.53076523
H      -0.66037564    -1.07031523     2.17853986
H      -0.76943298     0.62632955     1.84951472
H      -2.39476085    -1.29892497     0.31283116
H      -0.80036356    -1.52377882    -1.37350024
H      -0.16988777    -2.14816558     0.14810962
H       1.88723906    -1.07683741     1.38059852
H       3.68427878     0.64057154     0.62409495
H       2.94431905     1.81146381    -1.54525861
H      -3.10476199     1.52004888    -1.82312813
