
                                 *****************
                                 * O   R   C   A *
                                 *****************

                                            #,                                       
                                            ###                                      
                                            ####                                     
                                            #####                                    
                                            ######                                   
                                           ########,                                 
                                     ,,################,,,,,                         
                               ,,#################################,,                 
                          ,,##########################################,,             
                       ,#########################################, ''#####,          
                    ,#############################################,,   '####,        
                  ,##################################################,,,,####,       
                ,###########''''           ''''###############################       
              ,#####''   ,,,,##########,,,,          '''####'''          '####       
            ,##' ,,,,###########################,,,                        '##       
           ' ,,###''''                  '''############,,,                           
         ,,##''                                '''############,,,,        ,,,,,,###''
      ,#''                                            '''#######################'''  
     '                                                          ''''####''''         
             ,#######,   #######,   ,#######,      ##                                
            ,#'     '#,  ##    ##  ,#'     '#,    #''#        ,####,    ,#,          
            ##       ##  ##   ,#'  ##            #'  '#       #'       ,# #          
            ##       ##  #######   ##           ,######,      #####,      #          
            '#,     ,#'  ##    ##  '#,     ,#' ,#      #,     #,   #      #          
             '#######'   ##     ##  '#######'  #'      '#     '####' #    #          



                #########################################################
                #                        -***-                          #
                #          Department of theory and spectroscopy        #
                #                                                       #
                #                      Frank Neese                      #
                #                                                       #
                #     Directorship, Architecture, Infrastructure        #
                #                    SHARK, DRIVERS                     #
                #        Core code/Algorithms in most modules           #
                #                                                       #
                #        Max Planck Institute fuer Kohlenforschung      #
                #                Kaiser Wilhelm Platz 1                 #
                #                 D-45470 Muelheim/Ruhr                 #
                #                      Germany                          #
                #                                                       #
                #                  All rights reserved                  #
                #                        -***-                          #
                #########################################################


                         Program Version 6.1.0-f.0  -   RELEASE   -


 With contributions from (in alphabetic order):
[Max-Planck-Institut fuer Kohlenforschung]                               
  Daniel Aravena         : Magnetic Suceptibility                        
  Michael Atanasov       : Ab Initio Ligand Field Theory (pilot matlab implementation)
  Alexander A. Auer      : GIAO ZORA, VPT2 properties, NMR spectrum      
  Ute Becker             : All parallelization in ORCA, NUMFREQ, NUMCALC 
  Giovanni Bistoni       : ED, misc. LED, open-shell LED, HFLD           
  Dmytro Bykov           : pre 5.0 version of the SCF Hessian            
  Marcos Casanova-Páez   : Triplet and SCS-CIS(D). UHF-(DLPNO)-IP/EA/STEOM-CCSD. UHF-CVS-IP/STEOM-CCSD   
  Vijay G. Chilkuri      : MRCI spin determinant printing, contributions to CSF-ICE 
  Pauline Colinet        : FMM embedding                                 
  Dipayan Datta          : RHF DLPNO-CCSD density                        
  Achintya Kumar Dutta   : EOM-CC, STEOM-CC                              
  Nicolas Foglia         : Exact transition moments, OPA infrastructure, MCD improvements    
  Dmitry Ganyushin       : Spin-Orbit,Spin-Spin,Magnetic field MRCI      
  Miquel Garcia-Rates    : C-PCM and meta-GGA Hessian, CCSD/C-PCM, Gaussian charge scheme 
  Tiago L. C. Gouveia    : GS-ROHF, GS-ROCIS                             
  Yang Guo               : DLPNO-NEVPT2, F12-NEVPT2, CIM, IAO-localization        
  Andreas Hansen         : Spin unrestricted coupled pair/coupled cluster methods 
  Ingolf Harden          : AUTO-CI MPn and infrastructure                
  Benjamin Helmich-Paris : MC-RPA, TRAH-(SCF,CASSCF), AVAS, COSX integrals, SCF dyn. polar., MC-PDFT, srDFT 
  Lee Huntington         : MR-EOM, pCC                                   
  Robert Izsak           : Overlap fitted RIJCOSX, COSX-SCS-MP3, EOM     
  Riya Kayal             : Wick's Theorem for AUTO-CI, AUTO-CI UHF-CCSDT 
  Emily Kempfer          : AUTO-CI RHF CISDT and CCSDT, approximate NEVPT4
  Christian Kollmar      : KDIIS, OOCD, Brueckner-CCSD(T), CCSD density, CASPT2, CASPT2-K, improved NEVPT2 
  Axel Koslowski         : Symmetry handling                             
  Simone Kossmann        : meta-GGA functionals, TD-DFT gradient, OOMP2, (MP2 Hessian; deprecated post 5.0) 
  Lucas Lang             : DCDCAS, Hyperfine gauge corrections, ICE-SOC+SSC
  Marvin Lechner         : AUTO-CI (C++ implementation), FIC-MRCC        
  Spencer Leger          : CASSCF response                               
  Dagmar Lenk            : GEPOL surface, SMD, ORCA-2-JSON               
  Dimitrios Liakos       : Extrapolation schemes; Compound Job, Property file
  Dimitrios Manganas     : Further ROCIS development; embedding schemes. LFT, Crystal Embedding 
  Dimitrios Pantazis     : SARC Basis sets                               
  Anastasios Papadopoulos: AUTO-CI, single reference methods and gradients 
  Taras Petrenko         : pre 6.0 DFT Hessian and TD-DFT gradient,  ECA, NRVS 
  Petra Pikulova         : Analytic Raman intensities                    
  Peter Pinski           : DLPNO-MP2, DLPNO-MP2 Gradient                 
  Shashank Vittal Rao    : ES-AILFT, MagRelax                            
  Christoph Reimann      : Effective Core Potentials                     
  Marius Retegan         : Local ZFS, SOC                                
  Christoph Riplinger    : Optimizer, TS searches, QM/MM, DLPNO-CCSD(T), (RO)-DLPNO pert. Triples 
  Michael Roemelt        : Original ROCIS implementation, recursive CI coupling coefficients
  Masaaki Saitow         : Open-shell DLPNO-CCSD energy and density      
  Barbara Sandhoefer     : DKH picture change effects                    
  Yorick L. A. Schmerwitz: GMF and freeze-and-release deltaSCF, NEB S-IDPP initial path                    
  Kantharuban Sivalingam : CASSCF convergence/infrastructure, NEVPT2, NEVPT3, NEVPT4(SD), FIC-MRCI and CEPA variants
  Bernardo de Souza      : ESD, SOC TD-DFT                               
  Georgi L. Stoychev     : AutoAux, RI-MP2 NMR, DLPNO-MP2 response, X2C  
  Van Anh Tran           : RI-MP2 g-tensors                              
  Willem Van den Heuvel  : Paramagnetic NMR                              
  Zikuan Wang            : NOTCH, Electric field optimization            
  Frank Wennmohs         : Technical directorship and infrastructure     
  Hang Xu                : AUTO-CI-Response properties                   
                                                                         
[FACCTs GmbH]                                                            
  Markus Bursch, Nicolas Foglia, Miquel Garcia-Rates, Ingolf Harden, Hagen Neugebauer, Anastasios Papadopoulos, 
  Christoph Riplinger, Bernardo de Souza, Georgi L. Stoychev                                                    
                                                                 
  APM, various basis sets, CI-OPT, improved COSX, DLPNO-Multilevel,           
  DOCKER, DRACO, updates on ESD, Fragmentator, GOAT, IRC, LR-CPCM, L-BFGS, MBIS, meta-GGA TD-DFT gradient, ML-optimized integration grids, 
  MM, NACMEs, nearIR, NEB, NEB-TS, NL-DFT gradient (VV10), 2- and 3-layer-ONIOM, interface openCOSMO-RS, QMMM,   
  Crystal-QMMM, RESP, rigid body optimization, SF, symmetry and pop. for TD-DFT, various functionals, SOLVATOR                                   
                                                                         
[Other institutions]                                                     
  V. Asgeirsson          : NEB                                           
  Christoph Bannwarth    : sTDA-DFT, sTD-DFT, PBEh-3c, B97-3c, D3        
  Giovanni Bistoni       : ETS/NOCV, ADLD/ADEX, COVALED                  
  Martin Brehm           : Molecular dynamics                            
  Ronald Cardenas        : ETS/NOCV                                      
  Martina Colucci        : COVALED                                       
  Sebastian Ehlert       : rSCAN, r2SCAN, r2SCAN-3c, D4, dhf basis sets  
  Marvin Friede          : D4 for Fr, Ra, Ac-Lr                          
  Lars Goerigk           : TD-DFT with DH, B97 family of functionals     
  Stefan Grimme          : VdW corrections, initial TS optimization, DFT functionals, gCP, sTDA/sTD-DF 
  Waldemar Hujo          : DFT-NL                                        
  H. Jonsson             : NEB                                           
  Holger Kruse           : gCP                                           
  Marcel Mueller         : wB97X-3c, vDZP basis set                      
  Hagen Neugebauer       : wr2SCAN, Native XTB                           
  Gianluca Regni         : ADLD/ADEX                                     
  Tobias Risthaus        : pre 6.0 range-separated hybrid DFT and stability analysis
  Lukas Wittmann         : regularized MP2, r2SCAN double-hybrids, wr2SCAN        
                                                                         
We gratefully acknowledge several colleagues who have allowed us to      
interface, adapt or use parts of their codes:                            
  Ed Valeev, F. Pavosevic, A. Kumar             : LibInt (2-el integral package), F12 methods 
  Garnet Chan, S. Sharma, J. Yang, R. Olivares  : DMRG                   
  Ulf Ekstrom                                   : XCFun DFT Library      
  Mihaly Kallay                                 : mrcc  (arbitrary order and MRCC methods)
  Frank Weinhold                                : gennbo (NPA and NBO analysis)           
  Simon Mueller                                 : openCOSMO-RS                            
  Christopher J. Cramer and Donald G. Truhlar   : smd solvation model                     
  S Lehtola, MJT Oliveira, MAL Marques          : LibXC Library                           
  Liviu Ungur et al                             : ANISO software                          


 Your calculation uses the libint2 library for the computation of 2-el integrals
 For citations please refer to: http://libint.valeyev.net

 Your ORCA version has been built with support for libXC version: 7.0.0
 For citations please refer to: https://libxc.gitlab.io

 This ORCA versions uses:
   CBLAS   interface :  Fast vector & matrix operations
   LAPACKE interface :  Fast linear algebra routines
   SCALAPACK package :  Parallel linear algebra routines
   Shared memory     :  Shared parallel matrices
   BLAS/LAPACK       :  OpenBLAS 0.3.29  USE64BITINT DYNAMIC_ARCH NO_AFFINITY Haswell SINGLE_THREADED
        Core in use  :  Haswell
   Copyright (c) 2011-2014, The OpenBLAS Project


  ***********************************
  * Starting time: Thu Apr  9 15:47:05 2026
  * Host name:     analima-B660M-GAMING-X-DDR4
  * Process ID:    996778
  * Working dir.:  /home/analima/COSMO-RS/COSMO-RS.jl/his_cosmo/neutral_epsilon/01_cpcm_xtb2_alpb/conf_5
  ***********************************

NOTE: MaxCore=2000 MB was set to SCF,MP2,MDCI,CIPSI,MRCI,RASCI and CIS
      => If you want to overwrite this, your respective input block should be placed after the MaxCore statement


***************************************
The coordinates will be read from file: input.xyz
***************************************


Your calculation utilizes the semiempirical GFN2-xTB method
Please cite in your paper:
Bannwarth, C.; Ehlert S.; Grimme, S. J. Chem. Theory Comput. 2019, 15, 1652.
   

================================================================================

================================================================================
                                        WARNINGS
                       Please study these warnings very carefully!
================================================================================


WARNING: Geometry Optimization
  ===> : Switching off AutoStart
         For restart on a previous wavefunction, please use MOREAD

WARNING: Found dipole moment calculation with XTB calculation
  ===> : Switching off dipole moment calculation


================================================================================
                                       INPUT FILE
================================================================================
NAME = input.inp
|  1> %MaxCore 2000
|  2> 
|  3> ! XTB2 OPT ALPB(water)
|  4> 
|  5> %base "geo_opt"
|  6> 
|  7> * xyzfile 0 1 input.xyz
|  8> 
|  9> 
| 10>                          ****END OF INPUT****
================================================================================

                       *****************************
                       * Geometry Optimization Run *
                       *****************************

Geometry optimization settings:
Update method            Update   .... BFGS
Choice of coordinates    CoordSys .... (2022) Redundant Internals
Initial Hessian          InHess   .... Almloef's Model
Max. no of cycles        MaxIter  .... 60

Convergence Tolerances:
Energy Change            TolE     ....  5.0000e-06 Eh
Max. Gradient            TolMAXG  ....  3.0000e-04 Eh/bohr
RMS Gradient             TolRMSG  ....  1.0000e-04 Eh/bohr
Max. Displacement        TolMAXD  ....  4.0000e-03 bohr
RMS Displacement         TolRMSD  ....  2.0000e-03 bohr
Strict Convergence                .... False

------------------------------------------------------------------------------
                        ORCA OPTIMIZATION COORDINATE SETUP
------------------------------------------------------------------------------

The optimization will be done in redundant internal coordinates (2022)
Making redundant internal coordinates   ...  (2022 redundants) done
Evaluating the initial hessian          ...  (Almloef) done
Evaluating the coordinates              ...  done
Calculating the B-matrix                .... done
Calculating the G-matrix                .... done
The number of degrees of freedom        ....   92

    -----------------------------------------------------------------
                    Redundant Internal Coordinates


    -----------------------------------------------------------------
         Definition                    Initial Value    Approx d2E/dq
    -----------------------------------------------------------------
      1. B(C   1,N   0)                  1.4465         0.454790   
      2. B(C   2,C   1)                  1.4922         0.429273   
      3. B(C   3,C   2)                  1.4761         0.455317   
      4. B(C   4,C   3)                  1.4012         0.599684   
      5. B(N   5,C   4)                  1.3483         0.652135   
      6. B(C   6,N   5)                  1.3580         0.629477   
      7. B(N   7,C   3)                  1.3649         0.613606   
      8. B(N   7,C   6)                  1.3551         0.636103   
      9. B(C   8,C   1)                  1.4882         0.435579   
     10. B(O   9,C   8)                  1.2772         0.846946   
     11. B(O  10,C   8)                  1.3908         0.557971   
     12. B(H  11,N   0)                  1.0445         0.381152   
     13. B(H  12,N   0)                  1.0487         0.375329   
     14. B(H  12,O   9)                  2.1603         0.010000   
     15. B(H  13,C   1)                  1.1112         0.333094   
     16. B(H  14,C   2)                  1.1033         0.342869   
     17. B(H  15,C   2)                  1.1110         0.333372   
     18. B(H  16,C   4)                  1.1025         0.343959   
     19. B(H  17,N   5)                  1.0495         0.374305   
     20. B(H  18,C   6)                  1.0775         0.377084   
     21. B(H  19,O  10)                  1.0171         0.421542   
     22. A(C   1,N   0,H  12)          110.8672         0.332437   
     23. A(H  11,N   0,H  12)          111.6386         0.290596   
     24. A(C   1,N   0,H  11)          112.0068         0.333286   
     25. A(N   0,C   1,C   8)          105.3414         0.383544   
     26. A(C   8,C   1,H  13)          108.7268         0.328380   
     27. A(N   0,C   1,H  13)          109.3720         0.328741   
     28. A(C   2,C   1,H  13)          106.4899         0.327591   
     29. A(C   2,C   1,C   8)          113.4056         0.382132   
     30. A(N   0,C   1,C   2)          113.4256         0.382573   
     31. A(C   1,C   2,H  15)          106.3157         0.327636   
     32. A(C   3,C   2,H  14)          114.6411         0.332381   
     33. A(C   1,C   2,H  14)          107.9965         0.329158   
     34. A(H  14,C   2,H  15)          105.3983         0.285158   
     35. A(C   1,C   2,C   3)          114.3799         0.385087   
     36. A(C   3,C   2,H  15)          107.4084         0.330839   
     37. A(C   2,C   3,C   4)          125.8781         0.408360   
     38. A(C   2,C   3,N   7)          127.6340         0.407382   
     39. A(C   4,C   3,N   7)          106.4879         0.427860   
     40. A(N   5,C   4,H  16)          127.2279         0.351014   
     41. A(C   3,C   4,H  16)          124.7425         0.348222   
     42. A(C   3,C   4,N   5)          108.0296         0.432563   
     43. A(C   4,N   5,H  17)          123.7439         0.352964   
     44. A(C   4,N   5,C   6)          108.2190         0.433496   
     45. A(C   6,N   5,H  17)          128.0370         0.350860   
     46. A(N   5,C   6,H  18)          121.7935         0.354391   
     47. A(N   7,C   6,H  18)          129.4051         0.355021   
     48. A(N   5,C   6,N   7)          108.8014         0.431560   
     49. A(C   3,N   7,C   6)          108.4621         0.429586   
     50. A(O   9,C   8,O  10)          116.1146         0.444651   
     51. A(C   1,C   8,O  10)          122.8775         0.397496   
     52. A(C   1,C   8,O   9)          121.0079         0.428056   
     53. A(C   8,O  10,H  19)          122.9947         0.350757   
     54. D(C   8,C   1,N   0,H  11)   -163.6246         0.017649   
     55. D(C   2,C   1,N   0,H  11)    -39.0289         0.017649   
     56. D(H  13,C   1,N   0,H  11)     79.6728         0.017649   
     57. D(C   8,C   1,N   0,H  12)    -38.1938         0.017649   
     58. D(C   2,C   1,N   0,H  12)     86.4019         0.017649   
     59. D(C   3,C   2,C   1,N   0)    -59.9996         0.014568   
     60. D(H  14,C   2,C   1,H  13)     50.7107         0.014568   
     61. D(H  14,C   2,C   1,C   8)    -68.8261         0.014568   
     62. D(H  14,C   2,C   1,N   0)    171.0593         0.014568   
     63. D(C   3,C   2,C   1,C   8)     60.1149         0.014568   
     64. D(C   3,C   2,C   1,H  13)    179.6518         0.014568   
     65. D(C   4,C   3,C   2,H  15)    -27.7299         0.015286   
     66. D(C   4,C   3,C   2,H  14)   -144.4720         0.015286   
     67. D(N   7,C   3,C   2,C   1)    -89.9991         0.015286   
     68. D(C   4,C   3,C   2,C   1)     90.0020         0.015286   
     69. D(N   7,C   3,C   2,H  14)     35.5270         0.015286   
     70. D(H  16,C   4,C   3,N   7)   -179.9999         0.024790   
     71. D(H  16,C   4,C   3,C   2)     -0.0008         0.024790   
     72. D(N   5,C   4,C   3,N   7)     -0.0000         0.024790   
     73. D(N   5,C   4,C   3,C   2)    179.9991         0.024790   
     74. D(H  17,N   5,C   4,H  16)      0.0002         0.034727   
     75. D(H  17,N   5,C   4,C   3)   -179.9997         0.034727   
     76. D(C   6,N   5,C   4,H  16)    179.9999         0.034727   
     77. D(C   6,N   5,C   4,C   3)      0.0001         0.034727   
     78. D(H  18,C   6,N   5,H  17)     -0.0006         0.032163   
     79. D(H  18,C   6,N   5,C   4)    179.9997         0.032163   
     80. D(N   7,C   6,N   5,H  17)    179.9996         0.032163   
     81. D(N   7,C   6,N   5,C   4)     -0.0001         0.032163   
     82. D(C   3,N   7,C   6,N   5)      0.0001         0.029801   
     83. D(C   6,N   7,C   3,C   4)     -0.0000         0.027583   
     84. D(C   6,N   7,C   3,C   2)   -179.9991         0.027583   
     85. D(C   3,N   7,C   6,H  18)   -179.9997         0.029801   
     86. D(O  10,C   8,C   1,C   2)     55.3923         0.014005   
     87. D(O  10,C   8,C   1,N   0)   -179.9995         0.014005   
     88. D(O   9,C   8,C   1,H  13)    117.1418         0.014005   
     89. D(O   9,C   8,C   1,C   2)   -124.6078         0.014005   
     90. D(O   9,C   8,C   1,N   0)      0.0005         0.014005   
     91. D(H  19,O  10,C   8,O   9)    -34.0337         0.022548   
     92. D(H  19,O  10,C   8,C   1)    145.9663         0.022548   
    -----------------------------------------------------------------

Number of atoms                         .... 20
Number of degrees of freedom            .... 92


         *************************************************************
         *                GEOMETRY OPTIMIZATION CYCLE   1            *
         *************************************************************
---------------------------------
CARTESIAN COORDINATES (ANGSTROEM)
---------------------------------
  N    -1.232606   -0.309210    1.749213
  C    -1.546607   -0.582806    0.364016
  C    -0.419016   -1.207338   -0.387693
  C     0.808289   -0.388605   -0.436441
  C     1.856562   -0.424151    0.492607
  N     2.790614    0.466423    0.102157
  C     2.360720    1.058571   -1.041797
  N     1.153236    0.541122   -1.374324
  C    -1.986432    0.720175   -0.204784
  O    -2.023216    1.773893    0.516009
  O    -2.377797    0.871533   -1.530765
  H    -0.660376   -1.070315    2.178540
  H    -0.769433    0.626330    1.849515
  H    -2.394761   -1.298925    0.312831
  H    -0.800364   -1.523779   -1.373500
  H    -0.169888   -2.148166    0.148110
  H     1.887239   -1.076837    1.380599
  H     3.684279    0.640572    0.624095
  H     2.944319    1.811464   -1.545259
  H    -3.104762    1.520049   -1.823128

----------------------------
CARTESIAN COORDINATES (A.U.)
----------------------------
  NO LB    ZA    FRAG    MASS        X           Y           Z
   0 N   7.0000    0    14.007   -2.329288   -0.584322    3.305534
   1 C   6.0000    0    12.011   -2.922665   -1.101343    0.687891
   2 C   6.0000    0    12.011   -0.791826   -2.281537   -0.732634
   3 C   6.0000    0    12.011    1.527445   -0.734358   -0.824753
   4 C   6.0000    0    12.011    3.508394   -0.801530    0.930891
   5 N   7.0000    0    14.007    5.273496    0.881412    0.193048
   6 C   6.0000    0    12.011    4.461114    2.000410   -1.968711
   7 N   7.0000    0    14.007    2.179301    1.022572   -2.597096
   8 C   6.0000    0    12.011   -3.753813    1.360934   -0.386985
   9 O   8.0000    0    15.999   -3.823324    3.352172    0.975116
  10 O   8.0000    0    15.999   -4.493386    1.646959   -2.892727
  11 H   1.0000    0     1.008   -1.247929   -2.022603    4.116844
  12 H   1.0000    0     1.008   -1.454018    1.183591    3.495076
  13 H   1.0000    0     1.008   -4.525442   -2.454612    0.591165
  14 H   1.0000    0     1.008   -1.512468   -2.879525   -2.595539
  15 H   1.0000    0     1.008   -0.321041   -4.059445    0.279887
  16 H   1.0000    0     1.008    3.566365   -2.034928    2.608953
  17 H   1.0000    0     1.008    6.962278    1.210505    1.179369
  18 H   1.0000    0     1.008    5.563957    3.423171   -2.920116
  19 H   1.0000    0     1.008   -5.867150    2.872476   -3.445213

      -----------------------------------------------------------      
     |                   =====================                   |     
     |                           x T B                           |     
     |                   =====================                   |     
     |                         S. Grimme                         |     
     |          Mulliken Center for Theoretical Chemistry        |     
     |                    University of Bonn                     |     
      -----------------------------------------------------------      

   * xtb version 6.7.1 (edcfbbe) compiled by 'albert@albert-system' on 2024-07-22

   xtb is free software: you can redistribute it and/or modify it under
   the terms of the GNU Lesser General Public License as published by
   the Free Software Foundation, either version 3 of the License, or
   (at your option) any later version.
   
   xtb is distributed in the hope that it will be useful,
   but WITHOUT ANY WARRANTY; without even the implied warranty of
   MERCHANTABILITY or FITNESS FOR A PARTICULAR PURPOSE.  See the
   GNU Lesser General Public License for more details.
   
   Cite this work as:
   * C. Bannwarth, E. Caldeweyher, S. Ehlert, A. Hansen, P. Pracht,
     J. Seibert, S. Spicher, S. Grimme, WIREs Comput. Mol. Sci., 2020, 11,
     e01493. DOI: 10.1002/wcms.1493
   
   for GFN2-xTB:
   * C. Bannwarth, S. Ehlert and S. Grimme., J. Chem. Theory Comput., 2019,
     15, 1652-1671. DOI: 10.1021/acs.jctc.8b01176
   for GFN1-xTB:
   * S. Grimme, C. Bannwarth, P. Shushkov, J. Chem. Theory Comput., 2017,
     13, 1989-2009. DOI: 10.1021/acs.jctc.7b00118
   for GFN0-xTB:
   * P. Pracht, E. Caldeweyher, S. Ehlert, S. Grimme, ChemRxiv, 2019, preprint.
     DOI: 10.26434/chemrxiv.8326202.v1
   for GFN-FF:
   * S. Spicher and S. Grimme, Angew. Chem. Int. Ed., 2020, 59, 15665-15673.
     DOI: 10.1002/anie.202004239
   
   for ALPB and GBSA implicit solvation:
   * S. Ehlert, M. Stahn, S. Spicher, S. Grimme, J. Chem. Theory Comput.,
     2021, 17, 4250-4261. DOI: 10.1021/acs.jctc.1c00471
   
   for ddCOSMO and CPCM-X implicit solvation:
   * M. Stahn, S. Ehlert, S. Grimme, J. Phys. Chem. A,
     2023, XX, XXXX-XXXX. DOI: 10.1021/acs.jpca.3c04382
   
   for DFT-D4:
   * E. Caldeweyher, C. Bannwarth and S. Grimme, J. Chem. Phys., 2017,
     147, 034112. DOI: 10.1063/1.4993215
   * E. Caldeweyher, S. Ehlert, A. Hansen, H. Neugebauer, S. Spicher,
     C. Bannwarth and S. Grimme, J. Chem. Phys., 2019, 150, 154122.
     DOI: 10.1063/1.5090222
   * E. Caldeweyher, J.-M. Mewes, S. Ehlert and S. Grimme, Phys. Chem. Chem. Phys.
     2020, 22, 8499-8512. DOI: 10.1039/D0CP00502A
   
   for sTDA-xTB:
   * S. Grimme and C. Bannwarth, J. Chem. Phys., 2016, 145, 054103.
     DOI: 10.1063/1.4959605
   
   in the mass-spec context:
   * V. Asgeirsson, C. Bauer and S. Grimme, Chem. Sci., 2017, 8, 4879.
     DOI: 10.1039/c7sc00601b
   * J. Koopman and S. Grimme, ACS Omega 2019, 4, 12, 15120-15133.
     DOI: 10.1021/acsomega.9b02011
   
   for metadynamics refer to:
   * S. Grimme, J. Chem. Theory Comput., 2019, 155, 2847-2862
     DOI: 10.1021/acs.jctc.9b00143
   
   for SPH calculations refer to:
   * S. Spicher and S. Grimme, J. Chem. Theory Comput., 2021, 17, 1701-1714
     DOI: 10.1021/acs.jctc.0c01306
   
   for ONIOM refer to:
   * C. Plett, A. Katbashev, S. Ehlert, S. Grimme, M. Bursch,
     Phys. Chem. Chem. Phys., 2023, 25, 17860-17868. DOI: 10.1039/D3CP02178E
   
   for DIPRO refer to:
   * J. Kohn, N. Gildemeister, S. Grimme, D. Fazzi, A. Hansen,
     J. Chem. Phys., 2023, just accepted.
   
   for PTB refer to:
   * S. Grimme, M. Mueller, A. Hansen, J. Chem. Phys., 2023, 158, 124111.
     DOI: 10.1063/5.0137838
   
   with help from (in alphabetical order)
   P. Atkinson, C. Bannwarth, F. Bohle, G. Brandenburg, E. Caldeweyher
   M. Checinski, S. Dohm, S. Ehlert, S. Ehrlich, I. Gerasimov, C. Hölzer
   A. Katbashev, J. Kohn, J. Koopman, C. Lavigne, S. Lehtola, F. März, M. Müller,
   F. Musil, H. Neugebauer, J. Pisarek, C. Plett, P. Pracht, F. Pultar,
   J. Seibert, P. Shushkov, S. Spicher, M. Stahn, M. Steiner, T. Strunk,
   J. Stückrath, T. Rose, and J. Unsleber
   
 * started run on 2026/04/09 at 15:47:05.867     
   ID    Z sym.   atoms
    1    7 N      1, 6, 8
    2    6 C      2-5, 7, 9
    3    8 O      10, 11
    4    1 H      12-20

           -------------------------------------------------
          |                Calculation Setup                |
           -------------------------------------------------

          program call               : /home/analima/Programs/orca-6.1.0-f.0_linux_x86-64/bin/otool_xtb geo_opt_XTB.xyz --grad -c 0 -u 0 -P 1 --namespace geo_opt --input geo_opt_XTB.input.tmp --alpb WATER --acc 0.200000
          calculation namespace      : geo_opt
          coordinate file            : geo_opt_XTB.xyz
          omp threads                :                     1


           -------------------------------------------------
          |                 G F N 2 - x T B                 |
           -------------------------------------------------

        Reference                      10.1021/acs.jctc.8b01176
      * Hamiltonian:
        H0-scaling (s, p, d)           1.850000    2.230000    2.230000
        zeta-weighting                 0.500000
      * Dispersion:
        s8                             2.700000
        a1                             0.520000
        a2                             5.000000
        s9                             5.000000
      * Repulsion:
        kExp                           1.500000    1.000000
        rExp                           1.000000
      * Coulomb:
        alpha                          2.000000
        third order                    shell-resolved
        anisotropic                    true
        a3                             3.000000
        a5                             4.000000
        cn-shift                       1.200000
        cn-exp                         4.000000
        max-rad                        5.000000

      * Solvation model:               ALPB
        Solvent                        WATER
        Parameter file                 internal GFN2-xTB/ALPB
        Dielectric constant                8.0200E+01
        Reference state                gsolv [1 M gas/solution]
        Free energy shift                  1.0808E-03 Eh       6.7819E-01 kcal/mol
        Temperature                        2.9815E+02 K
        Density                            1.0000E+00 kg/L
        Solvent mass                       1.8000E+01 g/mol
        Interaction kernel             P16
        Born radius scaling (c1)           1.4744E+00
        Born radii integrator          GBOBC
        Born offset                        0.0000E+00 a0       0.0000E+00 AA
        H-bond correction              true
        Ion screening                  false
        Surface tension                    1.0000E-05 Eh       1.5569E+01 dyn/cm
        Grid points                               230 per atom

          ...................................................
          :                      SETUP                      :
          :.................................................:
          :  # basis functions                  53          :
          :  # atomic orbitals                  53          :
          :  # shells                           31          :
          :  # electrons                        60          :
          :  max. iterations                   250          :
          :  Hamiltonian                  GFN2-xTB          :
          :  restarted?                      false          :
          :  GBSA solvation                   true          :
          :  PC potential                    false          :
          :  electronic temp.          300.0000000     K    :
          :  accuracy                    0.2000000          :
          :  -> integral cutoff          0.3198970E+02      :
          :  -> integral neglect         0.2000000E-08      :
          :  -> SCF convergence          0.2000000E-06 Eh   :
          :  -> wf. convergence          0.2000000E-04 e    :
          :  Broyden damping             0.4000000          :
          :  net charge                          0          :
          :  unpaired electrons                  0          :
          ...................................................

 iter      E             dE          RMSdq      gap      omega  full diag
   1    -34.5700562 -0.345701E+02  0.441E+00    2.68       0.0  T
   2    -34.6604739 -0.904176E-01  0.238E+00    2.19       1.0  T
   3    -34.6665187 -0.604486E-02  0.135E+00    2.77       1.0  T
   4    -34.6681265 -0.160779E-02  0.398E-01    2.65       1.0  T
   5    -34.6702115 -0.208495E-02  0.116E-01    2.67       1.0  T
   6    -34.6702301 -0.186007E-04  0.679E-02    2.66       1.0  T
   7    -34.6702613 -0.311813E-04  0.242E-02    2.63       1.0  T
   8    -34.6702624 -0.116148E-05  0.910E-03    2.64       2.5  T
   9    -34.6702627 -0.252196E-06  0.427E-03    2.64       5.2  T
  10    -34.6702627 -0.399348E-07  0.160E-03    2.64      14.0  T
  11    -34.6702627 -0.207211E-07  0.702E-04    2.64      31.8  T
  12    -34.6702627 -0.155942E-08  0.290E-04    2.64      77.1  T
  13    -34.6702627 -0.611031E-09  0.799E-05    2.64     279.7  T
  14    -34.6702627 -0.167262E-10  0.249E-05    2.64     898.7  T

   *** convergence criteria satisfied after 14 iterations ***

         #    Occupation            Energy/Eh            Energy/eV
      -------------------------------------------------------------
         1        2.0000           -0.7229614             -19.6728
       ...           ...                  ...                  ...
        24        2.0000           -0.4550245             -12.3818
        25        2.0000           -0.4505977             -12.2614
        26        2.0000           -0.4276977             -11.6382
        27        2.0000           -0.4238266             -11.5329
        28        2.0000           -0.3810988             -10.3702
        29        2.0000           -0.3731488             -10.1539
        30        2.0000           -0.3661781              -9.9642 (HOMO)
        31                         -0.2691488              -7.3239 (LUMO)
        32                         -0.2069555              -5.6315
        33                         -0.1754197              -4.7734
        34                         -0.0337111              -0.9173
        35                         -0.0012832              -0.0349
       ...                                ...                  ...
        53                          0.5619488              15.2914
      -------------------------------------------------------------
                  HL-Gap            0.0970292 Eh            2.6403 eV
             Fermi-level           -0.3176634 Eh           -8.6441 eV

 SCC (total)                   0 d,  0 h,  0 min,  0.009 sec
 SCC setup                      ...        0 min,  0.000 sec (  2.694%)
 Dispersion                     ...        0 min,  0.000 sec (  0.604%)
 classical contributions        ...        0 min,  0.000 sec (  0.141%)
 integral evaluation            ...        0 min,  0.001 sec (  9.949%)
 iterations                     ...        0 min,  0.005 sec ( 58.830%)
 molecular gradient             ...        0 min,  0.003 sec ( 27.252%)
 printout                       ...        0 min,  0.000 sec (  0.442%)

         :::::::::::::::::::::::::::::::::::::::::::::::::::::
         ::                     SUMMARY                     ::
         :::::::::::::::::::::::::::::::::::::::::::::::::::::
         :: total energy             -34.324499308683 Eh    ::
         :: total w/o Gsasa/hb       -34.309149753720 Eh    ::
         :: gradient norm              0.176292527112 Eh/a0 ::
         :: HOMO-LUMO gap              2.640300179830 eV    ::
         ::.................................................::
         :: SCC energy               -34.670137122117 Eh    ::
         :: -> isotropic ES            0.106852219320 Eh    ::
         :: -> anisotropic ES          0.005779593591 Eh    ::
         :: -> anisotropic XC          0.018106959076 Eh    ::
         :: -> dispersion             -0.016678041534 Eh    ::
         :: -> Gsolv                  -0.035202228235 Eh    ::
         ::    -> Gelec               -0.019852673272 Eh    ::
         ::    -> Gsasa               -0.001501391567 Eh    ::
         ::    -> Ghb                 -0.014928923094 Eh    ::
         ::    -> Gshift               0.001080759698 Eh    ::
         :: repulsion energy           0.345637813434 Eh    ::
         :: add. restraining           0.000000000000 Eh    ::
         :: total charge              -0.000000000000 e     ::
         :::::::::::::::::::::::::::::::::::::::::::::::::::::


Property printout bound to 'properties.out'

           -------------------------------------------------
          | TOTAL ENERGY              -34.324499308683 Eh   |
          | GRADIENT NORM               0.176292527112 Eh/α |
          | HOMO-LUMO GAP               2.640300179830 eV   |
           -------------------------------------------------

------------------------------------------------------------------------
 * finished run on 2026/04/09 at 15:47:05.881     
------------------------------------------------------------------------
 total:
 * wall-time:     0 d,  0 h,  0 min,  0.014 sec
 *  cpu-time:     0 d,  0 h,  0 min,  0.013 sec
 * ratio c/w:     0.904 speedup
 SCF:
 * wall-time:     0 d,  0 h,  0 min,  0.009 sec
 *  cpu-time:     0 d,  0 h,  0 min,  0.008 sec
 * ratio c/w:     0.862 speedup


-------------------------   --------------------
FINAL SINGLE POINT ENERGY       -34.324499308680
-------------------------   --------------------


-------------
DIPOLE MOMENT
-------------
                                X             Y             Z
Total Dipole Moment    :      1.41600      -1.06500       0.23700
                        -----------------------------------------
Magnitude (a.u.)       :      1.78758
Magnitude (Debye)      :      4.54367


------------------
CARTESIAN GRADIENT
------------------

   1   N   :   -0.013037078   -0.001056789   -0.021763533
   2   C   :    0.014634892   -0.008007865   -0.010519502
   3   C   :   -0.011914559    0.031904036    0.019347692
   4   C   :   -0.041516411   -0.017816206   -0.007545486
   5   C   :    0.026354374    0.021706424   -0.007318241
   6   N   :   -0.025059591   -0.008089118   -0.011393844
   7   C   :    0.033204462    0.027267985   -0.008667589
   8   N   :   -0.022612493   -0.018290444    0.005103840
   9   C   :    0.028287531   -0.099355319    0.005061712
  10   O   :   -0.001395751    0.061304177    0.040249454
  11   O   :    0.005442451    0.021465822   -0.028126689
  12   H   :    0.009998793   -0.019337527    0.012276530
  13   H   :    0.008716260    0.026087736    0.002146223
  14   H   :   -0.001285437   -0.007622426   -0.002012019
  15   H   :   -0.008050790   -0.007989722   -0.001028182
  16   H   :    0.000041728   -0.006722130    0.003959803
  17   H   :   -0.006860991   -0.014189531    0.013544236
  18   H   :    0.023242418    0.003116736    0.015406379
  19   H   :    0.009102431    0.005052611    0.001106012
  20   H   :   -0.027292239    0.010571551   -0.019826798

Difference to translation invariance:
           :    0.0000000000    0.0000000000   -0.0000000000

Difference to rotation invariance:
           :    0.0000345282   -0.0001033974   -0.0002494909

Norm of the Cartesian gradient     ...    0.1762925271
RMS gradient                       ...    0.0227592674
MAX gradient                       ...    0.0993553194
------------------------------------------------------------------------------
                         ORCA GEOMETRY RELAXATION STEP
------------------------------------------------------------------------------

Reading the OPT-File                    .... done
Getting information on internals        .... done
Copying old internal coords+grads       .... done
Making the new internal coordinates     .... (2022 redundants) done
Validating the new internal coordinates .... (2022 redundants) done
Calculating the B-matrix                .... done
Calculating the G,G- and P matrices     .... done
Transforming gradient to internals      .... done
Projecting the internal gradient        .... done
Number of atoms                         ....  20
Number of internal coordinates          ....  92
Current Energy                          ....   -34.324499309 Eh
Current gradient norm                   ....     0.176292527 Eh/bohr
Maximum allowed component of the step   ....  0.300
Current trust radius                    ....  0.300
Evaluating the initial hessian          ....  (Almloef) done
Projecting the Hessian                  .... done
Forming the augmented Hessian           .... done
Diagonalizing the augmented Hessian     .... done
Last element of RFO vector              ....  0.946402993
Lowest eigenvalues of augmented Hessian:
 -0.037922777  0.013607602  0.014578865  0.015285893  0.015512257
Length of the computed step             ....  0.341279769
Warning: the length of the step is outside the trust region - taking restricted step instead
The input lambda is                     ....     0.012548
   iter:   5  x=   -0.007740  g=   36.323595 f(x)=     0.356428
   iter:  10  x=   -0.059480  g=    0.878505 f(x)=     0.000305
The output lambda is                    ....    -0.059481 (13 iterations)
The final length of the internal step   ....  0.300000000
Converting the step to Cartesian space:
 Initial RMS(Int)=    0.0312771621
Transforming coordinates:
 Iter   0:  RMS(Cart)=    0.0691422626 RMS(Int)=    1.4643344409
 Iter   5:  RMS(Cart)=    0.0000004111 RMS(Int)=    0.0000003093
done
Storing new coordinates                 .... done

                                .--------------------.
          ----------------------|Geometry convergence|-------------------------
          Item                value                   Tolerance       Converged
          ---------------------------------------------------------------------
          RMS gradient        0.0145558518            0.0001000000      NO
          MAX gradient        0.0739358315            0.0003000000      NO
          RMS step            0.0312771621            0.0020000000      NO
          MAX step            0.0930905532            0.0040000000      NO
          -------------------------------------------------------------------------
          ........................................................
          Max(Bonds)      0.0474      Max(Angles)    3.31
          Max(Dihed)        5.33      Max(Improp)    0.00
          ---------------------------------------------------------------------

The optimization has not yet converged - more geometry cycles are needed


    ---------------------------------------------------------------------------
                         Redundant Internal Coordinates
                            (Angstroem and degrees)

        Definition                    Value    dE/dq     Step     New-Value
    ----------------------------------------------------------------------------
     1. B(C   1,N   0)                1.4465 -0.001222  0.0022    1.4487   
     2. B(C   2,C   1)                1.4922 -0.036211  0.0392    1.5314   
     3. B(C   3,C   2)                1.4761 -0.004135  0.0043    1.4804   
     4. B(C   4,C   3)                1.4012  0.019673 -0.0152    1.3860   
     5. B(N   5,C   4)                1.3483  0.003844 -0.0022    1.3462   
     6. B(C   6,N   5)                1.3580  0.006207 -0.0049    1.3531   
     7. B(N   7,C   3)                1.3649  0.006442 -0.0054    1.3595   
     8. B(N   7,C   6)                1.3551  0.042605 -0.0332    1.3219   
     9. B(C   8,C   1)                1.4882 -0.000807  0.0023    1.4905   
    10. B(O   9,C   8)                1.2772  0.073936 -0.0431    1.2341   
    11. B(O  10,C   8)                1.3908  0.055353 -0.0474    1.3434   
    12. B(H  11,N   0)                1.0445  0.024616 -0.0296    1.0150   
    13. B(H  12,N   0)                1.0487  0.026428 -0.0325    1.0163   
    14. B(H  12,O   9)                2.1603 -0.005671  0.0313    2.1916   
    15. B(H  13,C   1)                1.1112  0.005986 -0.0081    1.1032   
    16. B(H  14,C   2)                1.1033  0.005992 -0.0079    1.0955   
    17. B(H  15,C   2)                1.1110  0.007613 -0.0103    1.1007   
    18. B(H  16,C   4)                1.1025  0.019117 -0.0251    1.0774   
    19. B(H  17,N   5)                1.0495  0.027971 -0.0341    1.0153   
    20. B(H  18,C   6)                1.0775  0.007946 -0.0096    1.0678   
    21. B(H  19,O  10)                1.0171  0.031945 -0.0351    0.9820   
    22. A(C   1,N   0,H  12)          110.87  0.005178   -0.75    110.11   
    23. A(H  11,N   0,H  12)          111.64 -0.001908   -0.31    111.33   
    24. A(C   1,N   0,H  11)          112.01  0.001134   -0.48    111.53   
    25. A(N   0,C   1,C   8)          105.34 -0.002496    0.93    106.27   
    26. A(C   8,C   1,H  13)          108.73  0.000927   -0.76    107.97   
    27. A(N   0,C   1,H  13)          109.37  0.004857   -0.88    108.49   
    28. A(C   2,C   1,H  13)          106.49 -0.003582    0.59    107.08   
    29. A(C   2,C   1,C   8)          113.41  0.007850   -1.30    112.11   
    30. A(N   0,C   1,C   2)          113.43 -0.007100    1.31    114.73   
    31. A(C   1,C   2,H  15)          106.32 -0.002961    0.77    107.08   
    32. A(C   3,C   2,H  14)          114.64  0.006054   -1.53    113.11   
    33. A(C   1,C   2,H  14)          108.00 -0.006208    0.74    108.73   
    34. A(H  14,C   2,H  15)          105.40 -0.002605    0.74    106.14   
    35. A(C   1,C   2,C   3)          114.38  0.004257   -0.69    113.69   
    36. A(C   3,C   2,H  15)          107.41  0.000387    0.26    107.67   
    37. A(C   2,C   3,C   4)          125.88 -0.000915    0.12    125.99   
    38. A(C   2,C   3,N   7)          127.63  0.014989   -1.84    125.80   
    39. A(C   4,C   3,N   7)          106.49 -0.014074    1.72    108.21   
    40. A(N   5,C   4,H  16)          127.23  0.002298   -0.53    126.70   
    41. A(C   3,C   4,H  16)          124.74 -0.014654    1.85    126.60   
    42. A(C   3,C   4,N   5)          108.03  0.012356   -1.33    106.70   
    43. A(C   4,N   5,H  17)          123.74 -0.004847    0.58    124.33   
    44. A(C   4,N   5,C   6)          108.22  0.005315   -0.56    107.66   
    45. A(C   6,N   5,H  17)          128.04 -0.000468   -0.02    128.01   
    46. A(N   5,C   6,H  18)          121.79  0.000293    0.13    121.92   
    47. A(N   7,C   6,H  18)          129.41  0.014169   -1.79    127.62   
    48. A(N   5,C   6,N   7)          108.80 -0.014463    1.66    110.46   
    49. A(C   3,N   7,C   6)          108.46  0.010865   -1.49    106.97   
    50. A(O   9,C   8,O  10)          116.11 -0.020724    2.31    118.43   
    51. A(C   1,C   8,O  10)          122.88  0.025787   -3.28    119.60   
    52. A(C   1,C   8,O   9)          121.01 -0.005063    0.97    121.98   
    53. A(C   8,O  10,H  19)          122.99  0.023689   -3.31    119.69   
    54. D(C   8,C   1,N   0,H  11)   -163.62 -0.003538    1.32   -162.31   
    55. D(C   2,C   1,N   0,H  11)    -39.03  0.000077    1.17    -37.86   
    56. D(H  13,C   1,N   0,H  11)     79.67 -0.005642    2.14     81.81   
    57. D(C   8,C   1,N   0,H  12)    -38.19 -0.001221   -0.02    -38.22   
    58. D(C   2,C   1,N   0,H  12)     86.40  0.002395   -0.17     86.23   
    59. D(C   3,C   2,C   1,N   0)    -60.00  0.003486   -1.11    -61.11   
    60. D(H  14,C   2,C   1,H  13)     50.71 -0.002151    0.80     51.51   
    61. D(H  14,C   2,C   1,C   8)    -68.83 -0.005510    2.11    -66.72   
    62. D(H  14,C   2,C   1,N   0)    171.06 -0.002772    0.88    171.94   
    63. D(C   3,C   2,C   1,C   8)     60.11  0.000747    0.12     60.24   
    64. D(C   3,C   2,C   1,H  13)    179.65  0.004107   -1.18    178.47   
    65. D(C   4,C   3,C   2,H  15)    -27.73  0.000822   -0.40    -28.13   
    66. D(C   4,C   3,C   2,H  14)   -144.47  0.000280   -0.60   -145.08   
    67. D(N   7,C   3,C   2,C   1)    -90.00 -0.000598    0.73    -89.27   
    68. D(C   4,C   3,C   2,C   1)     90.00 -0.000088    0.32     90.32   
    69. D(N   7,C   3,C   2,H  14)     35.53 -0.000230   -0.19     35.33   
    70. D(H  16,C   4,C   3,N   7)   -180.00 -0.000070    0.03   -179.97   
    71. D(H  16,C   4,C   3,C   2)     -0.00 -0.000491    0.37      0.37   
    72. D(N   5,C   4,C   3,N   7)     -0.00 -0.000212    0.12      0.12   
    73. D(N   5,C   4,C   3,C   2)    180.00 -0.000633    0.46    180.45   
    74. D(H  17,N   5,C   4,H  16)      0.00 -0.000060    0.04      0.04   
    75. D(H  17,N   5,C   4,C   3)   -180.00  0.000087   -0.05   -180.05   
    76. D(C   6,N   5,C   4,H  16)    180.00  0.000030   -0.01    179.99   
    77. D(C   6,N   5,C   4,C   3)      0.00  0.000177   -0.10     -0.10   
    78. D(H  18,C   6,N   5,H  17)     -0.00 -0.000020    0.01      0.01   
    79. D(H  18,C   6,N   5,C   4)    180.00 -0.000115    0.07    180.07   
    80. D(N   7,C   6,N   5,H  17)    180.00  0.000021   -0.01    179.99   
    81. D(N   7,C   6,N   5,C   4)     -0.00 -0.000074    0.05      0.05   
    82. D(C   3,N   7,C   6,N   5)      0.00 -0.000061    0.03      0.03   
    83. D(C   6,N   7,C   3,C   4)     -0.00  0.000166   -0.09     -0.09   
    84. D(C   6,N   7,C   3,C   2)   -180.00  0.000597   -0.43   -180.43   
    85. D(C   3,N   7,C   6,H  18)   -180.00 -0.000016    0.01   -179.99   
    86. D(O  10,C   8,C   1,C   2)     55.39  0.001618    0.15     55.54   
    87. D(O  10,C   8,C   1,N   0)   -180.00 -0.004149    1.63   -178.36   
    88. D(O   9,C   8,C   1,H  13)    117.14 -0.001051    1.52    118.67   
    89. D(O   9,C   8,C   1,C   2)   -124.61 -0.000067    0.95   -123.66   
    90. D(O   9,C   8,C   1,N   0)      0.00 -0.005834    2.43      2.43   
    91. D(H  19,O  10,C   8,O   9)    -34.03 -0.006286    4.57    -29.46   
    92. D(H  19,O  10,C   8,C   1)    145.97 -0.007894    5.33    151.30   
    ----------------------------------------------------------------------------

Geometry step timings:
Preparation and reading OPT file:      0.000 s ( 0.602 %)
Internal coordinates            :      0.000 s ( 0.723 %)
B/P matrices and projection     :      0.001 s (34.277 %)
Hessian update/contruction      :      0.000 s ( 9.096 %)
Making the step                 :      0.001 s (41.687 %)
Converting the step to Cartesian:      0.000 s ( 2.892 %)
Storing new data                :      0.000 s ( 0.783 %)
Checking convergence            :      0.000 s ( 0.602 %)
Final printing                  :      0.000 s ( 9.157 %)
Total time                      :      0.002 s

Time for energy+gradient        :      0.016 s
Time for complete geometry iter :      0.018 s

         *************************************************************
         *                GEOMETRY OPTIMIZATION CYCLE   2            *
         *************************************************************
---------------------------------
CARTESIAN COORDINATES (ANGSTROEM)
---------------------------------
  N    -1.274315   -0.312759    1.782808
  C    -1.554664   -0.564927    0.384104
  C    -0.405541   -1.213321   -0.393206
  C     0.825669   -0.392133   -0.429477
  C     1.863393   -0.439067    0.488025
  N     2.772436    0.470829    0.090706
  C     2.303975    1.053744   -1.036928
  N     1.129245    0.544900   -1.366494
  C    -1.960485    0.743681   -0.202619
  O    -1.968070    1.783428    0.462141
  O    -2.315597    0.809197   -1.496528
  H    -0.724130   -1.060559    2.193005
  H    -0.813549    0.586702    1.889956
  H    -2.417098   -1.249615    0.318143
  H    -0.767195   -1.490117   -1.389518
  H    -0.162333   -2.157763    0.117193
  H     1.928173   -1.079074    1.352320
  H     3.644369    0.658670    0.575863
  H     2.851179    1.814864   -1.548310
  H    -2.955462    1.493319   -1.791183

----------------------------
CARTESIAN COORDINATES (A.U.)
----------------------------
  NO LB    ZA    FRAG    MASS        X           Y           Z
   0 N   7.0000    0    14.007   -2.408106   -0.591030    3.369019
   1 C   6.0000    0    12.011   -2.937888   -1.067558    0.725852
   2 C   6.0000    0    12.011   -0.766361   -2.292845   -0.743051
   3 C   6.0000    0    12.011    1.560288   -0.741023   -0.811593
   4 C   6.0000    0    12.011    3.521302   -0.829716    0.922234
   5 N   7.0000    0    14.007    5.239145    0.889738    0.171409
   6 C   6.0000    0    12.011    4.353882    1.991288   -1.959510
   7 N   7.0000    0    14.007    2.133964    1.029712   -2.582299
   8 C   6.0000    0    12.011   -3.704779    1.405354   -0.382895
   9 O   8.0000    0    15.999   -3.719112    3.370190    0.873320
  10 O   8.0000    0    15.999   -4.375844    1.529162   -2.828028
  11 H   1.0000    0     1.008   -1.368408   -2.004165    4.144178
  12 H   1.0000    0     1.008   -1.537386    1.108706    3.571499
  13 H   1.0000    0     1.008   -4.567653   -2.361431    0.601202
  14 H   1.0000    0     1.008   -1.449789   -2.815912   -2.625808
  15 H   1.0000    0     1.008   -0.306765   -4.077582    0.221463
  16 H   1.0000    0     1.008    3.643718   -2.039154    2.555514
  17 H   1.0000    0     1.008    6.886860    1.244706    1.088224
  18 H   1.0000    0     1.008    5.387947    3.429596   -2.925883
  19 H   1.0000    0     1.008   -5.585014    2.821965   -3.384846

      -----------------------------------------------------------      
     |                   =====================                   |     
     |                           x T B                           |     
     |                   =====================                   |     
     |                         S. Grimme                         |     
     |          Mulliken Center for Theoretical Chemistry        |     
     |                    University of Bonn                     |     
      -----------------------------------------------------------      

   * xtb version 6.7.1 (edcfbbe) compiled by 'albert@albert-system' on 2024-07-22

   xtb is free software: you can redistribute it and/or modify it under
   the terms of the GNU Lesser General Public License as published by
   the Free Software Foundation, either version 3 of the License, or
   (at your option) any later version.
   
   xtb is distributed in the hope that it will be useful,
   but WITHOUT ANY WARRANTY; without even the implied warranty of
   MERCHANTABILITY or FITNESS FOR A PARTICULAR PURPOSE.  See the
   GNU Lesser General Public License for more details.
   
   Cite this work as:
   * C. Bannwarth, E. Caldeweyher, S. Ehlert, A. Hansen, P. Pracht,
     J. Seibert, S. Spicher, S. Grimme, WIREs Comput. Mol. Sci., 2020, 11,
     e01493. DOI: 10.1002/wcms.1493
   
   for GFN2-xTB:
   * C. Bannwarth, S. Ehlert and S. Grimme., J. Chem. Theory Comput., 2019,
     15, 1652-1671. DOI: 10.1021/acs.jctc.8b01176
   for GFN1-xTB:
   * S. Grimme, C. Bannwarth, P. Shushkov, J. Chem. Theory Comput., 2017,
     13, 1989-2009. DOI: 10.1021/acs.jctc.7b00118
   for GFN0-xTB:
   * P. Pracht, E. Caldeweyher, S. Ehlert, S. Grimme, ChemRxiv, 2019, preprint.
     DOI: 10.26434/chemrxiv.8326202.v1
   for GFN-FF:
   * S. Spicher and S. Grimme, Angew. Chem. Int. Ed., 2020, 59, 15665-15673.
     DOI: 10.1002/anie.202004239
   
   for ALPB and GBSA implicit solvation:
   * S. Ehlert, M. Stahn, S. Spicher, S. Grimme, J. Chem. Theory Comput.,
     2021, 17, 4250-4261. DOI: 10.1021/acs.jctc.1c00471
   
   for ddCOSMO and CPCM-X implicit solvation:
   * M. Stahn, S. Ehlert, S. Grimme, J. Phys. Chem. A,
     2023, XX, XXXX-XXXX. DOI: 10.1021/acs.jpca.3c04382
   
   for DFT-D4:
   * E. Caldeweyher, C. Bannwarth and S. Grimme, J. Chem. Phys., 2017,
     147, 034112. DOI: 10.1063/1.4993215
   * E. Caldeweyher, S. Ehlert, A. Hansen, H. Neugebauer, S. Spicher,
     C. Bannwarth and S. Grimme, J. Chem. Phys., 2019, 150, 154122.
     DOI: 10.1063/1.5090222
   * E. Caldeweyher, J.-M. Mewes, S. Ehlert and S. Grimme, Phys. Chem. Chem. Phys.
     2020, 22, 8499-8512. DOI: 10.1039/D0CP00502A
   
   for sTDA-xTB:
   * S. Grimme and C. Bannwarth, J. Chem. Phys., 2016, 145, 054103.
     DOI: 10.1063/1.4959605
   
   in the mass-spec context:
   * V. Asgeirsson, C. Bauer and S. Grimme, Chem. Sci., 2017, 8, 4879.
     DOI: 10.1039/c7sc00601b
   * J. Koopman and S. Grimme, ACS Omega 2019, 4, 12, 15120-15133.
     DOI: 10.1021/acsomega.9b02011
   
   for metadynamics refer to:
   * S. Grimme, J. Chem. Theory Comput., 2019, 155, 2847-2862
     DOI: 10.1021/acs.jctc.9b00143
   
   for SPH calculations refer to:
   * S. Spicher and S. Grimme, J. Chem. Theory Comput., 2021, 17, 1701-1714
     DOI: 10.1021/acs.jctc.0c01306
   
   for ONIOM refer to:
   * C. Plett, A. Katbashev, S. Ehlert, S. Grimme, M. Bursch,
     Phys. Chem. Chem. Phys., 2023, 25, 17860-17868. DOI: 10.1039/D3CP02178E
   
   for DIPRO refer to:
   * J. Kohn, N. Gildemeister, S. Grimme, D. Fazzi, A. Hansen,
     J. Chem. Phys., 2023, just accepted.
   
   for PTB refer to:
   * S. Grimme, M. Mueller, A. Hansen, J. Chem. Phys., 2023, 158, 124111.
     DOI: 10.1063/5.0137838
   
   with help from (in alphabetical order)
   P. Atkinson, C. Bannwarth, F. Bohle, G. Brandenburg, E. Caldeweyher
   M. Checinski, S. Dohm, S. Ehlert, S. Ehrlich, I. Gerasimov, C. Hölzer
   A. Katbashev, J. Kohn, J. Koopman, C. Lavigne, S. Lehtola, F. März, M. Müller,
   F. Musil, H. Neugebauer, J. Pisarek, C. Plett, P. Pracht, F. Pultar,
   J. Seibert, P. Shushkov, S. Spicher, M. Stahn, M. Steiner, T. Strunk,
   J. Stückrath, T. Rose, and J. Unsleber
   
 * started run on 2026/04/09 at 15:47:05.886     
   ID    Z sym.   atoms
    1    7 N      1, 6, 8
    2    6 C      2-5, 7, 9
    3    8 O      10, 11
    4    1 H      12-20

           -------------------------------------------------
          |                Calculation Setup                |
           -------------------------------------------------

          program call               : /home/analima/Programs/orca-6.1.0-f.0_linux_x86-64/bin/otool_xtb geo_opt_XTB.xyz --grad -c 0 -u 0 -P 1 --namespace geo_opt --input geo_opt_XTB.input.tmp --alpb WATER --acc 0.200000
          calculation namespace      : geo_opt
          coordinate file            : geo_opt_XTB.xyz
          omp threads                :                     1


           -------------------------------------------------
          |                 G F N 2 - x T B                 |
           -------------------------------------------------

        Reference                      10.1021/acs.jctc.8b01176
      * Hamiltonian:
        H0-scaling (s, p, d)           1.850000    2.230000    2.230000
        zeta-weighting                 0.500000
      * Dispersion:
        s8                             2.700000
        a1                             0.520000
        a2                             5.000000
        s9                             5.000000
      * Repulsion:
        kExp                           1.500000    1.000000
        rExp                           1.000000
      * Coulomb:
        alpha                          2.000000
        third order                    shell-resolved
        anisotropic                    true
        a3                             3.000000
        a5                             4.000000
        cn-shift                       1.200000
        cn-exp                         4.000000
        max-rad                        5.000000

      * Solvation model:               ALPB
        Solvent                        WATER
        Parameter file                 internal GFN2-xTB/ALPB
        Dielectric constant                8.0200E+01
        Reference state                gsolv [1 M gas/solution]
        Free energy shift                  1.0808E-03 Eh       6.7819E-01 kcal/mol
        Temperature                        2.9815E+02 K
        Density                            1.0000E+00 kg/L
        Solvent mass                       1.8000E+01 g/mol
        Interaction kernel             P16
        Born radius scaling (c1)           1.4744E+00
        Born radii integrator          GBOBC
        Born offset                        0.0000E+00 a0       0.0000E+00 AA
        H-bond correction              true
        Ion screening                  false
        Surface tension                    1.0000E-05 Eh       1.5569E+01 dyn/cm
        Grid points                               230 per atom
q/qsh data taken from xtbrestart
CAMM data taken from xtbrestart

          ...................................................
          :                      SETUP                      :
          :.................................................:
          :  # basis functions                  53          :
          :  # atomic orbitals                  53          :
          :  # shells                           31          :
          :  # electrons                        60          :
          :  max. iterations                   250          :
          :  Hamiltonian                  GFN2-xTB          :
          :  restarted?                       true          :
          :  GBSA solvation                   true          :
          :  PC potential                    false          :
          :  electronic temp.          300.0000000     K    :
          :  accuracy                    0.2000000          :
          :  -> integral cutoff          0.3198970E+02      :
          :  -> integral neglect         0.2000000E-08      :
          :  -> SCF convergence          0.2000000E-06 Eh   :
          :  -> wf. convergence          0.2000000E-04 e    :
          :  Broyden damping             0.4000000          :
          :  net charge                          0          :
          :  unpaired electrons                  0          :
          ...................................................

 iter      E             dE          RMSdq      gap      omega  full diag
   1    -34.7390499 -0.347390E+02  0.345E-01    3.30       0.0  T
   2    -34.7395171 -0.467216E-03  0.216E-01    3.18       1.0  T
   3    -34.7395569 -0.397883E-04  0.107E-01    3.20       1.0  T
   4    -34.7395869 -0.299252E-04  0.236E-02    3.17       1.0  T
   5    -34.7395913 -0.441827E-05  0.108E-02    3.17       2.1  T
   6    -34.7395919 -0.573553E-06  0.498E-03    3.17       4.5  T
   7    -34.7395920 -0.100983E-06  0.181E-03    3.17      12.4  T
   8    -34.7395920 -0.104153E-07  0.787E-04    3.17      28.4  T
   9    -34.7395920 -0.220090E-08  0.414E-04    3.17      54.1  T
  10    -34.7395920 -0.641968E-09  0.127E-04    3.17     176.4  T
  11    -34.7395920 -0.631033E-10  0.591E-05    3.17     378.1  T

   *** convergence criteria satisfied after 11 iterations ***

         #    Occupation            Energy/Eh            Energy/eV
      -------------------------------------------------------------
         1        2.0000           -0.7343596             -19.9829
       ...           ...                  ...                  ...
        24        2.0000           -0.4561344             -12.4120
        25        2.0000           -0.4509485             -12.2709
        26        2.0000           -0.4288265             -11.6690
        27        2.0000           -0.4235953             -11.5266
        28        2.0000           -0.3836200             -10.4388
        29        2.0000           -0.3767354             -10.2515
        30        2.0000           -0.3666566              -9.9772 (HOMO)
        31                         -0.2501130              -6.8059 (LUMO)
        32                         -0.2020952              -5.4993
        33                         -0.1703258              -4.6348
        34                          0.0180066               0.4900
        35                          0.0304595               0.8288
       ...                                ...                  ...
        53                          0.6000359              16.3278
      -------------------------------------------------------------
                  HL-Gap            0.1165436 Eh            3.1713 eV
             Fermi-level           -0.3083848 Eh           -8.3916 eV

 SCC (total)                   0 d,  0 h,  0 min,  0.009 sec
 SCC setup                      ...        0 min,  0.000 sec (  2.831%)
 Dispersion                     ...        0 min,  0.000 sec (  0.636%)
 classical contributions        ...        0 min,  0.000 sec (  0.140%)
 integral evaluation            ...        0 min,  0.001 sec ( 10.744%)
 iterations                     ...        0 min,  0.005 sec ( 55.539%)
 molecular gradient             ...        0 min,  0.003 sec ( 29.614%)
 printout                       ...        0 min,  0.000 sec (  0.412%)

         :::::::::::::::::::::::::::::::::::::::::::::::::::::
         ::                     SUMMARY                     ::
         :::::::::::::::::::::::::::::::::::::::::::::::::::::
         :: total energy             -34.349878458567 Eh    ::
         :: total w/o Gsasa/hb       -34.335229974407 Eh    ::
         :: gradient norm              0.083460976779 Eh/a0 ::
         :: HOMO-LUMO gap              3.171313600895 eV    ::
         ::.................................................::
         :: SCC energy               -34.739463599412 Eh    ::
         :: -> isotropic ES            0.101719714286 Eh    ::
         :: -> anisotropic ES          0.004842222550 Eh    ::
         :: -> anisotropic XC          0.015842616162 Eh    ::
         :: -> dispersion             -0.016790848926 Eh    ::
         :: -> Gsolv                  -0.032429897101 Eh    ::
         ::    -> Gelec               -0.017781412941 Eh    ::
         ::    -> Gsasa               -0.001544872278 Eh    ::
         ::    -> Ghb                 -0.014184371580 Eh    ::
         ::    -> Gshift               0.001080759698 Eh    ::
         :: repulsion energy           0.389585140845 Eh    ::
         :: add. restraining           0.000000000000 Eh    ::
         :: total charge               0.000000000000 e     ::
         :::::::::::::::::::::::::::::::::::::::::::::::::::::


Property printout bound to 'properties.out'

           -------------------------------------------------
          | TOTAL ENERGY              -34.349878458567 Eh   |
          | GRADIENT NORM               0.083460976779 Eh/α |
          | HOMO-LUMO GAP               3.171313600895 eV   |
           -------------------------------------------------

------------------------------------------------------------------------
 * finished run on 2026/04/09 at 15:47:05.899     
------------------------------------------------------------------------
 total:
 * wall-time:     0 d,  0 h,  0 min,  0.013 sec
 *  cpu-time:     0 d,  0 h,  0 min,  0.012 sec
 * ratio c/w:     0.898 speedup
 SCF:
 * wall-time:     0 d,  0 h,  0 min,  0.009 sec
 *  cpu-time:     0 d,  0 h,  0 min,  0.007 sec
 * ratio c/w:     0.850 speedup


-------------------------   --------------------
FINAL SINGLE POINT ENERGY       -34.349878458570
-------------------------   --------------------


-------------
DIPOLE MOMENT
-------------
                                X             Y             Z
Total Dipole Moment    :      1.42300      -0.92700       0.20100
                        -----------------------------------------
Magnitude (a.u.)       :      1.71016
Magnitude (Debye)      :      4.34689


------------------
CARTESIAN GRADIENT
------------------

   1   N   :    0.002103657    0.003772482   -0.005054009
   2   C   :    0.002186619    0.002305199   -0.003963684
   3   C   :   -0.001361970    0.016976217    0.006653741
   4   C   :   -0.017179399   -0.005204617   -0.006238711
   5   C   :    0.021217492    0.013139736   -0.000683370
   6   N   :   -0.014589693   -0.006664522   -0.004122714
   7   C   :    0.012565912    0.012846670   -0.006298237
   8   N   :   -0.006762417   -0.010079832    0.006716351
   9   C   :    0.011124619   -0.053015261    0.008567653
  10   O   :    0.000924233    0.020842192    0.009613351
  11   O   :    0.003719818    0.025951307   -0.008958202
  12   H   :   -0.000468748   -0.003459313    0.002456966
  13   H   :   -0.000461161    0.004579197   -0.000789759
  14   H   :   -0.000587777   -0.002776251   -0.000165139
  15   H   :   -0.003356685   -0.006630525    0.000060127
  16   H   :    0.000653455   -0.003138027    0.000570479
  17   H   :   -0.005435479   -0.005177430    0.002558399
  18   H   :    0.004077633   -0.000582063    0.004172147
  19   H   :    0.003105423   -0.000518863    0.003318379
  20   H   :   -0.011475531   -0.003166295   -0.008413768

Difference to translation invariance:
           :   -0.0000000000    0.0000000000   -0.0000000000

Difference to rotation invariance:
           :   -0.0000626642    0.0000209861   -0.0001266817

Norm of the Cartesian gradient     ...    0.0834609768
RMS gradient                       ...    0.0107747658
MAX gradient                       ...    0.0530152613
------------------------------------------------------------------------------
                         ORCA GEOMETRY RELAXATION STEP
------------------------------------------------------------------------------

Reading the OPT-File                    .... done
Getting information on internals        .... done
Copying old internal coords+grads       .... done
Making the new internal coordinates     .... (2022 redundants) done
Validating the new internal coordinates .... (2022 redundants) done
Calculating the B-matrix                .... done
Calculating the G,G- and P matrices     .... done
Transforming gradient to internals      .... done
Projecting the internal gradient        .... done
Number of atoms                         ....  20
Number of internal coordinates          ....  92
Current Energy                          ....   -34.349878459 Eh
Current gradient norm                   ....     0.083460977 Eh/bohr
Maximum allowed component of the step   ....  0.300
Current trust radius                    ....  0.300
Updating the Hessian (BFGS)             .... done
Forming the augmented Hessian           .... done
Diagonalizing the augmented Hessian     .... done
Last element of RFO vector              ....  0.917544129
Lowest eigenvalues of augmented Hessian:
 -0.016079654  0.013606942  0.014579455  0.015286639  0.015560786
Length of the computed step             ....  0.433367675
Warning: the length of the step is outside the trust region - taking restricted step instead
The input lambda is                     ....     0.012551
   iter:   5  x=   -0.011993  g=   32.497342 f(x)=     0.332937
   iter:  10  x=   -0.039820  g=    2.070264 f(x)=     0.000014
The output lambda is                    ....    -0.039820 (12 iterations)
The final length of the internal step   ....  0.300000000
Converting the step to Cartesian space:
 Initial RMS(Int)=    0.0312771621
Transforming coordinates:
 Iter   0:  RMS(Cart)=    0.0750451942 RMS(Int)=    1.1347988513
 Iter   5:  RMS(Cart)=    0.0000060157 RMS(Int)=    0.0000044939
done
Storing new coordinates                 .... done
The predicted energy change is          ....    -0.008311586
Previously predicted energy change      ....    -0.020541755
Actually observed energy change         ....    -0.025379150
Ratio of predicted to observed change   ....     1.235490806
New trust radius                        ....     0.450000000

                                .--------------------.
          ----------------------|Geometry convergence|-------------------------
          Item                value                   Tolerance       Converged
          ---------------------------------------------------------------------
          Energy change      -0.0253791499            0.0000050000      NO
          RMS gradient        0.0059608228            0.0001000000      NO
          MAX gradient        0.0232845431            0.0003000000      NO
          RMS step            0.0312771621            0.0020000000      NO
          MAX step            0.1417365978            0.0040000000      NO
          -------------------------------------------------------------------------
          ........................................................
          Max(Bonds)      0.0387      Max(Angles)    4.18
          Max(Dihed)        8.12      Max(Improp)    0.00
          ---------------------------------------------------------------------

The optimization has not yet converged - more geometry cycles are needed


    ---------------------------------------------------------------------------
                         Redundant Internal Coordinates
                            (Angstroem and degrees)

        Definition                    Value    dE/dq     Step     New-Value
    ----------------------------------------------------------------------------
     1. B(C   1,N   0)                1.4486  0.000938 -0.0001    1.4486   
     2. B(C   2,C   1)                1.5314 -0.010814  0.0204    1.5517   
     3. B(C   3,C   2)                1.4804 -0.003719  0.0063    1.4866   
     4. B(C   4,C   3)                1.3860  0.007170 -0.0096    1.3763   
     5. B(N   5,C   4)                1.3462 -0.008103  0.0099    1.3560   
     6. B(C   6,N   5)                1.3531  0.000339 -0.0007    1.3523   
     7. B(N   7,C   3)                1.3595 -0.001730  0.0014    1.3609   
     8. B(N   7,C   6)                1.3219  0.014308 -0.0200    1.3020   
     9. B(C   8,C   1)                1.4904 -0.005404  0.0112    1.5017   
    10. B(O   9,C   8)                1.2341  0.023285 -0.0246    1.2096   
    11. B(O  10,C   8)                1.3434  0.019894 -0.0298    1.3136   
    12. B(H  11,N   0)                1.0150  0.003289 -0.0074    1.0076   
    13. B(H  12,N   0)                1.0163  0.002893 -0.0072    1.0091   
    14. B(H  12,O   9)                2.1917 -0.004924  0.0387    2.2305   
    15. B(H  13,C   1)                1.1032  0.002193 -0.0049    1.0982   
    16. B(H  14,C   2)                1.0955  0.002729 -0.0060    1.0895   
    17. B(H  15,C   2)                1.1007  0.003101 -0.0070    1.0938   
    18. B(H  16,C   4)                1.0774  0.004800 -0.0108    1.0666   
    19. B(H  17,N   5)                1.0153  0.005388 -0.0117    1.0036   
    20. B(H  18,C   6)                1.0678 -0.000367  0.0004    1.0682   
    21. B(H  19,O  10)                0.9820  0.007796 -0.0152    0.9668   
    22. A(C   1,N   0,H  12)          110.10  0.003588   -0.67    109.42   
    23. A(H  11,N   0,H  12)          111.33 -0.001191   -0.20    111.13   
    24. A(C   1,N   0,H  11)          111.52  0.000317   -0.34    111.18   
    25. A(N   0,C   1,C   8)          106.26 -0.002526    1.26    107.51   
    26. A(C   8,C   1,H  13)          107.97 -0.000186   -0.26    107.71   
    27. A(N   0,C   1,H  13)          108.49  0.001750   -0.33    108.15   
    28. A(C   2,C   1,H  13)          107.07 -0.001755    0.47    107.54   
    29. A(C   2,C   1,C   8)          112.10  0.005421   -1.69    110.41   
    30. A(N   0,C   1,C   2)          114.74 -0.002602    0.52    115.27   
    31. A(C   1,C   2,H  15)          107.08 -0.001067    0.56    107.64   
    32. A(C   3,C   2,H  14)          113.11  0.002724   -1.35    111.76   
    33. A(C   1,C   2,H  14)          108.72 -0.002875    0.30    109.01   
    34. A(H  14,C   2,H  15)          106.13 -0.002501    1.29    107.43   
    35. A(C   1,C   2,C   3)          113.68  0.004368   -1.21    112.47   
    36. A(C   3,C   2,H  15)          107.67 -0.001291    0.75    108.42   
    37. A(C   2,C   3,C   4)          125.99 -0.003536    0.70    126.70   
    38. A(C   2,C   3,N   7)          125.80  0.008812   -1.79    124.01   
    39. A(C   4,C   3,N   7)          108.21 -0.005272    1.08    109.29   
    40. A(N   5,C   4,H  16)          126.70  0.004280   -1.11    125.60   
    41. A(C   3,C   4,H  16)          126.60 -0.008559    1.84    128.44   
    42. A(C   3,C   4,N   5)          106.70  0.004279   -0.74    105.96   
    43. A(C   4,N   5,H  17)          124.33 -0.004391    0.89    125.22   
    44. A(C   4,N   5,C   6)          107.66  0.004348   -0.77    106.89   
    45. A(C   6,N   5,H  17)          128.01  0.000044   -0.12    127.90   
    46. A(N   5,C   6,H  18)          121.92 -0.001099    0.37    122.29   
    47. A(N   7,C   6,H  18)          127.62  0.008102   -1.73    125.89   
    48. A(N   5,C   6,N   7)          110.46 -0.007003    1.36    111.82   
    49. A(C   3,N   7,C   6)          106.97  0.003647   -0.94    106.04   
    50. A(O   9,C   8,O  10)          118.43 -0.018610    3.39    121.82   
    51. A(C   1,C   8,O  10)          119.60  0.019889   -4.18    115.42   
    52. A(C   1,C   8,O   9)          121.96 -0.001272    0.78    122.74   
    53. A(C   8,O  10,H  19)          119.69  0.015212   -3.50    116.19   
    54. D(C   8,C   1,N   0,H  11)   -162.32 -0.003229    1.73   -160.59   
    55. D(C   2,C   1,N   0,H  11)    -37.85  0.000097    0.85    -37.00   
    56. D(H  13,C   1,N   0,H  11)     81.81 -0.002567    1.54     83.35   
    57. D(C   8,C   1,N   0,H  12)    -38.22 -0.001941    0.72    -37.50   
    58. D(C   2,C   1,N   0,H  12)     86.25  0.001385   -0.17     86.08   
    59. D(C   3,C   2,C   1,N   0)    -61.10  0.002146   -1.12    -62.22   
    60. D(H  14,C   2,C   1,H  13)     51.51 -0.001781    1.16     52.67   
    61. D(H  14,C   2,C   1,C   8)    -66.72 -0.003527    2.16    -64.56   
    62. D(H  14,C   2,C   1,N   0)    171.96 -0.002450    1.39    173.35   
    63. D(C   3,C   2,C   1,C   8)     60.23  0.001069   -0.35     59.88   
    64. D(C   3,C   2,C   1,H  13)    178.46  0.002815   -1.35    177.11   
    65. D(C   4,C   3,C   2,H  15)    -28.13 -0.000707   -0.06    -28.19   
    66. D(C   4,C   3,C   2,H  14)   -145.06  0.001630   -1.39   -146.45   
    67. D(N   7,C   3,C   2,C   1)    -89.28 -0.001086    1.15    -88.13   
    68. D(C   4,C   3,C   2,C   1)     90.32 -0.000282    0.43     90.75   
    69. D(N   7,C   3,C   2,H  14)     35.34  0.000826   -0.66     34.68   
    70. D(H  16,C   4,C   3,N   7)   -179.97  0.000102   -0.06   -180.03   
    71. D(H  16,C   4,C   3,C   2)      0.37 -0.000633    0.54      0.91   
    72. D(N   5,C   4,C   3,N   7)      0.11  0.000108   -0.11      0.00   
    73. D(N   5,C   4,C   3,C   2)   -179.54 -0.000627    0.49   -179.05   
    74. D(H  17,N   5,C   4,H  16)      0.04 -0.000034    0.01      0.05   
    75. D(H  17,N   5,C   4,C   3)    179.95 -0.000056    0.07    180.02   
    76. D(C   6,N   5,C   4,H  16)    179.99 -0.000045    0.02    180.01   
    77. D(C   6,N   5,C   4,C   3)     -0.10 -0.000066    0.07     -0.03   
    78. D(H  18,C   6,N   5,H  17)      0.01 -0.000013    0.01      0.02   
    79. D(H  18,C   6,N   5,C   4)   -179.93  0.000002   -0.00   -179.94   
    80. D(N   7,C   6,N   5,H  17)    180.00 -0.000023    0.00    180.00   
    81. D(N   7,C   6,N   5,C   4)      0.05 -0.000009   -0.00      0.04   
    82. D(C   3,N   7,C   6,N   5)      0.02  0.000081   -0.07     -0.04   
    83. D(C   6,N   7,C   3,C   4)     -0.09 -0.000110    0.11      0.02   
    84. D(C   6,N   7,C   3,C   2)    179.57  0.000570   -0.50    179.07   
    85. D(C   3,N   7,C   6,H  18)   -179.99  0.000068   -0.07   -180.06   
    86. D(O  10,C   8,C   1,C   2)     55.55 -0.000558    1.31     56.85   
    87. D(O  10,C   8,C   1,N   0)   -178.37 -0.002092    1.79   -176.58   
    88. D(O   9,C   8,C   1,H  13)    118.66 -0.001873    1.92    120.58   
    89. D(O   9,C   8,C   1,C   2)   -123.65 -0.000999    1.31   -122.34   
    90. D(O   9,C   8,C   1,N   0)      2.44 -0.002532    1.79      4.22   
    91. D(H  19,O  10,C   8,O   9)    -29.47 -0.007136    8.11    -21.36   
    92. D(H  19,O  10,C   8,C   1)    151.31 -0.007686    8.12    159.43   
    ----------------------------------------------------------------------------

Geometry step timings:
Preparation and reading OPT file:      0.000 s ( 0.477 %)
Internal coordinates            :      0.000 s ( 0.613 %)
B/P matrices and projection     :      0.000 s (28.406 %)
Hessian update/contruction      :      0.000 s ( 7.493 %)
Making the step                 :      0.001 s (45.777 %)
Converting the step to Cartesian:      0.000 s ( 3.065 %)
Storing new data                :      0.000 s ( 0.817 %)
Checking convergence            :      0.000 s ( 0.817 %)
Final printing                  :      0.000 s (12.534 %)
Total time                      :      0.001 s

Time for energy+gradient        :      0.015 s
Time for complete geometry iter :      0.017 s

         *************************************************************
         *                GEOMETRY OPTIMIZATION CYCLE   3            *
         *************************************************************
---------------------------------
CARTESIAN COORDINATES (ANGSTROEM)
---------------------------------
  N    -1.294613   -0.329070    1.808625
  C    -1.563950   -0.555852    0.403605
  C    -0.414733   -1.230518   -0.391406
  C     0.820810   -0.404064   -0.414423
  C     1.858757   -0.451235    0.488129
  N     2.748337    0.488442    0.082634
  C     2.234057    1.062885   -1.028398
  N     1.081317    0.549722   -1.349468
  C    -1.916311    0.769307   -0.208284
  O    -1.874689    1.807272    0.411293
  O    -2.260058    0.732079   -1.475547
  H    -0.759859   -1.086242    2.203519
  H    -0.814917    0.551719    1.919973
  H    -2.446014   -1.205312    0.324784
  H    -0.766528   -1.458238   -1.397082
  H    -0.185915   -2.181120    0.098844
  H     1.968746   -1.083847    1.339807
  H     3.617496    0.697630    0.538819
  H     2.740944    1.842095   -1.554620
  H    -2.772877    1.484348   -1.800804

----------------------------
CARTESIAN COORDINATES (A.U.)
----------------------------
  NO LB    ZA    FRAG    MASS        X           Y           Z
   0 N   7.0000    0    14.007   -2.446464   -0.621852    3.417805
   1 C   6.0000    0    12.011   -2.955437   -1.050408    0.762703
   2 C   6.0000    0    12.011   -0.783732   -2.325343   -0.739649
   3 C   6.0000    0    12.011    1.551106   -0.763570   -0.783146
   4 C   6.0000    0    12.011    3.512541   -0.852711    0.922431
   5 N   7.0000    0    14.007    5.193605    0.923021    0.156155
   6 C   6.0000    0    12.011    4.221756    2.008562   -1.943391
   7 N   7.0000    0    14.007    2.043393    1.038824   -2.550125
   8 C   6.0000    0    12.011   -3.621304    1.453780   -0.393600
   9 O   8.0000    0    15.999   -3.542649    3.415249    0.777231
  10 O   8.0000    0    15.999   -4.270890    1.383429   -2.788379
  11 H   1.0000    0     1.008   -1.435925   -2.052699    4.164048
  12 H   1.0000    0     1.008   -1.539971    1.042598    3.628223
  13 H   1.0000    0     1.008   -4.622297   -2.277710    0.613754
  14 H   1.0000    0     1.008   -1.448528   -2.755670   -2.640103
  15 H   1.0000    0     1.008   -0.351328   -4.121720    0.186788
  16 H   1.0000    0     1.008    3.720390   -2.048175    2.531869
  17 H   1.0000    0     1.008    6.836077    1.318329    1.018220
  18 H   1.0000    0     1.008    5.179634    3.481054   -2.937807
  19 H   1.0000    0     1.008   -5.239979    2.805012   -3.403027

      -----------------------------------------------------------      
     |                   =====================                   |     
     |                           x T B                           |     
     |                   =====================                   |     
     |                         S. Grimme                         |     
     |          Mulliken Center for Theoretical Chemistry        |     
     |                    University of Bonn                     |     
      -----------------------------------------------------------      

   * xtb version 6.7.1 (edcfbbe) compiled by 'albert@albert-system' on 2024-07-22

   xtb is free software: you can redistribute it and/or modify it under
   the terms of the GNU Lesser General Public License as published by
   the Free Software Foundation, either version 3 of the License, or
   (at your option) any later version.
   
   xtb is distributed in the hope that it will be useful,
   but WITHOUT ANY WARRANTY; without even the implied warranty of
   MERCHANTABILITY or FITNESS FOR A PARTICULAR PURPOSE.  See the
   GNU Lesser General Public License for more details.
   
   Cite this work as:
   * C. Bannwarth, E. Caldeweyher, S. Ehlert, A. Hansen, P. Pracht,
     J. Seibert, S. Spicher, S. Grimme, WIREs Comput. Mol. Sci., 2020, 11,
     e01493. DOI: 10.1002/wcms.1493
   
   for GFN2-xTB:
   * C. Bannwarth, S. Ehlert and S. Grimme., J. Chem. Theory Comput., 2019,
     15, 1652-1671. DOI: 10.1021/acs.jctc.8b01176
   for GFN1-xTB:
   * S. Grimme, C. Bannwarth, P. Shushkov, J. Chem. Theory Comput., 2017,
     13, 1989-2009. DOI: 10.1021/acs.jctc.7b00118
   for GFN0-xTB:
   * P. Pracht, E. Caldeweyher, S. Ehlert, S. Grimme, ChemRxiv, 2019, preprint.
     DOI: 10.26434/chemrxiv.8326202.v1
   for GFN-FF:
   * S. Spicher and S. Grimme, Angew. Chem. Int. Ed., 2020, 59, 15665-15673.
     DOI: 10.1002/anie.202004239
   
   for ALPB and GBSA implicit solvation:
   * S. Ehlert, M. Stahn, S. Spicher, S. Grimme, J. Chem. Theory Comput.,
     2021, 17, 4250-4261. DOI: 10.1021/acs.jctc.1c00471
   
   for ddCOSMO and CPCM-X implicit solvation:
   * M. Stahn, S. Ehlert, S. Grimme, J. Phys. Chem. A,
     2023, XX, XXXX-XXXX. DOI: 10.1021/acs.jpca.3c04382
   
   for DFT-D4:
   * E. Caldeweyher, C. Bannwarth and S. Grimme, J. Chem. Phys., 2017,
     147, 034112. DOI: 10.1063/1.4993215
   * E. Caldeweyher, S. Ehlert, A. Hansen, H. Neugebauer, S. Spicher,
     C. Bannwarth and S. Grimme, J. Chem. Phys., 2019, 150, 154122.
     DOI: 10.1063/1.5090222
   * E. Caldeweyher, J.-M. Mewes, S. Ehlert and S. Grimme, Phys. Chem. Chem. Phys.
     2020, 22, 8499-8512. DOI: 10.1039/D0CP00502A
   
   for sTDA-xTB:
   * S. Grimme and C. Bannwarth, J. Chem. Phys., 2016, 145, 054103.
     DOI: 10.1063/1.4959605
   
   in the mass-spec context:
   * V. Asgeirsson, C. Bauer and S. Grimme, Chem. Sci., 2017, 8, 4879.
     DOI: 10.1039/c7sc00601b
   * J. Koopman and S. Grimme, ACS Omega 2019, 4, 12, 15120-15133.
     DOI: 10.1021/acsomega.9b02011
   
   for metadynamics refer to:
   * S. Grimme, J. Chem. Theory Comput., 2019, 155, 2847-2862
     DOI: 10.1021/acs.jctc.9b00143
   
   for SPH calculations refer to:
   * S. Spicher and S. Grimme, J. Chem. Theory Comput., 2021, 17, 1701-1714
     DOI: 10.1021/acs.jctc.0c01306
   
   for ONIOM refer to:
   * C. Plett, A. Katbashev, S. Ehlert, S. Grimme, M. Bursch,
     Phys. Chem. Chem. Phys., 2023, 25, 17860-17868. DOI: 10.1039/D3CP02178E
   
   for DIPRO refer to:
   * J. Kohn, N. Gildemeister, S. Grimme, D. Fazzi, A. Hansen,
     J. Chem. Phys., 2023, just accepted.
   
   for PTB refer to:
   * S. Grimme, M. Mueller, A. Hansen, J. Chem. Phys., 2023, 158, 124111.
     DOI: 10.1063/5.0137838
   
   with help from (in alphabetical order)
   P. Atkinson, C. Bannwarth, F. Bohle, G. Brandenburg, E. Caldeweyher
   M. Checinski, S. Dohm, S. Ehlert, S. Ehrlich, I. Gerasimov, C. Hölzer
   A. Katbashev, J. Kohn, J. Koopman, C. Lavigne, S. Lehtola, F. März, M. Müller,
   F. Musil, H. Neugebauer, J. Pisarek, C. Plett, P. Pracht, F. Pultar,
   J. Seibert, P. Shushkov, S. Spicher, M. Stahn, M. Steiner, T. Strunk,
   J. Stückrath, T. Rose, and J. Unsleber
   
 * started run on 2026/04/09 at 15:47:05.903     
   ID    Z sym.   atoms
    1    7 N      1, 6, 8
    2    6 C      2-5, 7, 9
    3    8 O      10, 11
    4    1 H      12-20

           -------------------------------------------------
          |                Calculation Setup                |
           -------------------------------------------------

          program call               : /home/analima/Programs/orca-6.1.0-f.0_linux_x86-64/bin/otool_xtb geo_opt_XTB.xyz --grad -c 0 -u 0 -P 1 --namespace geo_opt --input geo_opt_XTB.input.tmp --alpb WATER --acc 0.200000
          calculation namespace      : geo_opt
          coordinate file            : geo_opt_XTB.xyz
          omp threads                :                     1


           -------------------------------------------------
          |                 G F N 2 - x T B                 |
           -------------------------------------------------

        Reference                      10.1021/acs.jctc.8b01176
      * Hamiltonian:
        H0-scaling (s, p, d)           1.850000    2.230000    2.230000
        zeta-weighting                 0.500000
      * Dispersion:
        s8                             2.700000
        a1                             0.520000
        a2                             5.000000
        s9                             5.000000
      * Repulsion:
        kExp                           1.500000    1.000000
        rExp                           1.000000
      * Coulomb:
        alpha                          2.000000
        third order                    shell-resolved
        anisotropic                    true
        a3                             3.000000
        a5                             4.000000
        cn-shift                       1.200000
        cn-exp                         4.000000
        max-rad                        5.000000

      * Solvation model:               ALPB
        Solvent                        WATER
        Parameter file                 internal GFN2-xTB/ALPB
        Dielectric constant                8.0200E+01
        Reference state                gsolv [1 M gas/solution]
        Free energy shift                  1.0808E-03 Eh       6.7819E-01 kcal/mol
        Temperature                        2.9815E+02 K
        Density                            1.0000E+00 kg/L
        Solvent mass                       1.8000E+01 g/mol
        Interaction kernel             P16
        Born radius scaling (c1)           1.4744E+00
        Born radii integrator          GBOBC
        Born offset                        0.0000E+00 a0       0.0000E+00 AA
        H-bond correction              true
        Ion screening                  false
        Surface tension                    1.0000E-05 Eh       1.5569E+01 dyn/cm
        Grid points                               230 per atom
q/qsh data taken from xtbrestart
CAMM data taken from xtbrestart

          ...................................................
          :                      SETUP                      :
          :.................................................:
          :  # basis functions                  53          :
          :  # atomic orbitals                  53          :
          :  # shells                           31          :
          :  # electrons                        60          :
          :  max. iterations                   250          :
          :  Hamiltonian                  GFN2-xTB          :
          :  restarted?                       true          :
          :  GBSA solvation                   true          :
          :  PC potential                    false          :
          :  electronic temp.          300.0000000     K    :
          :  accuracy                    0.2000000          :
          :  -> integral cutoff          0.3198970E+02      :
          :  -> integral neglect         0.2000000E-08      :
          :  -> SCF convergence          0.2000000E-06 Eh   :
          :  -> wf. convergence          0.2000000E-04 e    :
          :  Broyden damping             0.4000000          :
          :  net charge                          0          :
          :  unpaired electrons                  0          :
          ...................................................

 iter      E             dE          RMSdq      gap      omega  full diag
   1    -34.7691280 -0.347691E+02  0.273E-01    3.63       0.0  T
   2    -34.7693950 -0.267009E-03  0.162E-01    3.55       1.0  T
   3    -34.7694094 -0.144437E-04  0.815E-02    3.55       1.0  T
   4    -34.7694300 -0.205616E-04  0.232E-02    3.53       1.0  T
   5    -34.7694345 -0.456940E-05  0.864E-03    3.53       2.6  T
   6    -34.7694349 -0.351310E-06  0.404E-03    3.53       5.5  T
   7    -34.7694350 -0.588311E-07  0.151E-03    3.53      14.8  T
   8    -34.7694350 -0.871377E-08  0.650E-04    3.53      34.4  T
   9    -34.7694350 -0.157370E-08  0.340E-04    3.53      65.8  T
  10    -34.7694350 -0.368374E-09  0.936E-05    3.53     238.8  T
  11    -34.7694350 -0.228866E-10  0.456E-05    3.53     490.9  T

   *** convergence criteria satisfied after 11 iterations ***

         #    Occupation            Energy/Eh            Energy/eV
      -------------------------------------------------------------
         1        2.0000           -0.7422509             -20.1977
       ...           ...                  ...                  ...
        24        2.0000           -0.4578433             -12.4586
        25        2.0000           -0.4504943             -12.2586
        26        2.0000           -0.4297293             -11.6935
        27        2.0000           -0.4212224             -11.4620
        28        2.0000           -0.3853951             -10.4871
        29        2.0000           -0.3799329             -10.3385
        30        2.0000           -0.3666255              -9.9764 (HOMO)
        31                         -0.2367744              -6.4430 (LUMO)
        32                         -0.2006079              -5.4588
        33                         -0.1679910              -4.5713
        34                          0.0371705               1.0115
        35                          0.0417521               1.1361
       ...                                ...                  ...
        53                          0.6200909              16.8735
      -------------------------------------------------------------
                  HL-Gap            0.1298512 Eh            3.5334 eV
             Fermi-level           -0.3016999 Eh           -8.2097 eV

 SCC (total)                   0 d,  0 h,  0 min,  0.009 sec
 SCC setup                      ...        0 min,  0.000 sec (  2.816%)
 Dispersion                     ...        0 min,  0.000 sec (  0.607%)
 classical contributions        ...        0 min,  0.000 sec (  0.128%)
 integral evaluation            ...        0 min,  0.001 sec ( 10.688%)
 iterations                     ...        0 min,  0.005 sec ( 54.208%)
 molecular gradient             ...        0 min,  0.003 sec ( 31.024%)
 printout                       ...        0 min,  0.000 sec (  0.446%)

         :::::::::::::::::::::::::::::::::::::::::::::::::::::
         ::                     SUMMARY                     ::
         :::::::::::::::::::::::::::::::::::::::::::::::::::::
         :: total energy             -34.358544446478 Eh    ::
         :: total w/o Gsasa/hb       -34.344421540013 Eh    ::
         :: gradient norm              0.036493866751 Eh/a0 ::
         :: HOMO-LUMO gap              3.533429872786 eV    ::
         ::.................................................::
         :: SCC energy               -34.769305023586 Eh    ::
         :: -> isotropic ES            0.097930156560 Eh    ::
         :: -> anisotropic ES          0.004552684586 Eh    ::
         :: -> anisotropic XC          0.014961305492 Eh    ::
         :: -> dispersion             -0.016950402719 Eh    ::
         :: -> Gsolv                  -0.030532271903 Eh    ::
         ::    -> Gelec               -0.016409365438 Eh    ::
         ::    -> Gsasa               -0.001564341165 Eh    ::
         ::    -> Ghb                 -0.013639324998 Eh    ::
         ::    -> Gshift               0.001080759698 Eh    ::
         :: repulsion energy           0.410760577108 Eh    ::
         :: add. restraining           0.000000000000 Eh    ::
         :: total charge              -0.000000000000 e     ::
         :::::::::::::::::::::::::::::::::::::::::::::::::::::


Property printout bound to 'properties.out'

           -------------------------------------------------
          | TOTAL ENERGY              -34.358544446478 Eh   |
          | GRADIENT NORM               0.036493866751 Eh/α |
          | HOMO-LUMO GAP               3.533429872786 eV   |
           -------------------------------------------------

------------------------------------------------------------------------
 * finished run on 2026/04/09 at 15:47:05.916     
------------------------------------------------------------------------
 total:
 * wall-time:     0 d,  0 h,  0 min,  0.013 sec
 *  cpu-time:     0 d,  0 h,  0 min,  0.011 sec
 * ratio c/w:     0.890 speedup
 SCF:
 * wall-time:     0 d,  0 h,  0 min,  0.009 sec
 *  cpu-time:     0 d,  0 h,  0 min,  0.007 sec
 * ratio c/w:     0.851 speedup


-------------------------   --------------------
FINAL SINGLE POINT ENERGY       -34.358544446480
-------------------------   --------------------


-------------
DIPOLE MOMENT
-------------
                                X             Y             Z
Total Dipole Moment    :      1.45100      -0.78200       0.11300
                        -----------------------------------------
Magnitude (a.u.)       :      1.65218
Magnitude (Debye)      :      4.19950


------------------
CARTESIAN GRADIENT
------------------

   1   N   :    0.006091549    0.003107296    0.000944531
   2   C   :   -0.002885375    0.004860570   -0.001538191
   3   C   :    0.001061178    0.006051755   -0.000420824
   4   C   :   -0.002615871    0.002391557   -0.004284339
   5   C   :    0.011734929    0.003335889    0.004074121
   6   N   :   -0.003592878   -0.001978969   -0.000832810
   7   C   :   -0.004487919    0.000350113   -0.004538236
   8   N   :    0.004500928   -0.001635867    0.005518950
   9   C   :   -0.000724868   -0.009902025    0.004273390
  10   O   :    0.001101119   -0.007948850   -0.005502461
  11   O   :    0.006333850    0.020629275    0.003220819
  12   H   :   -0.003469196    0.001152864   -0.000690640
  13   H   :   -0.003183537   -0.001313297   -0.002141038
  14   H   :    0.000241033   -0.000294368    0.000736319
  15   H   :   -0.000810542   -0.004319280    0.001244956
  16   H   :    0.000368764   -0.000540598   -0.000720705
  17   H   :   -0.004137239   -0.000501226   -0.002259757
  18   H   :   -0.003133541   -0.001776345   -0.000411738
  19   H   :    0.000873838   -0.001249161    0.002262931
  20   H   :   -0.003266223   -0.010419333    0.001064721

Difference to translation invariance:
           :   -0.0000000000    0.0000000000   -0.0000000000

Difference to rotation invariance:
           :   -0.0001141029   -0.0004278702    0.0000104522

Norm of the Cartesian gradient     ...    0.0364938668
RMS gradient                       ...    0.0047113379
MAX gradient                       ...    0.0206292746
------------------------------------------------------------------------------
                         ORCA GEOMETRY RELAXATION STEP
------------------------------------------------------------------------------

Reading the OPT-File                    .... done
Getting information on internals        .... done
Copying old internal coords+grads       .... done
Making the new internal coordinates     .... (2022 redundants) done
Validating the new internal coordinates .... (2022 redundants) done
Calculating the B-matrix                .... done
Calculating the G,G- and P matrices     .... done
Transforming gradient to internals      .... done
Projecting the internal gradient        .... done
Number of atoms                         ....  20
Number of internal coordinates          ....  92
Current Energy                          ....   -34.358544446 Eh
Current gradient norm                   ....     0.036493867 Eh/bohr
Maximum allowed component of the step   ....  0.300
Current trust radius                    ....  0.450
Updating the Hessian (BFGS)             .... done
Forming the augmented Hessian           .... done
Diagonalizing the augmented Hessian     .... done
Last element of RFO vector              ....  0.915201272
Lowest eigenvalues of augmented Hessian:
 -0.006730326  0.013682021  0.014578511  0.015287010  0.015577258
Length of the computed step             ....  0.440337087
The final length of the internal step   ....  0.440337087
Converting the step to Cartesian space:
 Initial RMS(Int)=    0.0459083149
Transforming coordinates:
 Iter   0:  RMS(Cart)=    0.0791629006 RMS(Int)=    0.0447679543
 Iter   5:  RMS(Cart)=    0.0001320438 RMS(Int)=    0.0000968223
 Iter  10:  RMS(Cart)=    0.0000005161 RMS(Int)=    0.0000003812
done
Storing new coordinates                 .... done
The predicted energy change is          ....    -0.004017657
Previously predicted energy change      ....    -0.008311586
Actually observed energy change         ....    -0.008665988
Ratio of predicted to observed change   ....     1.042639477
New trust radius                        ....     0.675000000

                                .--------------------.
          ----------------------|Geometry convergence|-------------------------
          Item                value                   Tolerance       Converged
          ---------------------------------------------------------------------
          Energy change      -0.0086659879            0.0000050000      NO
          RMS gradient        0.0028363460            0.0001000000      NO
          MAX gradient        0.0091533682            0.0003000000      NO
          RMS step            0.0459083149            0.0020000000      NO
          MAX step            0.2649522529            0.0040000000      NO
          -------------------------------------------------------------------------
          ........................................................
          Max(Bonds)      0.0472      Max(Angles)    2.79
          Max(Dihed)       15.18      Max(Improp)    0.00
          ---------------------------------------------------------------------

The optimization has not yet converged - more geometry cycles are needed


    ---------------------------------------------------------------------------
                         Redundant Internal Coordinates
                            (Angstroem and degrees)

        Definition                    Value    dE/dq     Step     New-Value
    ----------------------------------------------------------------------------
     1. B(C   1,N   0)                1.4485  0.000963  0.0006    1.4491   
     2. B(C   2,C   1)                1.5517 -0.000031  0.0080    1.5598   
     3. B(C   3,C   2)                1.4866 -0.001301  0.0035    1.4902   
     4. B(C   4,C   3)                1.3763  0.001178 -0.0050    1.3713   
     5. B(N   5,C   4)                1.3560 -0.006694  0.0088    1.3648   
     6. B(C   6,N   5)                1.3524 -0.000158 -0.0004    1.3519   
     7. B(N   7,C   3)                1.3608 -0.003698  0.0038    1.3646   
     8. B(N   7,C   6)                1.3020 -0.004171 -0.0027    1.2993   
     9. B(C   8,C   1)                1.5015 -0.005528  0.0138    1.5154   
    10. B(O   9,C   8)                1.2095 -0.009153 -0.0016    1.2079   
    11. B(O  10,C   8)                1.3136 -0.005239 -0.0040    1.3096   
    12. B(H  11,N   0)                1.0076 -0.002974  0.0008    1.0084   
    13. B(H  12,N   0)                1.0091 -0.003602  0.0012    1.0103   
    14. B(H  12,O   9)                2.2306 -0.003703  0.0472    2.2778   
    15. B(H  13,C   1)                1.0982 -0.000073 -0.0015    1.0967   
    16. B(H  14,C   2)                1.0895  0.000016 -0.0019    1.0876   
    17. B(H  15,C   2)                1.0938  0.000223 -0.0027    1.0910   
    18. B(H  16,C   4)                1.0666 -0.001937 -0.0007    1.0660   
    19. B(H  17,N   5)                1.0036 -0.003274  0.0003    1.0039   
    20. B(H  18,C   6)                1.0682 -0.001610  0.0019    1.0701   
    21. B(H  19,O  10)                0.9668 -0.006731  0.0047    0.9715   
    22. A(C   1,N   0,H  12)          109.40  0.001543   -0.27    109.13   
    23. A(H  11,N   0,H  12)          111.12  0.000030   -0.78    110.34   
    24. A(C   1,N   0,H  11)          111.17 -0.000106   -0.44    110.73   
    25. A(N   0,C   1,C   8)          107.50 -0.001333    1.51    109.01   
    26. A(C   8,C   1,H  13)          107.71 -0.000531   -0.21    107.50   
    27. A(N   0,C   1,H  13)          108.15  0.000109   -0.03    108.12   
    28. A(C   2,C   1,H  13)          107.51 -0.000749    0.29    107.80   
    29. A(C   2,C   1,C   8)          110.41  0.002910   -1.51    108.90   
    30. A(N   0,C   1,C   2)          115.30 -0.000461   -0.04    115.25   
    31. A(C   1,C   2,H  15)          107.65 -0.000499    0.57    108.22   
    32. A(C   3,C   2,H  14)          111.73  0.001049   -1.20    110.53   
    33. A(C   1,C   2,H  14)          108.94 -0.001067   -0.10    108.85   
    34. A(H  14,C   2,H  15)          107.44 -0.001786    1.37    108.81   
    35. A(C   1,C   2,C   3)          112.44  0.003387   -1.23    111.21   
    36. A(C   3,C   2,H  15)          108.43 -0.001372    0.90    109.34   
    37. A(C   2,C   3,C   4)          126.70 -0.003953    0.88    127.57   
    38. A(C   2,C   3,N   7)          124.01  0.003850   -1.22    122.79   
    39. A(C   4,C   3,N   7)          109.28  0.000113    0.34    109.62   
    40. A(N   5,C   4,H  16)          125.60  0.004988   -1.30    124.31   
    41. A(C   3,C   4,H  16)          128.44 -0.003717    1.34    129.79   
    42. A(C   3,C   4,N   5)          105.96 -0.001270   -0.05    105.91   
    43. A(C   4,N   5,H  17)          125.21 -0.002276    0.67    125.88   
    44. A(C   4,N   5,C   6)          106.89  0.001594   -0.47    106.42   
    45. A(C   6,N   5,H  17)          127.89  0.000682   -0.20    127.70   
    46. A(N   5,C   6,H  18)          122.28 -0.001790    0.46    122.74   
    47. A(N   7,C   6,H  18)          125.88  0.002644   -1.05    124.84   
    48. A(N   5,C   6,N   7)          111.83 -0.000854    0.59    112.42   
    49. A(C   3,N   7,C   6)          106.04  0.000418   -0.41    105.63   
    50. A(O   9,C   8,O  10)          121.84 -0.008290    2.05    123.88   
    51. A(C   1,C   8,O  10)          115.44  0.007810   -2.79    112.65   
    52. A(C   1,C   8,O   9)          122.72  0.000482    0.74    123.46   
    53. A(C   8,O  10,H  19)          116.19  0.006284   -2.30    113.89   
    54. D(C   8,C   1,N   0,H  11)   -160.60 -0.002543    2.00   -158.60   
    55. D(C   2,C   1,N   0,H  11)    -37.00 -0.000100    1.17    -35.83   
    56. D(H  13,C   1,N   0,H  11)     83.35 -0.001286    1.48     84.83   
    57. D(C   8,C   1,N   0,H  12)    -37.50 -0.001508    0.47    -37.03   
    58. D(C   2,C   1,N   0,H  12)     86.10  0.000935   -0.37     85.74   
    59. D(C   3,C   2,C   1,N   0)    -62.20  0.000969   -0.95    -63.16   
    60. D(H  14,C   2,C   1,H  13)     52.67 -0.001253    1.51     54.19   
    61. D(H  14,C   2,C   1,C   8)    -64.57 -0.001772    2.45    -62.12   
    62. D(H  14,C   2,C   1,N   0)    173.37 -0.001964    1.66    175.03   
    63. D(C   3,C   2,C   1,C   8)     59.86  0.001162   -0.16     59.70   
    64. D(C   3,C   2,C   1,H  13)    177.10  0.001681   -1.09    176.00   
    65. D(C   4,C   3,C   2,H  15)    -28.19 -0.000801   -0.42    -28.60   
    66. D(C   4,C   3,C   2,H  14)   -146.41  0.001639   -2.00   -148.41   
    67. D(N   7,C   3,C   2,C   1)    -88.17 -0.000992    1.47    -86.70   
    68. D(C   4,C   3,C   2,C   1)     90.72 -0.000259    0.16     90.88   
    69. D(N   7,C   3,C   2,H  14)     34.70  0.000905   -0.69     34.01   
    70. D(H  16,C   4,C   3,N   7)    179.96  0.000082   -0.03    179.93   
    71. D(H  16,C   4,C   3,C   2)      0.93 -0.000606    1.08      2.01   
    72. D(N   5,C   4,C   3,N   7)     -0.00  0.000074   -0.01     -0.02   
    73. D(N   5,C   4,C   3,C   2)   -179.03 -0.000614    1.10   -177.93   
    74. D(H  17,N   5,C   4,H  16)      0.06 -0.000022    0.02      0.07   
    75. D(H  17,N   5,C   4,C   3)   -179.98 -0.000019   -0.00   -179.99   
    76. D(C   6,N   5,C   4,H  16)   -179.98 -0.000057    0.03   -179.95   
    77. D(C   6,N   5,C   4,C   3)     -0.02 -0.000054    0.01     -0.01   
    78. D(H  18,C   6,N   5,H  17)      0.02 -0.000024    0.03      0.05   
    79. D(H  18,C   6,N   5,C   4)   -179.94  0.000014    0.02   -179.92   
    80. D(N   7,C   6,N   5,H  17)    180.00 -0.000022    0.01    180.01   
    81. D(N   7,C   6,N   5,C   4)      0.04  0.000016   -0.01      0.03   
    82. D(C   3,N   7,C   6,N   5)     -0.04  0.000030   -0.00     -0.04   
    83. D(C   6,N   7,C   3,C   4)      0.03 -0.000064    0.01      0.04   
    84. D(C   6,N   7,C   3,C   2)    179.08  0.000510   -1.10    177.98   
    85. D(C   3,N   7,C   6,H  18)    179.94  0.000032   -0.03    179.91   
    86. D(O  10,C   8,C   1,C   2)     56.87 -0.001586    4.09     60.96   
    87. D(O  10,C   8,C   1,N   0)   -176.59 -0.001150    4.13   -172.46   
    88. D(O   9,C   8,C   1,H  13)    120.56 -0.002033    4.47    125.03   
    89. D(O   9,C   8,C   1,C   2)   -122.32 -0.001642    3.80   -118.51   
    90. D(O   9,C   8,C   1,N   0)      4.22 -0.001206    3.84      8.06   
    91. D(H  19,O  10,C   8,O   9)    -21.37 -0.006451   15.18     -6.19   
    92. D(H  19,O  10,C   8,C   1)    159.44 -0.006582   14.91    174.35   
    ----------------------------------------------------------------------------

Geometry step timings:
Preparation and reading OPT file:      0.000 s ( 0.690 %)
Internal coordinates            :      0.000 s ( 0.777 %)
B/P matrices and projection     :      0.000 s (37.964 %)
Hessian update/contruction      :      0.000 s (10.095 %)
Making the step                 :      0.000 s (30.544 %)
Converting the step to Cartesian:      0.000 s ( 4.573 %)
Storing new data                :      0.000 s ( 0.863 %)
Checking convergence            :      0.000 s ( 1.208 %)
Final printing                  :      0.000 s (13.287 %)
Total time                      :      0.001 s

Time for energy+gradient        :      0.015 s
Time for complete geometry iter :      0.016 s

         *************************************************************
         *                GEOMETRY OPTIMIZATION CYCLE   4            *
         *************************************************************
---------------------------------
CARTESIAN COORDINATES (ANGSTROEM)
---------------------------------
  N    -1.292238   -0.347943    1.829900
  C    -1.569027   -0.555419    0.423106
  C    -0.432749   -1.255208   -0.384375
  C     0.804372   -0.424610   -0.402177
  C     1.848349   -0.460559    0.486277
  N     2.716790    0.511750    0.082559
  C     2.168593    1.082584   -1.013459
  N     1.027056    0.549613   -1.331476
  C    -1.876411    0.781664   -0.219169
  O    -1.741531    1.838567    0.349715
  O    -2.291159    0.664843   -1.455844
  H    -0.759457   -1.116970    2.206201
  H    -0.785194    0.518844    1.941773
  H    -2.469463   -1.175914    0.340343
  H    -0.784371   -1.435654   -1.397651
  H    -0.217714   -2.214094    0.089610
  H     2.002928   -1.090743    1.331991
  H     3.587707    0.743523    0.524895
  H     2.639121    1.882695   -1.545933
  H    -2.575604    1.503030   -1.856287

----------------------------
CARTESIAN COORDINATES (A.U.)
----------------------------
  NO LB    ZA    FRAG    MASS        X           Y           Z
   0 N   7.0000    0    14.007   -2.441975   -0.657516    3.458009
   1 C   6.0000    0    12.011   -2.965031   -1.049589    0.799555
   2 C   6.0000    0    12.011   -0.817777   -2.371999   -0.726363
   3 C   6.0000    0    12.011    1.520044   -0.802397   -0.760004
   4 C   6.0000    0    12.011    3.492873   -0.870330    0.918930
   5 N   7.0000    0    14.007    5.133989    0.967067    0.156014
   6 C   6.0000    0    12.011    4.098048    2.045787   -1.915160
   7 N   7.0000    0    14.007    1.940854    1.038618   -2.516125
   8 C   6.0000    0    12.011   -3.545903    1.477132   -0.414169
   9 O   8.0000    0    15.999   -3.291017    3.474388    0.660866
  10 O   8.0000    0    15.999   -4.329663    1.256370   -2.751147
  11 H   1.0000    0     1.008   -1.435166   -2.110768    4.169116
  12 H   1.0000    0     1.008   -1.483801    0.980473    3.669419
  13 H   1.0000    0     1.008   -4.666609   -2.222155    0.643156
  14 H   1.0000    0     1.008   -1.482247   -2.712992   -2.641177
  15 H   1.0000    0     1.008   -0.411419   -4.184031    0.169338
  16 H   1.0000    0     1.008    3.784986   -2.061205    2.517098
  17 H   1.0000    0     1.008    6.779783    1.405055    0.991907
  18 H   1.0000    0     1.008    4.987216    3.557778   -2.921390
  19 H   1.0000    0     1.008   -4.867185    2.840315   -3.507873

      -----------------------------------------------------------      
     |                   =====================                   |     
     |                           x T B                           |     
     |                   =====================                   |     
     |                         S. Grimme                         |     
     |          Mulliken Center for Theoretical Chemistry        |     
     |                    University of Bonn                     |     
      -----------------------------------------------------------      

   * xtb version 6.7.1 (edcfbbe) compiled by 'albert@albert-system' on 2024-07-22

   xtb is free software: you can redistribute it and/or modify it under
   the terms of the GNU Lesser General Public License as published by
   the Free Software Foundation, either version 3 of the License, or
   (at your option) any later version.
   
   xtb is distributed in the hope that it will be useful,
   but WITHOUT ANY WARRANTY; without even the implied warranty of
   MERCHANTABILITY or FITNESS FOR A PARTICULAR PURPOSE.  See the
   GNU Lesser General Public License for more details.
   
   Cite this work as:
   * C. Bannwarth, E. Caldeweyher, S. Ehlert, A. Hansen, P. Pracht,
     J. Seibert, S. Spicher, S. Grimme, WIREs Comput. Mol. Sci., 2020, 11,
     e01493. DOI: 10.1002/wcms.1493
   
   for GFN2-xTB:
   * C. Bannwarth, S. Ehlert and S. Grimme., J. Chem. Theory Comput., 2019,
     15, 1652-1671. DOI: 10.1021/acs.jctc.8b01176
   for GFN1-xTB:
   * S. Grimme, C. Bannwarth, P. Shushkov, J. Chem. Theory Comput., 2017,
     13, 1989-2009. DOI: 10.1021/acs.jctc.7b00118
   for GFN0-xTB:
   * P. Pracht, E. Caldeweyher, S. Ehlert, S. Grimme, ChemRxiv, 2019, preprint.
     DOI: 10.26434/chemrxiv.8326202.v1
   for GFN-FF:
   * S. Spicher and S. Grimme, Angew. Chem. Int. Ed., 2020, 59, 15665-15673.
     DOI: 10.1002/anie.202004239
   
   for ALPB and GBSA implicit solvation:
   * S. Ehlert, M. Stahn, S. Spicher, S. Grimme, J. Chem. Theory Comput.,
     2021, 17, 4250-4261. DOI: 10.1021/acs.jctc.1c00471
   
   for ddCOSMO and CPCM-X implicit solvation:
   * M. Stahn, S. Ehlert, S. Grimme, J. Phys. Chem. A,
     2023, XX, XXXX-XXXX. DOI: 10.1021/acs.jpca.3c04382
   
   for DFT-D4:
   * E. Caldeweyher, C. Bannwarth and S. Grimme, J. Chem. Phys., 2017,
     147, 034112. DOI: 10.1063/1.4993215
   * E. Caldeweyher, S. Ehlert, A. Hansen, H. Neugebauer, S. Spicher,
     C. Bannwarth and S. Grimme, J. Chem. Phys., 2019, 150, 154122.
     DOI: 10.1063/1.5090222
   * E. Caldeweyher, J.-M. Mewes, S. Ehlert and S. Grimme, Phys. Chem. Chem. Phys.
     2020, 22, 8499-8512. DOI: 10.1039/D0CP00502A
   
   for sTDA-xTB:
   * S. Grimme and C. Bannwarth, J. Chem. Phys., 2016, 145, 054103.
     DOI: 10.1063/1.4959605
   
   in the mass-spec context:
   * V. Asgeirsson, C. Bauer and S. Grimme, Chem. Sci., 2017, 8, 4879.
     DOI: 10.1039/c7sc00601b
   * J. Koopman and S. Grimme, ACS Omega 2019, 4, 12, 15120-15133.
     DOI: 10.1021/acsomega.9b02011
   
   for metadynamics refer to:
   * S. Grimme, J. Chem. Theory Comput., 2019, 155, 2847-2862
     DOI: 10.1021/acs.jctc.9b00143
   
   for SPH calculations refer to:
   * S. Spicher and S. Grimme, J. Chem. Theory Comput., 2021, 17, 1701-1714
     DOI: 10.1021/acs.jctc.0c01306
   
   for ONIOM refer to:
   * C. Plett, A. Katbashev, S. Ehlert, S. Grimme, M. Bursch,
     Phys. Chem. Chem. Phys., 2023, 25, 17860-17868. DOI: 10.1039/D3CP02178E
   
   for DIPRO refer to:
   * J. Kohn, N. Gildemeister, S. Grimme, D. Fazzi, A. Hansen,
     J. Chem. Phys., 2023, just accepted.
   
   for PTB refer to:
   * S. Grimme, M. Mueller, A. Hansen, J. Chem. Phys., 2023, 158, 124111.
     DOI: 10.1063/5.0137838
   
   with help from (in alphabetical order)
   P. Atkinson, C. Bannwarth, F. Bohle, G. Brandenburg, E. Caldeweyher
   M. Checinski, S. Dohm, S. Ehlert, S. Ehrlich, I. Gerasimov, C. Hölzer
   A. Katbashev, J. Kohn, J. Koopman, C. Lavigne, S. Lehtola, F. März, M. Müller,
   F. Musil, H. Neugebauer, J. Pisarek, C. Plett, P. Pracht, F. Pultar,
   J. Seibert, P. Shushkov, S. Spicher, M. Stahn, M. Steiner, T. Strunk,
   J. Stückrath, T. Rose, and J. Unsleber
   
 * started run on 2026/04/09 at 15:47:05.920     
   ID    Z sym.   atoms
    1    7 N      1, 6, 8
    2    6 C      2-5, 7, 9
    3    8 O      10, 11
    4    1 H      12-20

           -------------------------------------------------
          |                Calculation Setup                |
           -------------------------------------------------

          program call               : /home/analima/Programs/orca-6.1.0-f.0_linux_x86-64/bin/otool_xtb geo_opt_XTB.xyz --grad -c 0 -u 0 -P 1 --namespace geo_opt --input geo_opt_XTB.input.tmp --alpb WATER --acc 0.200000
          calculation namespace      : geo_opt
          coordinate file            : geo_opt_XTB.xyz
          omp threads                :                     1


           -------------------------------------------------
          |                 G F N 2 - x T B                 |
           -------------------------------------------------

        Reference                      10.1021/acs.jctc.8b01176
      * Hamiltonian:
        H0-scaling (s, p, d)           1.850000    2.230000    2.230000
        zeta-weighting                 0.500000
      * Dispersion:
        s8                             2.700000
        a1                             0.520000
        a2                             5.000000
        s9                             5.000000
      * Repulsion:
        kExp                           1.500000    1.000000
        rExp                           1.000000
      * Coulomb:
        alpha                          2.000000
        third order                    shell-resolved
        anisotropic                    true
        a3                             3.000000
        a5                             4.000000
        cn-shift                       1.200000
        cn-exp                         4.000000
        max-rad                        5.000000

      * Solvation model:               ALPB
        Solvent                        WATER
        Parameter file                 internal GFN2-xTB/ALPB
        Dielectric constant                8.0200E+01
        Reference state                gsolv [1 M gas/solution]
        Free energy shift                  1.0808E-03 Eh       6.7819E-01 kcal/mol
        Temperature                        2.9815E+02 K
        Density                            1.0000E+00 kg/L
        Solvent mass                       1.8000E+01 g/mol
        Interaction kernel             P16
        Born radius scaling (c1)           1.4744E+00
        Born radii integrator          GBOBC
        Born offset                        0.0000E+00 a0       0.0000E+00 AA
        H-bond correction              true
        Ion screening                  false
        Surface tension                    1.0000E-05 Eh       1.5569E+01 dyn/cm
        Grid points                               230 per atom
q/qsh data taken from xtbrestart
CAMM data taken from xtbrestart

          ...................................................
          :                      SETUP                      :
          :.................................................:
          :  # basis functions                  53          :
          :  # atomic orbitals                  53          :
          :  # shells                           31          :
          :  # electrons                        60          :
          :  max. iterations                   250          :
          :  Hamiltonian                  GFN2-xTB          :
          :  restarted?                       true          :
          :  GBSA solvation                   true          :
          :  PC potential                    false          :
          :  electronic temp.          300.0000000     K    :
          :  accuracy                    0.2000000          :
          :  -> integral cutoff          0.3198970E+02      :
          :  -> integral neglect         0.2000000E-08      :
          :  -> SCF convergence          0.2000000E-06 Eh   :
          :  -> wf. convergence          0.2000000E-04 e    :
          :  Broyden damping             0.4000000          :
          :  net charge                          0          :
          :  unpaired electrons                  0          :
          ...................................................

 iter      E             dE          RMSdq      gap      omega  full diag
   1    -34.7720233 -0.347720E+02  0.277E-01    3.65       0.0  T
   2    -34.7720807 -0.573252E-04  0.161E-01    3.65       1.0  T
   3    -34.7720713  0.939734E-05  0.470E-02    3.63       1.0  T
   4    -34.7720910 -0.197344E-04  0.146E-02    3.63       1.5  T
   5    -34.7720925 -0.154318E-05  0.666E-03    3.64       3.4  T
   6    -34.7720926 -0.837334E-07  0.332E-03    3.64       6.7  T
   7    -34.7720927 -0.420413E-07  0.957E-04    3.64      23.4  T
   8    -34.7720927 -0.589720E-08  0.432E-04    3.64      51.8  T
   9    -34.7720927 -0.538762E-09  0.178E-04    3.64     125.5  T
  10    -34.7720927 -0.111228E-09  0.746E-05    3.64     299.9  T

   *** convergence criteria satisfied after 10 iterations ***

         #    Occupation            Energy/Eh            Energy/eV
      -------------------------------------------------------------
         1        2.0000           -0.7441198             -20.2485
       ...           ...                  ...                  ...
        24        2.0000           -0.4585821             -12.4787
        25        2.0000           -0.4503418             -12.2544
        26        2.0000           -0.4296372             -11.6910
        27        2.0000           -0.4203347             -11.4379
        28        2.0000           -0.3867418             -10.5238
        29        2.0000           -0.3822895             -10.4026
        30        2.0000           -0.3675295             -10.0010 (HOMO)
        31                         -0.2339130              -6.3651 (LUMO)
        32                         -0.2013800              -5.4798
        33                         -0.1682081              -4.5772
        34                          0.0336057               0.9145
        35                          0.0434769               1.1831
       ...                                ...                  ...
        53                          0.6332538              17.2317
      -------------------------------------------------------------
                  HL-Gap            0.1336165 Eh            3.6359 eV
             Fermi-level           -0.3007212 Eh           -8.1830 eV

 SCC (total)                   0 d,  0 h,  0 min,  0.012 sec
 SCC setup                      ...        0 min,  0.000 sec (  2.039%)
 Dispersion                     ...        0 min,  0.000 sec (  0.461%)
 classical contributions        ...        0 min,  0.000 sec (  0.106%)
 integral evaluation            ...        0 min,  0.001 sec (  7.777%)
 iterations                     ...        0 min,  0.006 sec ( 53.525%)
 molecular gradient             ...        0 min,  0.004 sec ( 35.444%)
 printout                       ...        0 min,  0.000 sec (  0.545%)

         :::::::::::::::::::::::::::::::::::::::::::::::::::::
         ::                     SUMMARY                     ::
         :::::::::::::::::::::::::::::::::::::::::::::::::::::
         :: total energy             -34.363173548559 Eh    ::
         :: total w/o Gsasa/hb       -34.349442557306 Eh    ::
         :: gradient norm              0.021343684865 Eh/a0 ::
         :: HOMO-LUMO gap              3.635890113196 eV    ::
         ::.................................................::
         :: SCC energy               -34.771962071978 Eh    ::
         :: -> isotropic ES            0.096388910339 Eh    ::
         :: -> anisotropic ES          0.004027330918 Eh    ::
         :: -> anisotropic XC          0.015097779716 Eh    ::
         :: -> dispersion             -0.017109427887 Eh    ::
         :: -> Gsolv                  -0.029540163308 Eh    ::
         ::    -> Gelec               -0.015809172055 Eh    ::
         ::    -> Gsasa               -0.001544084001 Eh    ::
         ::    -> Ghb                 -0.013267666950 Eh    ::
         ::    -> Gshift               0.001080759698 Eh    ::
         :: repulsion energy           0.408788523419 Eh    ::
         :: add. restraining           0.000000000000 Eh    ::
         :: total charge              -0.000000000000 e     ::
         :::::::::::::::::::::::::::::::::::::::::::::::::::::


Property printout bound to 'properties.out'

           -------------------------------------------------
          | TOTAL ENERGY              -34.363173548559 Eh   |
          | GRADIENT NORM               0.021343684865 Eh/α |
          | HOMO-LUMO GAP               3.635890113196 eV   |
           -------------------------------------------------

------------------------------------------------------------------------
 * finished run on 2026/04/09 at 15:47:05.938     
------------------------------------------------------------------------
 total:
 * wall-time:     0 d,  0 h,  0 min,  0.018 sec
 *  cpu-time:     0 d,  0 h,  0 min,  0.016 sec
 * ratio c/w:     0.863 speedup
 SCF:
 * wall-time:     0 d,  0 h,  0 min,  0.012 sec
 *  cpu-time:     0 d,  0 h,  0 min,  0.011 sec
 * ratio c/w:     0.862 speedup


-------------------------   --------------------
FINAL SINGLE POINT ENERGY       -34.363173548560
-------------------------   --------------------


-------------
DIPOLE MOMENT
-------------
                                X             Y             Z
Total Dipole Moment    :      1.57400      -0.68800       0.03800
                        -----------------------------------------
Magnitude (a.u.)       :      1.71822
Magnitude (Debye)      :      4.36736


------------------
CARTESIAN GRADIENT
------------------

   1   N   :    0.004836933    0.000864700    0.002463961
   2   C   :   -0.001637491    0.003165702   -0.000038487
   3   C   :    0.001011063   -0.000684502   -0.002327549
   4   C   :    0.001641701    0.003653487   -0.002235376
   5   C   :    0.004466647   -0.001251785    0.003490313
   6   N   :    0.001407065    0.001073785    0.000011357
   7   C   :   -0.007254447   -0.003447708   -0.002233553
   8   N   :    0.004678616    0.001518671    0.002088601
   9   C   :   -0.003062125    0.004818398   -0.000863293
  10   O   :   -0.000580081   -0.007919793   -0.002062572
  11   O   :    0.005438730    0.005699943    0.002871731
  12   H   :   -0.002888052    0.001271748   -0.000819968
  13   H   :   -0.002657745   -0.001410197   -0.001940705
  14   H   :    0.000307371    0.000551496    0.000819515
  15   H   :    0.000165654   -0.001756498    0.001107481
  16   H   :    0.000327383    0.000020778   -0.000582540
  17   H   :   -0.002718767    0.000393347   -0.002129030
  18   H   :   -0.002343900   -0.001169850   -0.000598163
  19   H   :    0.000286838   -0.000615389    0.001000840
  20   H   :   -0.001425393   -0.004776332    0.001977437

Difference to translation invariance:
           :   -0.0000000000    0.0000000000    0.0000000000

Difference to rotation invariance:
           :    0.0000024607   -0.0004326203    0.0000192275

Norm of the Cartesian gradient     ...    0.0213436849
RMS gradient                       ...    0.0027554579
MAX gradient                       ...    0.0079197927
------------------------------------------------------------------------------
                         ORCA GEOMETRY RELAXATION STEP
------------------------------------------------------------------------------

Reading the OPT-File                    .... done
Getting information on internals        .... done
Copying old internal coords+grads       .... done
Making the new internal coordinates     .... (2022 redundants) done
Validating the new internal coordinates .... (2022 redundants) done
Calculating the B-matrix                .... done
Calculating the G,G- and P matrices     .... done
Transforming gradient to internals      .... done
Projecting the internal gradient        .... done
Number of atoms                         ....  20
Number of internal coordinates          ....  92
Current Energy                          ....   -34.363173549 Eh
Current gradient norm                   ....     0.021343685 Eh/bohr
Maximum allowed component of the step   ....  0.300
Current trust radius                    ....  0.675
Updating the Hessian (BFGS)             .... done
Forming the augmented Hessian           .... done
Diagonalizing the augmented Hessian     .... done
Last element of RFO vector              ....  0.952160807
Lowest eigenvalues of augmented Hessian:
 -0.002176016  0.012961448  0.014578946  0.015130266  0.015304524
Length of the computed step             ....  0.320951505
The final length of the internal step   ....  0.320951505
Converting the step to Cartesian space:
 Initial RMS(Int)=    0.0334615075
Transforming coordinates:
 Iter   0:  RMS(Cart)=    0.0547890731 RMS(Int)=    1.3039057091
 Iter   5:  RMS(Cart)=    0.0000133552 RMS(Int)=    0.0000101511
done
Storing new coordinates                 .... done
The predicted energy change is          ....    -0.001200083
Previously predicted energy change      ....    -0.004017657
Actually observed energy change         ....    -0.004629102
Ratio of predicted to observed change   ....     1.152189359
New trust radius                        ....     0.700000000

                                .--------------------.
          ----------------------|Geometry convergence|-------------------------
          Item                value                   Tolerance       Converged
          ---------------------------------------------------------------------
          Energy change      -0.0046291021            0.0000050000      NO
          RMS gradient        0.0017869704            0.0001000000      NO
          MAX gradient        0.0077363950            0.0003000000      NO
          RMS step            0.0334615075            0.0020000000      NO
          MAX step            0.1601033157            0.0040000000      NO
          -------------------------------------------------------------------------
          ........................................................
          Max(Bonds)      0.0244      Max(Angles)    1.06
          Max(Dihed)        9.17      Max(Improp)    0.00
          ---------------------------------------------------------------------

The optimization has not yet converged - more geometry cycles are needed


    ---------------------------------------------------------------------------
                         Redundant Internal Coordinates
                            (Angstroem and degrees)

        Definition                    Value    dE/dq     Step     New-Value
    ----------------------------------------------------------------------------
     1. B(C   1,N   0)                1.4487  0.000863 -0.0001    1.4486   
     2. B(C   2,C   1)                1.5598  0.003492 -0.0020    1.5577   
     3. B(C   3,C   2)                1.4902  0.000224  0.0005    1.4907   
     4. B(C   4,C   3)                1.3713 -0.000375 -0.0016    1.3697   
     5. B(N   5,C   4)                1.3648 -0.002062  0.0035    1.3683   
     6. B(C   6,N   5)                1.3519  0.000628 -0.0011    1.3508   
     7. B(N   7,C   3)                1.3647 -0.002134  0.0029    1.3676   
     8. B(N   7,C   6)                1.2993 -0.006168  0.0046    1.3039   
     9. B(C   8,C   1)                1.5149 -0.001267  0.0061    1.5210   
    10. B(O   9,C   8)                1.2078 -0.007736  0.0034    1.2112   
    11. B(O  10,C   8)                1.3096 -0.005942  0.0036    1.3132   
    12. B(H  11,N   0)                1.0084 -0.002798  0.0034    1.0118   
    13. B(H  12,N   0)                1.0104 -0.003119  0.0037    1.0141   
    14. B(H  12,O   9)                2.2784 -0.001737  0.0244    2.3028   
    15. B(H  13,C   1)                1.0967 -0.000627  0.0005    1.0972   
    16. B(H  14,C   2)                1.0876 -0.000794  0.0008    1.0884   
    17. B(H  15,C   2)                1.0910 -0.000207 -0.0008    1.0903   
    18. B(H  16,C   4)                1.0660 -0.002319  0.0030    1.0689   
    19. B(H  17,N   5)                1.0039 -0.002570  0.0025    1.0065   
    20. B(H  18,C   6)                1.0701 -0.000831  0.0013    1.0713   
    21. B(H  19,O  10)                0.9715 -0.004519  0.0059    0.9774   
    22. A(C   1,N   0,H  12)          109.04 -0.000352    0.10    109.14   
    23. A(H  11,N   0,H  12)          110.35  0.000866   -0.98    109.37   
    24. A(C   1,N   0,H  11)          110.74  0.000092   -0.43    110.31   
    25. A(N   0,C   1,C   8)          108.91 -0.000437    0.90    109.81   
    26. A(C   8,C   1,H  13)          107.51 -0.000677    0.09    107.59   
    27. A(N   0,C   1,H  13)          108.13 -0.000490    0.27    108.40   
    28. A(C   2,C   1,H  13)          107.77 -0.000275    0.21    107.99   
    29. A(C   2,C   1,C   8)          108.92  0.001388   -1.06    107.87   
    30. A(N   0,C   1,C   2)          115.33  0.000393   -0.39    114.94   
    31. A(C   1,C   2,H  15)          108.24  0.000051    0.27    108.51   
    32. A(C   3,C   2,H  14)          110.47  0.000253   -0.68    109.79   
    33. A(C   1,C   2,H  14)          108.74 -0.000280   -0.20    108.54   
    34. A(H  14,C   2,H  15)          108.82 -0.000811    0.86    109.68   
    35. A(C   1,C   2,C   3)          111.16  0.001612   -0.77    110.39   
    36. A(C   3,C   2,H  15)          109.36 -0.000872    0.62    109.97   
    37. A(C   2,C   3,C   4)          127.56 -0.003105    0.76    128.33   
    38. A(C   2,C   3,N   7)          122.79  0.001501   -0.63    122.15   
    39. A(C   4,C   3,N   7)          109.61  0.001616   -0.15    109.47   
    40. A(N   5,C   4,H  16)          124.31  0.003534   -1.00    123.30   
    41. A(C   3,C   4,H  16)          129.79 -0.001647    0.79    130.58   
    42. A(C   3,C   4,N   5)          105.91 -0.001887    0.21    106.12   
    43. A(C   4,N   5,H  17)          125.89 -0.000517    0.29    126.17   
    44. A(C   4,N   5,C   6)          106.42 -0.000464   -0.05    106.37   
    45. A(C   6,N   5,H  17)          127.70  0.000980   -0.24    127.46   
    46. A(N   5,C   6,H  18)          122.74 -0.001662    0.42    123.16   
    47. A(N   7,C   6,H  18)          124.83  0.000099   -0.36    124.47   
    48. A(N   5,C   6,N   7)          112.43  0.001562   -0.06    112.36   
    49. A(C   3,N   7,C   6)          105.64 -0.000827    0.04    105.68   
    50. A(O   9,C   8,O  10)          123.93  0.000572    0.22    124.16   
    51. A(C   1,C   8,O  10)          112.70 -0.000648   -0.74    111.96   
    52. A(C   1,C   8,O   9)          123.37  0.000072    0.51    123.88   
    53. A(C   8,O  10,H  19)          113.89  0.001678   -1.00    112.89   
    54. D(C   8,C   1,N   0,H  11)   -158.61 -0.001773    1.69   -156.92   
    55. D(C   2,C   1,N   0,H  11)    -35.83 -0.000010    0.77    -35.06   
    56. D(H  13,C   1,N   0,H  11)     84.85 -0.000469    0.98     85.83   
    57. D(C   8,C   1,N   0,H  12)    -37.00 -0.000868    0.22    -36.79   
    58. D(C   2,C   1,N   0,H  12)     85.78  0.000896   -0.71     85.07   
    59. D(C   3,C   2,C   1,N   0)    -63.11  0.000076   -0.46    -63.57   
    60. D(H  14,C   2,C   1,H  13)     54.19 -0.000508    0.82     55.01   
    61. D(H  14,C   2,C   1,C   8)    -62.16 -0.000291    1.16    -61.00   
    62. D(H  14,C   2,C   1,N   0)    175.07 -0.001084    1.07    176.14   
    63. D(C   3,C   2,C   1,C   8)     59.66  0.000868   -0.37     59.29   
    64. D(C   3,C   2,C   1,H  13)    176.01  0.000652   -0.71    175.30   
    65. D(C   4,C   3,C   2,H  15)    -28.60 -0.000450   -0.75    -29.35   
    66. D(C   4,C   3,C   2,H  14)   -148.35  0.000944   -1.79   -150.14   
    67. D(N   7,C   3,C   2,C   1)    -86.76 -0.000380    0.60    -86.16   
    68. D(C   4,C   3,C   2,C   1)     90.85  0.000055   -0.48     90.36   
    69. D(N   7,C   3,C   2,H  14)     34.04  0.000509   -0.71     33.34   
    70. D(H  16,C   4,C   3,N   7)    179.91 -0.000004    0.09    180.00   
    71. D(H  16,C   4,C   3,C   2)      2.05 -0.000406    1.04      3.09   
    72. D(N   5,C   4,C   3,N   7)     -0.02  0.000094   -0.16     -0.18   
    73. D(N   5,C   4,C   3,C   2)   -177.89 -0.000309    0.79   -177.10   
    74. D(H  17,N   5,C   4,H  16)      0.08  0.000053   -0.16     -0.09   
    75. D(H  17,N   5,C   4,C   3)   -179.99 -0.000042    0.10   -179.89   
    76. D(C   6,N   5,C   4,H  16)   -179.94  0.000012   -0.12   -180.06   
    77. D(C   6,N   5,C   4,C   3)     -0.00 -0.000083    0.15      0.14   
    78. D(H  18,C   6,N   5,H  17)      0.06 -0.000029    0.05      0.11   
    79. D(H  18,C   6,N   5,C   4)   -179.92  0.000014    0.00   -179.92   
    80. D(N   7,C   6,N   5,H  17)   -179.99  0.000004   -0.03   -180.02   
    81. D(N   7,C   6,N   5,C   4)      0.03  0.000046   -0.08     -0.05   
    82. D(C   3,N   7,C   6,N   5)     -0.04  0.000012   -0.03     -0.07   
    83. D(C   6,N   7,C   3,C   4)      0.04 -0.000066    0.11      0.15   
    84. D(C   6,N   7,C   3,C   2)    178.02  0.000195   -0.79    177.23   
    85. D(C   3,N   7,C   6,H  18)    179.91  0.000045   -0.11    179.80   
    86. D(O  10,C   8,C   1,C   2)     60.98 -0.001939    6.91     67.89   
    87. D(O  10,C   8,C   1,N   0)   -172.47 -0.000798    6.35   -166.13   
    88. D(O   9,C   8,C   1,H  13)    125.00 -0.001590    5.34    130.35   
    89. D(O   9,C   8,C   1,C   2)   -118.48 -0.001554    5.08   -113.40   
    90. D(O   9,C   8,C   1,N   0)      8.07 -0.000412    4.52     12.59   
    91. D(H  19,O  10,C   8,O   9)     -6.19 -0.002498    9.17      2.98   
    92. D(H  19,O  10,C   8,C   1)    174.36 -0.002106    7.42    181.78   
    ----------------------------------------------------------------------------

Geometry step timings:
Preparation and reading OPT file:      0.000 s ( 0.806 %)
Internal coordinates            :      0.000 s ( 0.895 %)
B/P matrices and projection     :      0.000 s (38.227 %)
Hessian update/contruction      :      0.000 s ( 9.758 %)
Making the step                 :      0.000 s (30.707 %)
Converting the step to Cartesian:      0.000 s ( 4.476 %)
Storing new data                :      0.000 s ( 0.895 %)
Checking convergence            :      0.000 s ( 1.164 %)
Final printing                  :      0.000 s (13.071 %)
Total time                      :      0.001 s

Time for energy+gradient        :      0.022 s
Time for complete geometry iter :      0.023 s

         *************************************************************
         *                GEOMETRY OPTIMIZATION CYCLE   5            *
         *************************************************************
---------------------------------
CARTESIAN COORDINATES (ANGSTROEM)
---------------------------------
  N    -1.283762   -0.359473    1.830073
  C    -1.568037   -0.556820    0.423916
  C    -0.442571   -1.271808   -0.381489
  C     0.795247   -0.441195   -0.392586
  C     1.837648   -0.458575    0.495879
  N     2.695759    0.528543    0.094217
  C     2.141261    1.092694   -1.000673
  N     1.004540    0.540393   -1.321574
  C    -1.835964    0.785765   -0.237126
  O    -1.597550    1.852280    0.284921
  O    -2.378572    0.650098   -1.425278
  H    -0.750307   -1.138664    2.193553
  H    -0.750359    0.495764    1.942821
  H    -2.481472   -1.158294    0.336130
  H    -0.791844   -1.425483   -1.400857
  H    -0.240425   -2.235440    0.086697
  H     2.016666   -1.081925    1.345598
  H     3.565358    0.775956    0.536461
  H     2.595627    1.900975   -1.537343
  H    -2.531243    1.505209   -1.873339

----------------------------
CARTESIAN COORDINATES (A.U.)
----------------------------
  NO LB    ZA    FRAG    MASS        X           Y           Z
   0 N   7.0000    0    14.007   -2.425959   -0.679306    3.458337
   1 C   6.0000    0    12.011   -2.963161   -1.052238    0.801085
   2 C   6.0000    0    12.011   -0.836337   -2.403368   -0.720910
   3 C   6.0000    0    12.011    1.502799   -0.833738   -0.741881
   4 C   6.0000    0    12.011    3.472651   -0.866582    0.937076
   5 N   7.0000    0    14.007    5.094246    0.998802    0.178043
   6 C   6.0000    0    12.011    4.046397    2.064892   -1.890998
   7 N   7.0000    0    14.007    1.898306    1.021194   -2.497414
   8 C   6.0000    0    12.011   -3.469470    1.484881   -0.448103
   9 O   8.0000    0    15.999   -3.018931    3.500303    0.538423
  10 O   8.0000    0    15.999   -4.494850    1.228508   -2.693385
  11 H   1.0000    0     1.008   -1.417875   -2.151763    4.145214
  12 H   1.0000    0     1.008   -1.417973    0.936859    3.671399
  13 H   1.0000    0     1.008   -4.689302   -2.188858    0.635193
  14 H   1.0000    0     1.008   -1.496368   -2.693773   -2.647236
  15 H   1.0000    0     1.008   -0.454337   -4.224369    0.163834
  16 H   1.0000    0     1.008    3.810947   -2.044543    2.542811
  17 H   1.0000    0     1.008    6.737550    1.466345    1.013765
  18 H   1.0000    0     1.008    4.905024    3.592322   -2.905157
  19 H   1.0000    0     1.008   -4.783357    2.844432   -3.540097

      -----------------------------------------------------------      
     |                   =====================                   |     
     |                           x T B                           |     
     |                   =====================                   |     
     |                         S. Grimme                         |     
     |          Mulliken Center for Theoretical Chemistry        |     
     |                    University of Bonn                     |     
      -----------------------------------------------------------      

   * xtb version 6.7.1 (edcfbbe) compiled by 'albert@albert-system' on 2024-07-22

   xtb is free software: you can redistribute it and/or modify it under
   the terms of the GNU Lesser General Public License as published by
   the Free Software Foundation, either version 3 of the License, or
   (at your option) any later version.
   
   xtb is distributed in the hope that it will be useful,
   but WITHOUT ANY WARRANTY; without even the implied warranty of
   MERCHANTABILITY or FITNESS FOR A PARTICULAR PURPOSE.  See the
   GNU Lesser General Public License for more details.
   
   Cite this work as:
   * C. Bannwarth, E. Caldeweyher, S. Ehlert, A. Hansen, P. Pracht,
     J. Seibert, S. Spicher, S. Grimme, WIREs Comput. Mol. Sci., 2020, 11,
     e01493. DOI: 10.1002/wcms.1493
   
   for GFN2-xTB:
   * C. Bannwarth, S. Ehlert and S. Grimme., J. Chem. Theory Comput., 2019,
     15, 1652-1671. DOI: 10.1021/acs.jctc.8b01176
   for GFN1-xTB:
   * S. Grimme, C. Bannwarth, P. Shushkov, J. Chem. Theory Comput., 2017,
     13, 1989-2009. DOI: 10.1021/acs.jctc.7b00118
   for GFN0-xTB:
   * P. Pracht, E. Caldeweyher, S. Ehlert, S. Grimme, ChemRxiv, 2019, preprint.
     DOI: 10.26434/chemrxiv.8326202.v1
   for GFN-FF:
   * S. Spicher and S. Grimme, Angew. Chem. Int. Ed., 2020, 59, 15665-15673.
     DOI: 10.1002/anie.202004239
   
   for ALPB and GBSA implicit solvation:
   * S. Ehlert, M. Stahn, S. Spicher, S. Grimme, J. Chem. Theory Comput.,
     2021, 17, 4250-4261. DOI: 10.1021/acs.jctc.1c00471
   
   for ddCOSMO and CPCM-X implicit solvation:
   * M. Stahn, S. Ehlert, S. Grimme, J. Phys. Chem. A,
     2023, XX, XXXX-XXXX. DOI: 10.1021/acs.jpca.3c04382
   
   for DFT-D4:
   * E. Caldeweyher, C. Bannwarth and S. Grimme, J. Chem. Phys., 2017,
     147, 034112. DOI: 10.1063/1.4993215
   * E. Caldeweyher, S. Ehlert, A. Hansen, H. Neugebauer, S. Spicher,
     C. Bannwarth and S. Grimme, J. Chem. Phys., 2019, 150, 154122.
     DOI: 10.1063/1.5090222
   * E. Caldeweyher, J.-M. Mewes, S. Ehlert and S. Grimme, Phys. Chem. Chem. Phys.
     2020, 22, 8499-8512. DOI: 10.1039/D0CP00502A
   
   for sTDA-xTB:
   * S. Grimme and C. Bannwarth, J. Chem. Phys., 2016, 145, 054103.
     DOI: 10.1063/1.4959605
   
   in the mass-spec context:
   * V. Asgeirsson, C. Bauer and S. Grimme, Chem. Sci., 2017, 8, 4879.
     DOI: 10.1039/c7sc00601b
   * J. Koopman and S. Grimme, ACS Omega 2019, 4, 12, 15120-15133.
     DOI: 10.1021/acsomega.9b02011
   
   for metadynamics refer to:
   * S. Grimme, J. Chem. Theory Comput., 2019, 155, 2847-2862
     DOI: 10.1021/acs.jctc.9b00143
   
   for SPH calculations refer to:
   * S. Spicher and S. Grimme, J. Chem. Theory Comput., 2021, 17, 1701-1714
     DOI: 10.1021/acs.jctc.0c01306
   
   for ONIOM refer to:
   * C. Plett, A. Katbashev, S. Ehlert, S. Grimme, M. Bursch,
     Phys. Chem. Chem. Phys., 2023, 25, 17860-17868. DOI: 10.1039/D3CP02178E
   
   for DIPRO refer to:
   * J. Kohn, N. Gildemeister, S. Grimme, D. Fazzi, A. Hansen,
     J. Chem. Phys., 2023, just accepted.
   
   for PTB refer to:
   * S. Grimme, M. Mueller, A. Hansen, J. Chem. Phys., 2023, 158, 124111.
     DOI: 10.1063/5.0137838
   
   with help from (in alphabetical order)
   P. Atkinson, C. Bannwarth, F. Bohle, G. Brandenburg, E. Caldeweyher
   M. Checinski, S. Dohm, S. Ehlert, S. Ehrlich, I. Gerasimov, C. Hölzer
   A. Katbashev, J. Kohn, J. Koopman, C. Lavigne, S. Lehtola, F. März, M. Müller,
   F. Musil, H. Neugebauer, J. Pisarek, C. Plett, P. Pracht, F. Pultar,
   J. Seibert, P. Shushkov, S. Spicher, M. Stahn, M. Steiner, T. Strunk,
   J. Stückrath, T. Rose, and J. Unsleber
   
 * started run on 2026/04/09 at 15:47:05.943     
   ID    Z sym.   atoms
    1    7 N      1, 6, 8
    2    6 C      2-5, 7, 9
    3    8 O      10, 11
    4    1 H      12-20

           -------------------------------------------------
          |                Calculation Setup                |
           -------------------------------------------------

          program call               : /home/analima/Programs/orca-6.1.0-f.0_linux_x86-64/bin/otool_xtb geo_opt_XTB.xyz --grad -c 0 -u 0 -P 1 --namespace geo_opt --input geo_opt_XTB.input.tmp --alpb WATER --acc 0.200000
          calculation namespace      : geo_opt
          coordinate file            : geo_opt_XTB.xyz
          omp threads                :                     1


           -------------------------------------------------
          |                 G F N 2 - x T B                 |
           -------------------------------------------------

        Reference                      10.1021/acs.jctc.8b01176
      * Hamiltonian:
        H0-scaling (s, p, d)           1.850000    2.230000    2.230000
        zeta-weighting                 0.500000
      * Dispersion:
        s8                             2.700000
        a1                             0.520000
        a2                             5.000000
        s9                             5.000000
      * Repulsion:
        kExp                           1.500000    1.000000
        rExp                           1.000000
      * Coulomb:
        alpha                          2.000000
        third order                    shell-resolved
        anisotropic                    true
        a3                             3.000000
        a5                             4.000000
        cn-shift                       1.200000
        cn-exp                         4.000000
        max-rad                        5.000000

      * Solvation model:               ALPB
        Solvent                        WATER
        Parameter file                 internal GFN2-xTB/ALPB
        Dielectric constant                8.0200E+01
        Reference state                gsolv [1 M gas/solution]
        Free energy shift                  1.0808E-03 Eh       6.7819E-01 kcal/mol
        Temperature                        2.9815E+02 K
        Density                            1.0000E+00 kg/L
        Solvent mass                       1.8000E+01 g/mol
        Interaction kernel             P16
        Born radius scaling (c1)           1.4744E+00
        Born radii integrator          GBOBC
        Born offset                        0.0000E+00 a0       0.0000E+00 AA
        H-bond correction              true
        Ion screening                  false
        Surface tension                    1.0000E-05 Eh       1.5569E+01 dyn/cm
        Grid points                               230 per atom
q/qsh data taken from xtbrestart
CAMM data taken from xtbrestart

          ...................................................
          :                      SETUP                      :
          :.................................................:
          :  # basis functions                  53          :
          :  # atomic orbitals                  53          :
          :  # shells                           31          :
          :  # electrons                        60          :
          :  max. iterations                   250          :
          :  Hamiltonian                  GFN2-xTB          :
          :  restarted?                       true          :
          :  GBSA solvation                   true          :
          :  PC potential                    false          :
          :  electronic temp.          300.0000000     K    :
          :  accuracy                    0.2000000          :
          :  -> integral cutoff          0.3198970E+02      :
          :  -> integral neglect         0.2000000E-08      :
          :  -> SCF convergence          0.2000000E-06 Eh   :
          :  -> wf. convergence          0.2000000E-04 e    :
          :  Broyden damping             0.4000000          :
          :  net charge                          0          :
          :  unpaired electrons                  0          :
          ...................................................

 iter      E             dE          RMSdq      gap      omega  full diag
   1    -34.7669927 -0.347670E+02  0.247E-01    3.61       0.0  T
   2    -34.7670045 -0.118097E-04  0.145E-01    3.62       1.0  T
   3    -34.7670081 -0.360612E-05  0.153E-02    3.62       1.5  T
   4    -34.7670097 -0.160988E-05  0.824E-03    3.62       2.7  T
   5    -34.7670097 -0.670308E-07  0.406E-03    3.62       5.5  T
   6    -34.7670098 -0.927405E-07  0.113E-03    3.62      19.8  T
   7    -34.7670099 -0.891156E-08  0.339E-04    3.62      66.0  T
   8    -34.7670099 -0.477925E-09  0.152E-04    3.62     146.8  T
   9    -34.7670099 -0.308162E-10  0.524E-05    3.62     427.0  T

   *** convergence criteria satisfied after 9 iterations ***

         #    Occupation            Energy/Eh            Energy/eV
      -------------------------------------------------------------
         1        2.0000           -0.7438397             -20.2409
       ...           ...                  ...                  ...
        24        2.0000           -0.4593008             -12.4982
        25        2.0000           -0.4509261             -12.2703
        26        2.0000           -0.4291166             -11.6769
        27        2.0000           -0.4205256             -11.4431
        28        2.0000           -0.3874047             -10.5418
        29        2.0000           -0.3830733             -10.4240
        30        2.0000           -0.3687583             -10.0344 (HOMO)
        31                         -0.2357980              -6.4164 (LUMO)
        32                         -0.2022804              -5.5043
        33                         -0.1691205              -4.6020
        34                          0.0302811               0.8240
        35                          0.0412561               1.1226
       ...                                ...                  ...
        53                          0.6253570              17.0168
      -------------------------------------------------------------
                  HL-Gap            0.1329602 Eh            3.6180 eV
             Fermi-level           -0.3022781 Eh           -8.2254 eV

 SCC (total)                   0 d,  0 h,  0 min,  0.017 sec
 SCC setup                      ...        0 min,  0.000 sec (  2.086%)
 Dispersion                     ...        0 min,  0.000 sec (  0.545%)
 classical contributions        ...        0 min,  0.000 sec (  0.115%)
 integral evaluation            ...        0 min,  0.002 sec ( 10.135%)
 iterations                     ...        0 min,  0.011 sec ( 61.611%)
 molecular gradient             ...        0 min,  0.004 sec ( 24.991%)
 printout                       ...        0 min,  0.000 sec (  0.436%)

         :::::::::::::::::::::::::::::::::::::::::::::::::::::
         ::                     SUMMARY                     ::
         :::::::::::::::::::::::::::::::::::::::::::::::::::::
         :: total energy             -34.364532296520 Eh    ::
         :: total w/o Gsasa/hb       -34.350957830537 Eh    ::
         :: gradient norm              0.010026832260 Eh/a0 ::
         :: HOMO-LUMO gap              3.618031419940 eV    ::
         ::.................................................::
         :: SCC energy               -34.766881327166 Eh    ::
         :: -> isotropic ES            0.096436949876 Eh    ::
         :: -> anisotropic ES          0.003489686756 Eh    ::
         :: -> anisotropic XC          0.015388877545 Eh    ::
         :: -> dispersion             -0.017237774131 Eh    ::
         :: -> Gsolv                  -0.029325207349 Eh    ::
         ::    -> Gelec               -0.015750741366 Eh    ::
         ::    -> Gsasa               -0.001533247809 Eh    ::
         ::    -> Ghb                 -0.013121977873 Eh    ::
         ::    -> Gshift               0.001080759698 Eh    ::
         :: repulsion energy           0.402349030646 Eh    ::
         :: add. restraining           0.000000000000 Eh    ::
         :: total charge              -0.000000000000 e     ::
         :::::::::::::::::::::::::::::::::::::::::::::::::::::


Property printout bound to 'properties.out'

           -------------------------------------------------
          | TOTAL ENERGY              -34.364532296520 Eh   |
          | GRADIENT NORM               0.010026832260 Eh/α |
          | HOMO-LUMO GAP               3.618031419940 eV   |
           -------------------------------------------------

------------------------------------------------------------------------
 * finished run on 2026/04/09 at 15:47:05.967     
------------------------------------------------------------------------
 total:
 * wall-time:     0 d,  0 h,  0 min,  0.024 sec
 *  cpu-time:     0 d,  0 h,  0 min,  0.018 sec
 * ratio c/w:     0.729 speedup
 SCF:
 * wall-time:     0 d,  0 h,  0 min,  0.018 sec
 *  cpu-time:     0 d,  0 h,  0 min,  0.011 sec
 * ratio c/w:     0.650 speedup


-------------------------   --------------------
FINAL SINGLE POINT ENERGY       -34.364532296520
-------------------------   --------------------


-------------
DIPOLE MOMENT
-------------
                                X             Y             Z
Total Dipole Moment    :      1.61400      -0.66600       0.03900
                        -----------------------------------------
Magnitude (a.u.)       :      1.74645
Magnitude (Debye)      :      4.43911


------------------
CARTESIAN GRADIENT
------------------

   1   N   :    0.001822878   -0.000364440    0.000805907
   2   C   :    0.000041918    0.001117428    0.000823986
   3   C   :    0.000125919   -0.002563079   -0.000892216
   4   C   :    0.000358369    0.001395688   -0.000733833
   5   C   :    0.000848070   -0.001273699    0.001096652
   6   N   :    0.001946759    0.001721070   -0.000210417
   7   C   :   -0.002692479   -0.001693032   -0.000457819
   8   N   :    0.000855342    0.001026309    0.000143288
   9   C   :    0.001049056    0.004111924   -0.004442241
  10   O   :   -0.001836987   -0.001599773    0.001965316
  11   O   :    0.000519999   -0.001620683    0.002289842
  12   H   :   -0.001156475   -0.000083310   -0.000181148
  13   H   :   -0.000869704    0.000229952   -0.001008064
  14   H   :   -0.000155166    0.000093831    0.000503528
  15   H   :    0.000049450   -0.000097161    0.000413546
  16   H   :    0.000179203    0.000119982   -0.000017569
  17   H   :   -0.001376652   -0.000247959   -0.000416064
  18   H   :   -0.000326402   -0.000338613    0.000006567
  19   H   :    0.000430838    0.000106469    0.000207778
  20   H   :    0.000186064   -0.000040907    0.000102962

Difference to translation invariance:
           :   -0.0000000000    0.0000000000    0.0000000000

Difference to rotation invariance:
           :    0.0001245567    0.0000005766    0.0000965827

Norm of the Cartesian gradient     ...    0.0100268323
RMS gradient                       ...    0.0012944585
MAX gradient                       ...    0.0044422409
------------------------------------------------------------------------------
                         ORCA GEOMETRY RELAXATION STEP
------------------------------------------------------------------------------

Reading the OPT-File                    .... done
Getting information on internals        .... done
Copying old internal coords+grads       .... done
Making the new internal coordinates     .... (2022 redundants) done
Validating the new internal coordinates .... (2022 redundants) done
Calculating the B-matrix                .... done
Calculating the G,G- and P matrices     .... done
Transforming gradient to internals      .... done
Projecting the internal gradient        .... done
Number of atoms                         ....  20
Number of internal coordinates          ....  92
Current Energy                          ....   -34.364532297 Eh
Current gradient norm                   ....     0.010026832 Eh/bohr
Maximum allowed component of the step   ....  0.300
Current trust radius                    ....  0.700
Updating the Hessian (BFGS)             .... done
Forming the augmented Hessian           .... done
Diagonalizing the augmented Hessian     .... done
Last element of RFO vector              ....  0.969512600
Lowest eigenvalues of augmented Hessian:
 -0.000783491  0.009051298  0.014593796  0.015163866  0.015556859
Length of the computed step             ....  0.252747065
The final length of the internal step   ....  0.252747065
Converting the step to Cartesian space:
 Initial RMS(Int)=    0.0263507031
Transforming coordinates:
 Iter   0:  RMS(Cart)=    0.0561214975 RMS(Int)=    0.0263089216
 Iter   5:  RMS(Cart)=    0.0000005500 RMS(Int)=    0.0000004499
done
Storing new coordinates                 .... done
The predicted energy change is          ....    -0.000416771
Previously predicted energy change      ....    -0.001200083
Actually observed energy change         ....    -0.001358748
Ratio of predicted to observed change   ....     1.132211184
New trust radius                        ....     0.700000000

                                .--------------------.
          ----------------------|Geometry convergence|-------------------------
          Item                value                   Tolerance       Converged
          ---------------------------------------------------------------------
          Energy change      -0.0013587480            0.0000050000      NO
          RMS gradient        0.0007374443            0.0001000000      NO
          MAX gradient        0.0024210084            0.0003000000      NO
          RMS step            0.0263507031            0.0020000000      NO
          MAX step            0.1290622485            0.0040000000      NO
          -------------------------------------------------------------------------
          ........................................................
          Max(Bonds)      0.0036      Max(Angles)    0.83
          Max(Dihed)        7.39      Max(Improp)    0.00
          ---------------------------------------------------------------------

The optimization has not yet converged - more geometry cycles are needed


    ---------------------------------------------------------------------------
                         Redundant Internal Coordinates
                            (Angstroem and degrees)

        Definition                    Value    dE/dq     Step     New-Value
    ----------------------------------------------------------------------------
     1. B(C   1,N   0)                1.4481 -0.000096  0.0005    1.4486   
     2. B(C   2,C   1)                1.5577  0.001582 -0.0028    1.5550   
     3. B(C   3,C   2)                1.4907  0.000422 -0.0003    1.4904   
     4. B(C   4,C   3)                1.3698 -0.000068 -0.0006    1.3692   
     5. B(N   5,C   4)                1.3682  0.000934  0.0004    1.3686   
     6. B(C   6,N   5)                1.3507  0.000572 -0.0010    1.3498   
     7. B(N   7,C   3)                1.3676 -0.000164  0.0013    1.3689   
     8. B(N   7,C   6)                1.3039 -0.001237  0.0026    1.3065   
     9. B(C   8,C   1)                1.5203  0.001252  0.0010    1.5213   
    10. B(O   9,C   8)                1.2111 -0.000855  0.0016    1.2128   
    11. B(O  10,C   8)                1.3132 -0.002283  0.0036    1.3169   
    12. B(H  11,N   0)                1.0118 -0.000613  0.0021    1.0140   
    13. B(H  12,N   0)                1.0142 -0.000484  0.0019    1.0161   
    14. B(H  12,O   9)                2.3036 -0.000498 -0.0024    2.3011   
    15. B(H  13,C   1)                1.0972  0.000037  0.0000    1.0972   
    16. B(H  14,C   2)                1.0884 -0.000391  0.0009    1.0894   
    17. B(H  15,C   2)                1.0903 -0.000080 -0.0002    1.0900   
    18. B(H  16,C   4)                1.0689 -0.000416  0.0016    1.0706   
    19. B(H  17,N   5)                1.0065 -0.000363  0.0014    1.0079   
    20. B(H  18,C   6)                1.0713  0.000158  0.0002    1.0715   
    21. B(H  19,O  10)                0.9774 -0.000112  0.0020    0.9794   
    22. A(C   1,N   0,H  12)          109.03 -0.000829    0.20    109.23   
    23. A(H  11,N   0,H  12)          109.40  0.000824   -0.83    108.57   
    24. A(C   1,N   0,H  11)          110.33  0.000004   -0.30    110.03   
    25. A(N   0,C   1,C   8)          109.66 -0.000013    0.46    110.12   
    26. A(C   8,C   1,H  13)          107.61 -0.000549    0.19    107.80   
    27. A(N   0,C   1,H  13)          108.41 -0.000018    0.20    108.61   
    28. A(C   2,C   1,H  13)          107.97 -0.000378    0.25    108.22   
    29. A(C   2,C   1,C   8)          107.93  0.000940   -0.78    107.15   
    30. A(N   0,C   1,C   2)          115.01 -0.000035   -0.30    114.71   
    31. A(C   1,C   2,H  15)          108.52  0.000209    0.10    108.61   
    32. A(C   3,C   2,H  14)          109.76  0.000305   -0.41    109.36   
    33. A(C   1,C   2,H  14)          108.49 -0.000197   -0.07    108.42   
    34. A(H  14,C   2,H  15)          109.69 -0.000023    0.37    110.06   
    35. A(C   1,C   2,C   3)          110.37  0.000023   -0.32    110.05   
    36. A(C   3,C   2,H  15)          109.98 -0.000316    0.34    110.32   
    37. A(C   2,C   3,C   4)          128.32 -0.001901    0.60    128.91   
    38. A(C   2,C   3,N   7)          122.14  0.001220   -0.47    121.67   
    39. A(C   4,C   3,N   7)          109.47  0.000681   -0.15    109.32   
    40. A(N   5,C   4,H  16)          123.30  0.001581   -0.67    122.63   
    41. A(C   3,C   4,H  16)          130.58 -0.001194    0.56    131.14   
    42. A(C   3,C   4,N   5)          106.12 -0.000386    0.11    106.23   
    43. A(C   4,N   5,H  17)          126.17  0.000122    0.11    126.28   
    44. A(C   4,N   5,C   6)          106.37 -0.000803    0.10    106.46   
    45. A(C   6,N   5,H  17)          127.46  0.000681   -0.20    127.25   
    46. A(N   5,C   6,H  18)          123.16 -0.000970    0.33    123.50   
    47. A(N   7,C   6,H  18)          124.47 -0.000033   -0.16    124.31   
    48. A(N   5,C   6,N   7)          112.36  0.001003   -0.17    112.19   
    49. A(C   3,N   7,C   6)          105.68 -0.000495    0.11    105.79   
    50. A(O   9,C   8,O  10)          124.22  0.002421   -0.32    123.90   
    51. A(C   1,C   8,O  10)          112.02 -0.002084   -0.03    111.99   
    52. A(C   1,C   8,O   9)          123.75 -0.000363    0.34    124.09   
    53. A(C   8,O  10,H  19)          112.89 -0.000242   -0.35    112.54   
    54. D(C   8,C   1,N   0,H  11)   -156.91 -0.000987    1.14   -155.76   
    55. D(C   2,C   1,N   0,H  11)    -35.07  0.000213    0.28    -34.79   
    56. D(H  13,C   1,N   0,H  11)     85.86 -0.000311    0.56     86.42   
    57. D(C   8,C   1,N   0,H  12)    -36.74 -0.000492    0.04    -36.70   
    58. D(C   2,C   1,N   0,H  12)     85.09  0.000707   -0.82     84.27   
    59. D(C   3,C   2,C   1,N   0)    -63.52 -0.000037   -0.90    -64.42   
    60. D(H  14,C   2,C   1,H  13)     55.01  0.000025   -0.41     54.59   
    61. D(H  14,C   2,C   1,C   8)    -61.05  0.000376   -0.37    -61.43   
    62. D(H  14,C   2,C   1,N   0)    176.18 -0.000301   -0.17    176.01   
    63. D(C   3,C   2,C   1,C   8)     59.25  0.000641   -1.11     58.14   
    64. D(C   3,C   2,C   1,H  13)    175.31  0.000289   -1.15    174.16   
    65. D(C   4,C   3,C   2,H  15)    -29.35  0.000166   -1.12    -30.47   
    66. D(C   4,C   3,C   2,H  14)   -150.12  0.000201   -1.54   -151.66   
    67. D(N   7,C   3,C   2,C   1)    -86.18  0.000186   -0.48    -86.66   
    68. D(C   4,C   3,C   2,C   1)     90.35  0.000238   -0.99     89.36   
    69. D(N   7,C   3,C   2,H  14)     33.35  0.000149   -1.03     32.32   
    70. D(H  16,C   4,C   3,N   7)   -179.99 -0.000108    0.30   -179.69   
    71. D(H  16,C   4,C   3,C   2)      3.12 -0.000183    0.76      3.88   
    72. D(N   5,C   4,C   3,N   7)     -0.19 -0.000058    0.09     -0.09   
    73. D(N   5,C   4,C   3,C   2)   -177.07 -0.000133    0.56   -176.51   
    74. D(H  17,N   5,C   4,H  16)     -0.07  0.000070   -0.22     -0.29   
    75. D(H  17,N   5,C   4,C   3)   -179.89  0.000031   -0.03   -179.93   
    76. D(C   6,N   5,C   4,H  16)    179.97  0.000052   -0.20    179.77   
    77. D(C   6,N   5,C   4,C   3)      0.14  0.000013   -0.01      0.13   
    78. D(H  18,C   6,N   5,H  17)      0.12 -0.000012    0.03      0.14   
    79. D(H  18,C   6,N   5,C   4)   -179.92  0.000006    0.00   -179.92   
    80. D(N   7,C   6,N   5,H  17)    179.99  0.000018   -0.06    179.92   
    81. D(N   7,C   6,N   5,C   4)     -0.05  0.000036   -0.09     -0.14   
    82. D(C   3,N   7,C   6,N   5)     -0.06 -0.000070    0.15      0.09   
    83. D(C   6,N   7,C   3,C   4)      0.15  0.000079   -0.14      0.01   
    84. D(C   6,N   7,C   3,C   2)    177.27  0.000034   -0.56    176.71   
    85. D(C   3,N   7,C   6,H  18)    179.80 -0.000040    0.06    179.86   
    86. D(O  10,C   8,C   1,C   2)     67.88 -0.000311    2.53     70.41   
    87. D(O  10,C   8,C   1,N   0)   -166.14  0.000273    1.96   -164.18   
    88. D(O   9,C   8,C   1,H  13)    130.34 -0.001357    7.39    137.73   
    89. D(O   9,C   8,C   1,C   2)   -113.37 -0.001600    7.39   -105.98   
    90. D(O   9,C   8,C   1,N   0)     12.61 -0.001016    6.81     19.42   
    91. D(H  19,O  10,C   8,O   9)      3.01  0.000780    0.43      3.44   
    92. D(H  19,O  10,C   8,C   1)   -178.25 -0.000557    5.01   -173.23   
    ----------------------------------------------------------------------------

Geometry step timings:
Preparation and reading OPT file:      0.000 s ( 0.889 %)
Internal coordinates            :      0.000 s ( 0.808 %)
B/P matrices and projection     :      0.000 s (39.208 %)
Hessian update/contruction      :      0.000 s (12.369 %)
Making the step                 :      0.000 s (28.941 %)
Converting the step to Cartesian:      0.000 s ( 3.800 %)
Storing new data                :      0.000 s ( 1.051 %)
Checking convergence            :      0.000 s ( 1.132 %)
Final printing                  :      0.000 s (11.803 %)
Total time                      :      0.001 s

Time for energy+gradient        :      0.028 s
Time for complete geometry iter :      0.030 s

         *************************************************************
         *                GEOMETRY OPTIMIZATION CYCLE   6            *
         *************************************************************
---------------------------------
CARTESIAN COORDINATES (ANGSTROEM)
---------------------------------
  N    -1.291679   -0.383549    1.835743
  C    -1.575091   -0.566810    0.428348
  C    -0.454312   -1.284472   -0.375849
  C     0.780612   -0.450145   -0.387250
  C     1.819966   -0.440139    0.503963
  N     2.665880    0.554597    0.094107
  C     2.110362    1.098754   -1.009116
  N     0.981881    0.523050   -1.328652
  C    -1.808475    0.783137   -0.229140
  O    -1.439499    1.836279    0.245102
  O    -2.389827    0.667982   -1.405103
  H    -0.760911   -1.171728    2.189602
  H    -0.738534    0.461039    1.954292
  H    -2.496792   -1.153741    0.329202
  H    -0.802390   -1.428257   -1.398050
  H    -0.254903   -2.249382    0.090381
  H     2.016535   -1.047371    1.363474
  H     3.531138    0.821645    0.536584
  H     2.552199    1.907109   -1.556362
  H    -2.446159    1.522001   -1.881276

----------------------------
CARTESIAN COORDINATES (A.U.)
----------------------------
  NO LB    ZA    FRAG    MASS        X           Y           Z
   0 N   7.0000    0    14.007   -2.440920   -0.724803    3.469051
   1 C   6.0000    0    12.011   -2.976491   -1.071115    0.809460
   2 C   6.0000    0    12.011   -0.858525   -2.427300   -0.710251
   3 C   6.0000    0    12.011    1.475142   -0.850650   -0.731797
   4 C   6.0000    0    12.011    3.439237   -0.831743    0.952351
   5 N   7.0000    0    14.007    5.037783    1.048037    0.177837
   6 C   6.0000    0    12.011    3.988006    2.076344   -1.906952
   7 N   7.0000    0    14.007    1.855486    0.988422   -2.510789
   8 C   6.0000    0    12.011   -3.417523    1.479914   -0.433011
   9 O   8.0000    0    15.999   -2.720258    3.470065    0.463176
  10 O   8.0000    0    15.999   -4.516119    1.262303   -2.655259
  11 H   1.0000    0     1.008   -1.437913   -2.214245    4.137747
  12 H   1.0000    0     1.008   -1.395626    0.871237    3.693077
  13 H   1.0000    0     1.008   -4.718253   -2.180254    0.622102
  14 H   1.0000    0     1.008   -1.516297   -2.699015   -2.641932
  15 H   1.0000    0     1.008   -0.481696   -4.250716    0.170796
  16 H   1.0000    0     1.008    3.810699   -1.979244    2.576593
  17 H   1.0000    0     1.008    6.672883    1.552685    1.013997
  18 H   1.0000    0     1.008    4.822956    3.603914   -2.941098
  19 H   1.0000    0     1.008   -4.622570    2.876165   -3.555096

      -----------------------------------------------------------      
     |                   =====================                   |     
     |                           x T B                           |     
     |                   =====================                   |     
     |                         S. Grimme                         |     
     |          Mulliken Center for Theoretical Chemistry        |     
     |                    University of Bonn                     |     
      -----------------------------------------------------------      

   * xtb version 6.7.1 (edcfbbe) compiled by 'albert@albert-system' on 2024-07-22

   xtb is free software: you can redistribute it and/or modify it under
   the terms of the GNU Lesser General Public License as published by
   the Free Software Foundation, either version 3 of the License, or
   (at your option) any later version.
   
   xtb is distributed in the hope that it will be useful,
   but WITHOUT ANY WARRANTY; without even the implied warranty of
   MERCHANTABILITY or FITNESS FOR A PARTICULAR PURPOSE.  See the
   GNU Lesser General Public License for more details.
   
   Cite this work as:
   * C. Bannwarth, E. Caldeweyher, S. Ehlert, A. Hansen, P. Pracht,
     J. Seibert, S. Spicher, S. Grimme, WIREs Comput. Mol. Sci., 2020, 11,
     e01493. DOI: 10.1002/wcms.1493
   
   for GFN2-xTB:
   * C. Bannwarth, S. Ehlert and S. Grimme., J. Chem. Theory Comput., 2019,
     15, 1652-1671. DOI: 10.1021/acs.jctc.8b01176
   for GFN1-xTB:
   * S. Grimme, C. Bannwarth, P. Shushkov, J. Chem. Theory Comput., 2017,
     13, 1989-2009. DOI: 10.1021/acs.jctc.7b00118
   for GFN0-xTB:
   * P. Pracht, E. Caldeweyher, S. Ehlert, S. Grimme, ChemRxiv, 2019, preprint.
     DOI: 10.26434/chemrxiv.8326202.v1
   for GFN-FF:
   * S. Spicher and S. Grimme, Angew. Chem. Int. Ed., 2020, 59, 15665-15673.
     DOI: 10.1002/anie.202004239
   
   for ALPB and GBSA implicit solvation:
   * S. Ehlert, M. Stahn, S. Spicher, S. Grimme, J. Chem. Theory Comput.,
     2021, 17, 4250-4261. DOI: 10.1021/acs.jctc.1c00471
   
   for ddCOSMO and CPCM-X implicit solvation:
   * M. Stahn, S. Ehlert, S. Grimme, J. Phys. Chem. A,
     2023, XX, XXXX-XXXX. DOI: 10.1021/acs.jpca.3c04382
   
   for DFT-D4:
   * E. Caldeweyher, C. Bannwarth and S. Grimme, J. Chem. Phys., 2017,
     147, 034112. DOI: 10.1063/1.4993215
   * E. Caldeweyher, S. Ehlert, A. Hansen, H. Neugebauer, S. Spicher,
     C. Bannwarth and S. Grimme, J. Chem. Phys., 2019, 150, 154122.
     DOI: 10.1063/1.5090222
   * E. Caldeweyher, J.-M. Mewes, S. Ehlert and S. Grimme, Phys. Chem. Chem. Phys.
     2020, 22, 8499-8512. DOI: 10.1039/D0CP00502A
   
   for sTDA-xTB:
   * S. Grimme and C. Bannwarth, J. Chem. Phys., 2016, 145, 054103.
     DOI: 10.1063/1.4959605
   
   in the mass-spec context:
   * V. Asgeirsson, C. Bauer and S. Grimme, Chem. Sci., 2017, 8, 4879.
     DOI: 10.1039/c7sc00601b
   * J. Koopman and S. Grimme, ACS Omega 2019, 4, 12, 15120-15133.
     DOI: 10.1021/acsomega.9b02011
   
   for metadynamics refer to:
   * S. Grimme, J. Chem. Theory Comput., 2019, 155, 2847-2862
     DOI: 10.1021/acs.jctc.9b00143
   
   for SPH calculations refer to:
   * S. Spicher and S. Grimme, J. Chem. Theory Comput., 2021, 17, 1701-1714
     DOI: 10.1021/acs.jctc.0c01306
   
   for ONIOM refer to:
   * C. Plett, A. Katbashev, S. Ehlert, S. Grimme, M. Bursch,
     Phys. Chem. Chem. Phys., 2023, 25, 17860-17868. DOI: 10.1039/D3CP02178E
   
   for DIPRO refer to:
   * J. Kohn, N. Gildemeister, S. Grimme, D. Fazzi, A. Hansen,
     J. Chem. Phys., 2023, just accepted.
   
   for PTB refer to:
   * S. Grimme, M. Mueller, A. Hansen, J. Chem. Phys., 2023, 158, 124111.
     DOI: 10.1063/5.0137838
   
   with help from (in alphabetical order)
   P. Atkinson, C. Bannwarth, F. Bohle, G. Brandenburg, E. Caldeweyher
   M. Checinski, S. Dohm, S. Ehlert, S. Ehrlich, I. Gerasimov, C. Hölzer
   A. Katbashev, J. Kohn, J. Koopman, C. Lavigne, S. Lehtola, F. März, M. Müller,
   F. Musil, H. Neugebauer, J. Pisarek, C. Plett, P. Pracht, F. Pultar,
   J. Seibert, P. Shushkov, S. Spicher, M. Stahn, M. Steiner, T. Strunk,
   J. Stückrath, T. Rose, and J. Unsleber
   
 * started run on 2026/04/09 at 15:47:05.973     
   ID    Z sym.   atoms
    1    7 N      1, 6, 8
    2    6 C      2-5, 7, 9
    3    8 O      10, 11
    4    1 H      12-20

           -------------------------------------------------
          |                Calculation Setup                |
           -------------------------------------------------

          program call               : /home/analima/Programs/orca-6.1.0-f.0_linux_x86-64/bin/otool_xtb geo_opt_XTB.xyz --grad -c 0 -u 0 -P 1 --namespace geo_opt --input geo_opt_XTB.input.tmp --alpb WATER --acc 0.200000
          calculation namespace      : geo_opt
          coordinate file            : geo_opt_XTB.xyz
          omp threads                :                     1


           -------------------------------------------------
          |                 G F N 2 - x T B                 |
           -------------------------------------------------

        Reference                      10.1021/acs.jctc.8b01176
      * Hamiltonian:
        H0-scaling (s, p, d)           1.850000    2.230000    2.230000
        zeta-weighting                 0.500000
      * Dispersion:
        s8                             2.700000
        a1                             0.520000
        a2                             5.000000
        s9                             5.000000
      * Repulsion:
        kExp                           1.500000    1.000000
        rExp                           1.000000
      * Coulomb:
        alpha                          2.000000
        third order                    shell-resolved
        anisotropic                    true
        a3                             3.000000
        a5                             4.000000
        cn-shift                       1.200000
        cn-exp                         4.000000
        max-rad                        5.000000

      * Solvation model:               ALPB
        Solvent                        WATER
        Parameter file                 internal GFN2-xTB/ALPB
        Dielectric constant                8.0200E+01
        Reference state                gsolv [1 M gas/solution]
        Free energy shift                  1.0808E-03 Eh       6.7819E-01 kcal/mol
        Temperature                        2.9815E+02 K
        Density                            1.0000E+00 kg/L
        Solvent mass                       1.8000E+01 g/mol
        Interaction kernel             P16
        Born radius scaling (c1)           1.4744E+00
        Born radii integrator          GBOBC
        Born offset                        0.0000E+00 a0       0.0000E+00 AA
        H-bond correction              true
        Ion screening                  false
        Surface tension                    1.0000E-05 Eh       1.5569E+01 dyn/cm
        Grid points                               230 per atom
q/qsh data taken from xtbrestart
CAMM data taken from xtbrestart

          ...................................................
          :                      SETUP                      :
          :.................................................:
          :  # basis functions                  53          :
          :  # atomic orbitals                  53          :
          :  # shells                           31          :
          :  # electrons                        60          :
          :  max. iterations                   250          :
          :  Hamiltonian                  GFN2-xTB          :
          :  restarted?                       true          :
          :  GBSA solvation                   true          :
          :  PC potential                    false          :
          :  electronic temp.          300.0000000     K    :
          :  accuracy                    0.2000000          :
          :  -> integral cutoff          0.3198970E+02      :
          :  -> integral neglect         0.2000000E-08      :
          :  -> SCF convergence          0.2000000E-06 Eh   :
          :  -> wf. convergence          0.2000000E-04 e    :
          :  Broyden damping             0.4000000          :
          :  net charge                          0          :
          :  unpaired electrons                  0          :
          ...................................................

 iter      E             dE          RMSdq      gap      omega  full diag
   1    -34.7647180 -0.347647E+02  0.238E-01    3.60       0.0  T
   2    -34.7647271 -0.907060E-05  0.140E-01    3.61       1.0  T
   3    -34.7647276 -0.549237E-06  0.144E-02    3.61       1.6  T
   4    -34.7647299 -0.232348E-05  0.664E-03    3.61       3.4  T
   5    -34.7647301 -0.187070E-06  0.360E-03    3.61       6.2  T
   6    -34.7647302 -0.305313E-07  0.109E-03    3.61      20.5  T
   7    -34.7647302 -0.706123E-08  0.369E-04    3.61      60.6  T
   8    -34.7647302 -0.733102E-09  0.144E-04    3.61     155.0  T
   9    -34.7647302 -0.306386E-10  0.553E-05    3.61     404.6  T

   *** convergence criteria satisfied after 9 iterations ***

         #    Occupation            Energy/Eh            Energy/eV
      -------------------------------------------------------------
         1        2.0000           -0.7431831             -20.2230
       ...           ...                  ...                  ...
        24        2.0000           -0.4594169             -12.5014
        25        2.0000           -0.4513046             -12.2806
        26        2.0000           -0.4284167             -11.6578
        27        2.0000           -0.4207904             -11.4503
        28        2.0000           -0.3874475             -10.5430
        29        2.0000           -0.3828668             -10.4183
        30        2.0000           -0.3696957             -10.0599 (HOMO)
        31                         -0.2371401              -6.4529 (LUMO)
        32                         -0.2021169              -5.4999
        33                         -0.1691902              -4.6039
        34                          0.0295320               0.8036
        35                          0.0408370               1.1112
       ...                                ...                  ...
        53                          0.6271824              17.0665
      -------------------------------------------------------------
                  HL-Gap            0.1325556 Eh            3.6070 eV
             Fermi-level           -0.3034179 Eh           -8.2564 eV

 SCC (total)                   0 d,  0 h,  0 min,  0.012 sec
 SCC setup                      ...        0 min,  0.000 sec (  3.271%)
 Dispersion                     ...        0 min,  0.000 sec (  0.802%)
 classical contributions        ...        0 min,  0.000 sec (  0.181%)
 integral evaluation            ...        0 min,  0.002 sec ( 15.007%)
 iterations                     ...        0 min,  0.007 sec ( 59.061%)
 molecular gradient             ...        0 min,  0.003 sec ( 21.263%)
 printout                       ...        0 min,  0.000 sec (  0.313%)

         :::::::::::::::::::::::::::::::::::::::::::::::::::::
         ::                     SUMMARY                     ::
         :::::::::::::::::::::::::::::::::::::::::::::::::::::
         :: total energy             -34.364817299029 Eh    ::
         :: total w/o Gsasa/hb       -34.351357754096 Eh    ::
         :: gradient norm              0.009969694756 Eh/a0 ::
         :: HOMO-LUMO gap              3.607022656296 eV    ::
         ::.................................................::
         :: SCC energy               -34.764603559964 Eh    ::
         :: -> isotropic ES            0.096532594298 Eh    ::
         :: -> anisotropic ES          0.002981154187 Eh    ::
         :: -> anisotropic XC          0.015523870053 Eh    ::
         :: -> dispersion             -0.017397650052 Eh    ::
         :: -> Gsolv                  -0.029099376208 Eh    ::
         ::    -> Gelec               -0.015639831275 Eh    ::
         ::    -> Gsasa               -0.001593675304 Eh    ::
         ::    -> Ghb                 -0.012946629327 Eh    ::
         ::    -> Gshift               0.001080759698 Eh    ::
         :: repulsion energy           0.399786260935 Eh    ::
         :: add. restraining           0.000000000000 Eh    ::
         :: total charge              -0.000000000000 e     ::
         :::::::::::::::::::::::::::::::::::::::::::::::::::::


Property printout bound to 'properties.out'

           -------------------------------------------------
          | TOTAL ENERGY              -34.364817299029 Eh   |
          | GRADIENT NORM               0.009969694756 Eh/α |
          | HOMO-LUMO GAP               3.607022656296 eV   |
           -------------------------------------------------

------------------------------------------------------------------------
 * finished run on 2026/04/09 at 15:47:05.994     
------------------------------------------------------------------------
 total:
 * wall-time:     0 d,  0 h,  0 min,  0.021 sec
 *  cpu-time:     0 d,  0 h,  0 min,  0.014 sec
 * ratio c/w:     0.664 speedup
 SCF:
 * wall-time:     0 d,  0 h,  0 min,  0.012 sec
 *  cpu-time:     0 d,  0 h,  0 min,  0.008 sec
 * ratio c/w:     0.676 speedup


-------------------------   --------------------
FINAL SINGLE POINT ENERGY       -34.364817299030
-------------------------   --------------------


-------------
DIPOLE MOMENT
-------------
                                X             Y             Z
Total Dipole Moment    :      1.57700      -0.62600       0.06900
                        -----------------------------------------
Magnitude (a.u.)       :      1.69811
Magnitude (Debye)      :      4.31624


------------------
CARTESIAN GRADIENT
------------------

   1   N   :   -0.000274890   -0.000418192   -0.000895792
   2   C   :    0.004135943    0.000193748   -0.000326455
   3   C   :   -0.000646193   -0.002851893    0.000638574
   4   C   :   -0.000937788    0.000036465    0.000494978
   5   C   :   -0.000378558   -0.000714659   -0.000534612
   6   N   :    0.000857468    0.001219892   -0.000405027
   7   C   :    0.000360489    0.000061548    0.000519973
   8   N   :   -0.001022557    0.000270777   -0.000542122
   9   C   :   -0.005937550    0.002499630    0.000742893
  10   O   :    0.001875751    0.000387681    0.001041574
  11   O   :    0.000257798   -0.003300081   -0.000223375
  12   H   :    0.000018795   -0.000786690    0.000055972
  13   H   :    0.000183633    0.000975429   -0.000349586
  14   H   :   -0.000354457    0.000349036    0.000106612
  15   H   :   -0.000140958    0.000643906   -0.000129604
  16   H   :    0.000223443    0.000108822    0.000171226
  17   H   :   -0.000392737   -0.000502465    0.000426656
  18   H   :    0.000681594    0.000130974    0.000280077
  19   H   :    0.000326138    0.000315771   -0.000132270
  20   H   :    0.001164635    0.001380300   -0.000939693

Difference to translation invariance:
           :   -0.0000000000   -0.0000000000   -0.0000000000

Difference to rotation invariance:
           :    0.0002077020    0.0001078914    0.0000676022

Norm of the Cartesian gradient     ...    0.0099696948
RMS gradient                       ...    0.0012870821
MAX gradient                       ...    0.0059375504
------------------------------------------------------------------------------
                         ORCA GEOMETRY RELAXATION STEP
------------------------------------------------------------------------------

Reading the OPT-File                    .... done
Getting information on internals        .... done
Copying old internal coords+grads       .... done
Making the new internal coordinates     .... (2022 redundants) done
Validating the new internal coordinates .... (2022 redundants) done
Calculating the B-matrix                .... done
Calculating the G,G- and P matrices     .... done
Transforming gradient to internals      .... done
Projecting the internal gradient        .... done
Number of atoms                         ....  20
Number of internal coordinates          ....  92
Current Energy                          ....   -34.364817299 Eh
Current gradient norm                   ....     0.009969695 Eh/bohr
Maximum allowed component of the step   ....  0.300
Current trust radius                    ....  0.700
Updating the Hessian (BFGS)             .... done
Forming the augmented Hessian           .... done
Diagonalizing the augmented Hessian     .... done
Last element of RFO vector              ....  0.979654254
Lowest eigenvalues of augmented Hessian:
 -0.000633009  0.005623995  0.014605865  0.015140449  0.015564769
Length of the computed step             ....  0.204860701
The final length of the internal step   ....  0.204860701
Converting the step to Cartesian space:
 Initial RMS(Int)=    0.0213582045
Transforming coordinates:
 Iter   0:  RMS(Cart)=    0.0523097547 RMS(Int)=    0.6552748352
 Iter   5:  RMS(Cart)=    0.0000002188 RMS(Int)=    0.0000001036
done
Storing new coordinates                 .... done
The predicted energy change is          ....    -0.000329787
Previously predicted energy change      ....    -0.000416771
Actually observed energy change         ....    -0.000285003
Ratio of predicted to observed change   ....     0.683835079
New trust radius                        ....     0.700000000

                                .--------------------.
          ----------------------|Geometry convergence|-------------------------
          Item                value                   Tolerance       Converged
          ---------------------------------------------------------------------
          Energy change      -0.0002850025            0.0000050000      NO
          RMS gradient        0.0007393365            0.0001000000      NO
          MAX gradient        0.0024985940            0.0003000000      NO
          RMS step            0.0213582045            0.0020000000      NO
          MAX step            0.1159500262            0.0040000000      NO
          -------------------------------------------------------------------------
          ........................................................
          Max(Bonds)      0.0033      Max(Angles)    0.52
          Max(Dihed)        6.64      Max(Improp)    0.00
          ---------------------------------------------------------------------

The optimization has not yet converged - more geometry cycles are needed


    ---------------------------------------------------------------------------
                         Redundant Internal Coordinates
                            (Angstroem and degrees)

        Definition                    Value    dE/dq     Step     New-Value
    ----------------------------------------------------------------------------
     1. B(C   1,N   0)                1.4473 -0.001034  0.0008    1.4481   
     2. B(C   2,C   1)                1.5550 -0.000588 -0.0013    1.5536   
     3. B(C   3,C   2)                1.4904  0.000035 -0.0003    1.4901   
     4. B(C   4,C   3)                1.3692  0.000059 -0.0002    1.3690   
     5. B(N   5,C   4)                1.3686  0.001561 -0.0011    1.3675   
     6. B(C   6,N   5)                1.3497  0.000146 -0.0006    1.3491   
     7. B(N   7,C   3)                1.3689  0.000687  0.0001    1.3690   
     8. B(N   7,C   6)                1.3065  0.001343  0.0006    1.3071   
     9. B(C   8,C   1)                1.5196  0.001208 -0.0017    1.5178   
    10. B(O   9,C   8)                1.2125  0.001346  0.0003    1.2128   
    11. B(O  10,C   8)                1.3169  0.000585  0.0020    1.3189   
    12. B(H  11,N   0)                1.0140  0.000637  0.0006    1.0146   
    13. B(H  12,N   0)                1.0165  0.000816  0.0004    1.0169   
    14. B(H  12,O   9)                2.3030 -0.000233  0.0033    2.3063   
    15. B(H  13,C   1)                1.0972  0.000101 -0.0002    1.0970   
    16. B(H  14,C   2)                1.0894  0.000080  0.0005    1.0899   
    17. B(H  15,C   2)                1.0900  0.000019 -0.0000    1.0900   
    18. B(H  16,C   4)                1.0706  0.000557  0.0003    1.0709   
    19. B(H  17,N   5)                1.0079  0.000743  0.0001    1.0080   
    20. B(H  18,C   6)                1.0715  0.000439 -0.0004    1.0711   
    21. B(H  19,O  10)                0.9794  0.001593 -0.0005    0.9789   
    22. A(C   1,N   0,H  12)          108.98 -0.000321    0.07    109.04   
    23. A(H  11,N   0,H  12)          108.68  0.000506   -0.52    108.17   
    24. A(C   1,N   0,H  11)          110.09 -0.000279   -0.11    109.98   
    25. A(N   0,C   1,C   8)          109.78  0.000201    0.03    109.81   
    26. A(C   8,C   1,H  13)          107.88 -0.000731    0.33    108.22   
    27. A(N   0,C   1,H  13)          108.67 -0.000257    0.24    108.90   
    28. A(C   2,C   1,H  13)          108.17  0.000459    0.08    108.25   
    29. A(C   2,C   1,C   8)          107.27  0.000629   -0.51    106.76   
    30. A(N   0,C   1,C   2)          114.85 -0.000332   -0.13    114.72   
    31. A(C   1,C   2,H  15)          108.61  0.000858   -0.12    108.50   
    32. A(C   3,C   2,H  14)          109.36  0.000626   -0.22    109.14   
    33. A(C   1,C   2,H  14)          108.42 -0.000041    0.08    108.49   
    34. A(H  14,C   2,H  15)          110.06  0.000371   -0.01    110.05   
    35. A(C   1,C   2,C   3)          110.05 -0.001903    0.14    110.19   
    36. A(C   3,C   2,H  15)          110.32  0.000077    0.08    110.40   
    37. A(C   2,C   3,C   4)          128.91 -0.000567    0.38    129.29   
    38. A(C   2,C   3,N   7)          121.67  0.000637   -0.31    121.36   
    39. A(C   4,C   3,N   7)          109.32 -0.000081   -0.08    109.24   
    40. A(N   5,C   4,H  16)          122.63  0.000321   -0.39    122.24   
    41. A(C   3,C   4,H  16)          131.13 -0.000725    0.37    131.51   
    42. A(C   3,C   4,N   5)          106.24  0.000405    0.02    106.25   
    43. A(C   4,N   5,H  17)          126.28  0.000222    0.02    126.30   
    44. A(C   4,N   5,C   6)          106.46 -0.000461    0.12    106.58   
    45. A(C   6,N   5,H  17)          127.25  0.000239   -0.14    127.12   
    46. A(N   5,C   6,H  18)          123.50 -0.000281    0.21    123.71   
    47. A(N   7,C   6,H  18)          124.31  0.000063   -0.07    124.24   
    48. A(N   5,C   6,N   7)          112.19  0.000218   -0.14    112.05   
    49. A(C   3,N   7,C   6)          105.79 -0.000080    0.09    105.87   
    50. A(O   9,C   8,O  10)          124.03  0.002020   -0.41    123.61   
    51. A(C   1,C   8,O  10)          112.12 -0.001678    0.28    112.40   
    52. A(C   1,C   8,O   9)          123.75 -0.000509    0.08    123.84   
    53. A(C   8,O  10,H  19)          112.54 -0.000806   -0.01    112.53   
    54. D(C   8,C   1,N   0,H  11)   -155.74 -0.000634    0.85   -154.89   
    55. D(C   2,C   1,N   0,H  11)    -34.79  0.000107    0.13    -34.67   
    56. D(H  13,C   1,N   0,H  11)     86.49  0.000284    0.31     86.80   
    57. D(C   8,C   1,N   0,H  12)    -36.64 -0.000378    0.19    -36.44   
    58. D(C   2,C   1,N   0,H  12)     84.31  0.000363   -0.53     83.78   
    59. D(C   3,C   2,C   1,N   0)    -64.29 -0.000244   -0.82    -65.11   
    60. D(H  14,C   2,C   1,H  13)     54.59  0.000353   -1.02     53.57   
    61. D(H  14,C   2,C   1,C   8)    -61.55  0.000648   -1.18    -62.73   
    62. D(H  14,C   2,C   1,N   0)    176.14  0.000141   -0.75    175.39   
    63. D(C   3,C   2,C   1,C   8)     58.01  0.000263   -1.25     56.76   
    64. D(C   3,C   2,C   1,H  13)    174.15 -0.000032   -1.10    173.06   
    65. D(C   4,C   3,C   2,H  15)    -30.47  0.000669   -1.62    -32.09   
    66. D(C   4,C   3,C   2,H  14)   -151.65 -0.000244   -1.53   -153.18   
    67. D(N   7,C   3,C   2,C   1)    -86.67  0.000796   -1.68    -88.34   
    68. D(C   4,C   3,C   2,C   1)     89.36  0.000572   -1.64     87.72   
    69. D(N   7,C   3,C   2,H  14)     32.32 -0.000020   -1.56     30.76   
    70. D(H  16,C   4,C   3,N   7)   -179.69 -0.000101    0.31   -179.38   
    71. D(H  16,C   4,C   3,C   2)      3.90  0.000075    0.30      4.20   
    72. D(N   5,C   4,C   3,N   7)     -0.09 -0.000039    0.12      0.03   
    73. D(N   5,C   4,C   3,C   2)   -176.51  0.000137    0.11   -176.39   
    74. D(H  17,N   5,C   4,H  16)     -0.29  0.000088   -0.25     -0.54   
    75. D(H  17,N   5,C   4,C   3)   -179.93  0.000038   -0.08   -180.00   
    76. D(C   6,N   5,C   4,H  16)    179.78  0.000080   -0.23    179.54   
    77. D(C   6,N   5,C   4,C   3)      0.14  0.000030   -0.06      0.08   
    78. D(H  18,C   6,N   5,H  17)      0.15  0.000006   -0.00      0.15   
    79. D(H  18,C   6,N   5,C   4)   -179.92  0.000014   -0.02   -179.94   
    80. D(N   7,C   6,N   5,H  17)    179.92 -0.000018   -0.02    179.91   
    81. D(N   7,C   6,N   5,C   4)     -0.14 -0.000010   -0.04     -0.18   
    82. D(C   3,N   7,C   6,N   5)      0.08 -0.000013    0.11      0.20   
    83. D(C   6,N   7,C   3,C   4)      0.01  0.000033   -0.15     -0.14   
    84. D(C   6,N   7,C   3,C   2)    176.73 -0.000176   -0.10    176.63   
    85. D(C   3,N   7,C   6,H  18)    179.86 -0.000038    0.10    179.96   
    86. D(O  10,C   8,C   1,C   2)     70.47 -0.002139    6.64     77.11   
    87. D(O  10,C   8,C   1,N   0)   -164.12 -0.002005    6.17   -157.95   
    88. D(O   9,C   8,C   1,H  13)    137.67  0.000217    3.14    140.81   
    89. D(O   9,C   8,C   1,C   2)   -106.00  0.000705    3.14   -102.86   
    90. D(O   9,C   8,C   1,N   0)     19.41  0.000839    2.67     22.08   
    91. D(H  19,O  10,C   8,O   9)      3.33 -0.000460    1.05      4.38   
    92. D(H  19,O  10,C   8,C   1)   -173.12  0.002499   -2.18   -175.31   
    ----------------------------------------------------------------------------

Geometry step timings:
Preparation and reading OPT file:      0.000 s ( 0.867 %)
Internal coordinates            :      0.000 s ( 0.867 %)
B/P matrices and projection     :      0.000 s (37.988 %)
Hessian update/contruction      :      0.000 s (10.755 %)
Making the step                 :      0.000 s (30.616 %)
Converting the step to Cartesian:      0.000 s ( 3.816 %)
Storing new data                :      0.000 s ( 0.867 %)
Checking convergence            :      0.000 s ( 1.648 %)
Final printing                  :      0.000 s (12.576 %)
Total time                      :      0.001 s

Time for energy+gradient        :      0.025 s
Time for complete geometry iter :      0.026 s

         *************************************************************
         *                GEOMETRY OPTIMIZATION CYCLE   7            *
         *************************************************************
---------------------------------
CARTESIAN COORDINATES (ANGSTROEM)
---------------------------------
  N    -1.307583   -0.401774    1.826407
  C    -1.573404   -0.573663    0.413446
  C    -0.445104   -1.291336   -0.377550
  C     0.789454   -0.456997   -0.384134
  C     1.811976   -0.414346    0.525138
  N     2.660045    0.571197    0.101397
  C     2.125714    1.079575   -1.028294
  N     1.006414    0.486952   -1.351664
  C    -1.772794    0.781510   -0.240198
  O    -1.352028    1.821993    0.219398
  O    -2.453595    0.702107   -1.367012
  H    -0.783720   -1.195562    2.179730
  H    -0.743923    0.434311    1.958411
  H    -2.498214   -1.151500    0.293706
  H    -0.782095   -1.439837   -1.403300
  H    -0.250364   -2.254176    0.094878
  H     2.002858   -0.992545    1.406035
  H     3.515212    0.857006    0.551957
  H     2.572384    1.872979   -1.592401
  H    -2.521234    1.564107   -1.825948

----------------------------
CARTESIAN COORDINATES (A.U.)
----------------------------
  NO LB    ZA    FRAG    MASS        X           Y           Z
   0 N   7.0000    0    14.007   -2.470974   -0.759244    3.451408
   1 C   6.0000    0    12.011   -2.973302   -1.084065    0.781299
   2 C   6.0000    0    12.011   -0.841125   -2.440272   -0.713466
   3 C   6.0000    0    12.011    1.491852   -0.863599   -0.725908
   4 C   6.0000    0    12.011    3.424138   -0.783000    0.992368
   5 N   7.0000    0    14.007    5.026757    1.079406    0.191612
   6 C   6.0000    0    12.011    4.017016    2.040101   -1.943195
   7 N   7.0000    0    14.007    1.901846    0.920205   -2.554275
   8 C   6.0000    0    12.011   -3.350096    1.476840   -0.453909
   9 O   8.0000    0    15.999   -2.554963    3.443068    0.414603
  10 O   8.0000    0    15.999   -4.636623    1.326791   -2.583279
  11 H   1.0000    0     1.008   -1.481016   -2.259285    4.119093
  12 H   1.0000    0     1.008   -1.405810    0.820729    3.700860
  13 H   1.0000    0     1.008   -4.720940   -2.176019    0.555024
  14 H   1.0000    0     1.008   -1.477945   -2.720898   -2.651853
  15 H   1.0000    0     1.008   -0.473119   -4.259775    0.179293
  16 H   1.0000    0     1.008    3.784854   -1.875639    2.657020
  17 H   1.0000    0     1.008    6.642789    1.619506    1.043048
  18 H   1.0000    0     1.008    4.861102    3.539416   -3.009202
  19 H   1.0000    0     1.008   -4.764441    2.955734   -3.450541

      -----------------------------------------------------------      
     |                   =====================                   |     
     |                           x T B                           |     
     |                   =====================                   |     
     |                         S. Grimme                         |     
     |          Mulliken Center for Theoretical Chemistry        |     
     |                    University of Bonn                     |     
      -----------------------------------------------------------      

   * xtb version 6.7.1 (edcfbbe) compiled by 'albert@albert-system' on 2024-07-22

   xtb is free software: you can redistribute it and/or modify it under
   the terms of the GNU Lesser General Public License as published by
   the Free Software Foundation, either version 3 of the License, or
   (at your option) any later version.
   
   xtb is distributed in the hope that it will be useful,
   but WITHOUT ANY WARRANTY; without even the implied warranty of
   MERCHANTABILITY or FITNESS FOR A PARTICULAR PURPOSE.  See the
   GNU Lesser General Public License for more details.
   
   Cite this work as:
   * C. Bannwarth, E. Caldeweyher, S. Ehlert, A. Hansen, P. Pracht,
     J. Seibert, S. Spicher, S. Grimme, WIREs Comput. Mol. Sci., 2020, 11,
     e01493. DOI: 10.1002/wcms.1493
   
   for GFN2-xTB:
   * C. Bannwarth, S. Ehlert and S. Grimme., J. Chem. Theory Comput., 2019,
     15, 1652-1671. DOI: 10.1021/acs.jctc.8b01176
   for GFN1-xTB:
   * S. Grimme, C. Bannwarth, P. Shushkov, J. Chem. Theory Comput., 2017,
     13, 1989-2009. DOI: 10.1021/acs.jctc.7b00118
   for GFN0-xTB:
   * P. Pracht, E. Caldeweyher, S. Ehlert, S. Grimme, ChemRxiv, 2019, preprint.
     DOI: 10.26434/chemrxiv.8326202.v1
   for GFN-FF:
   * S. Spicher and S. Grimme, Angew. Chem. Int. Ed., 2020, 59, 15665-15673.
     DOI: 10.1002/anie.202004239
   
   for ALPB and GBSA implicit solvation:
   * S. Ehlert, M. Stahn, S. Spicher, S. Grimme, J. Chem. Theory Comput.,
     2021, 17, 4250-4261. DOI: 10.1021/acs.jctc.1c00471
   
   for ddCOSMO and CPCM-X implicit solvation:
   * M. Stahn, S. Ehlert, S. Grimme, J. Phys. Chem. A,
     2023, XX, XXXX-XXXX. DOI: 10.1021/acs.jpca.3c04382
   
   for DFT-D4:
   * E. Caldeweyher, C. Bannwarth and S. Grimme, J. Chem. Phys., 2017,
     147, 034112. DOI: 10.1063/1.4993215
   * E. Caldeweyher, S. Ehlert, A. Hansen, H. Neugebauer, S. Spicher,
     C. Bannwarth and S. Grimme, J. Chem. Phys., 2019, 150, 154122.
     DOI: 10.1063/1.5090222
   * E. Caldeweyher, J.-M. Mewes, S. Ehlert and S. Grimme, Phys. Chem. Chem. Phys.
     2020, 22, 8499-8512. DOI: 10.1039/D0CP00502A
   
   for sTDA-xTB:
   * S. Grimme and C. Bannwarth, J. Chem. Phys., 2016, 145, 054103.
     DOI: 10.1063/1.4959605
   
   in the mass-spec context:
   * V. Asgeirsson, C. Bauer and S. Grimme, Chem. Sci., 2017, 8, 4879.
     DOI: 10.1039/c7sc00601b
   * J. Koopman and S. Grimme, ACS Omega 2019, 4, 12, 15120-15133.
     DOI: 10.1021/acsomega.9b02011
   
   for metadynamics refer to:
   * S. Grimme, J. Chem. Theory Comput., 2019, 155, 2847-2862
     DOI: 10.1021/acs.jctc.9b00143
   
   for SPH calculations refer to:
   * S. Spicher and S. Grimme, J. Chem. Theory Comput., 2021, 17, 1701-1714
     DOI: 10.1021/acs.jctc.0c01306
   
   for ONIOM refer to:
   * C. Plett, A. Katbashev, S. Ehlert, S. Grimme, M. Bursch,
     Phys. Chem. Chem. Phys., 2023, 25, 17860-17868. DOI: 10.1039/D3CP02178E
   
   for DIPRO refer to:
   * J. Kohn, N. Gildemeister, S. Grimme, D. Fazzi, A. Hansen,
     J. Chem. Phys., 2023, just accepted.
   
   for PTB refer to:
   * S. Grimme, M. Mueller, A. Hansen, J. Chem. Phys., 2023, 158, 124111.
     DOI: 10.1063/5.0137838
   
   with help from (in alphabetical order)
   P. Atkinson, C. Bannwarth, F. Bohle, G. Brandenburg, E. Caldeweyher
   M. Checinski, S. Dohm, S. Ehlert, S. Ehrlich, I. Gerasimov, C. Hölzer
   A. Katbashev, J. Kohn, J. Koopman, C. Lavigne, S. Lehtola, F. März, M. Müller,
   F. Musil, H. Neugebauer, J. Pisarek, C. Plett, P. Pracht, F. Pultar,
   J. Seibert, P. Shushkov, S. Spicher, M. Stahn, M. Steiner, T. Strunk,
   J. Stückrath, T. Rose, and J. Unsleber
   
 * started run on 2026/04/09 at 15:47:05.999     
   ID    Z sym.   atoms
    1    7 N      1, 6, 8
    2    6 C      2-5, 7, 9
    3    8 O      10, 11
    4    1 H      12-20

           -------------------------------------------------
          |                Calculation Setup                |
           -------------------------------------------------

          program call               : /home/analima/Programs/orca-6.1.0-f.0_linux_x86-64/bin/otool_xtb geo_opt_XTB.xyz --grad -c 0 -u 0 -P 1 --namespace geo_opt --input geo_opt_XTB.input.tmp --alpb WATER --acc 0.200000
          calculation namespace      : geo_opt
          coordinate file            : geo_opt_XTB.xyz
          omp threads                :                     1


           -------------------------------------------------
          |                 G F N 2 - x T B                 |
           -------------------------------------------------

        Reference                      10.1021/acs.jctc.8b01176
      * Hamiltonian:
        H0-scaling (s, p, d)           1.850000    2.230000    2.230000
        zeta-weighting                 0.500000
      * Dispersion:
        s8                             2.700000
        a1                             0.520000
        a2                             5.000000
        s9                             5.000000
      * Repulsion:
        kExp                           1.500000    1.000000
        rExp                           1.000000
      * Coulomb:
        alpha                          2.000000
        third order                    shell-resolved
        anisotropic                    true
        a3                             3.000000
        a5                             4.000000
        cn-shift                       1.200000
        cn-exp                         4.000000
        max-rad                        5.000000

      * Solvation model:               ALPB
        Solvent                        WATER
        Parameter file                 internal GFN2-xTB/ALPB
        Dielectric constant                8.0200E+01
        Reference state                gsolv [1 M gas/solution]
        Free energy shift                  1.0808E-03 Eh       6.7819E-01 kcal/mol
        Temperature                        2.9815E+02 K
        Density                            1.0000E+00 kg/L
        Solvent mass                       1.8000E+01 g/mol
        Interaction kernel             P16
        Born radius scaling (c1)           1.4744E+00
        Born radii integrator          GBOBC
        Born offset                        0.0000E+00 a0       0.0000E+00 AA
        H-bond correction              true
        Ion screening                  false
        Surface tension                    1.0000E-05 Eh       1.5569E+01 dyn/cm
        Grid points                               230 per atom
q/qsh data taken from xtbrestart
CAMM data taken from xtbrestart

          ...................................................
          :                      SETUP                      :
          :.................................................:
          :  # basis functions                  53          :
          :  # atomic orbitals                  53          :
          :  # shells                           31          :
          :  # electrons                        60          :
          :  max. iterations                   250          :
          :  Hamiltonian                  GFN2-xTB          :
          :  restarted?                       true          :
          :  GBSA solvation                   true          :
          :  PC potential                    false          :
          :  electronic temp.          300.0000000     K    :
          :  accuracy                    0.2000000          :
          :  -> integral cutoff          0.3198970E+02      :
          :  -> integral neglect         0.2000000E-08      :
          :  -> SCF convergence          0.2000000E-06 Eh   :
          :  -> wf. convergence          0.2000000E-04 e    :
          :  Broyden damping             0.4000000          :
          :  net charge                          0          :
          :  unpaired electrons                  0          :
          ...................................................

 iter      E             dE          RMSdq      gap      omega  full diag
   1    -34.7650071 -0.347650E+02  0.201E-01    3.61       0.0  T
   2    -34.7650141 -0.701855E-05  0.116E-01    3.61       1.0  T
   3    -34.7650159 -0.183704E-05  0.103E-02    3.61       2.2  T
   4    -34.7650166 -0.659574E-06  0.576E-03    3.61       3.9  T
   5    -34.7650167 -0.169990E-06  0.269E-03    3.61       8.3  T
   6    -34.7650168 -0.142979E-07  0.991E-04    3.61      22.6  T
   7    -34.7650168 -0.534842E-08  0.336E-04    3.61      66.5  T
   8    -34.7650168 -0.220631E-09  0.143E-04    3.61     156.1  T
   9    -34.7650168 -0.867217E-10  0.341E-05    3.61     655.8  T

   *** convergence criteria satisfied after 9 iterations ***

         #    Occupation            Energy/Eh            Energy/eV
      -------------------------------------------------------------
         1        2.0000           -0.7434012             -20.2290
       ...           ...                  ...                  ...
        24        2.0000           -0.4596059             -12.5065
        25        2.0000           -0.4517969             -12.2940
        26        2.0000           -0.4284481             -11.6587
        27        2.0000           -0.4212398             -11.4625
        28        2.0000           -0.3875084             -10.5446
        29        2.0000           -0.3827246             -10.4145
        30        2.0000           -0.3703348             -10.0773 (HOMO)
        31                         -0.2377476              -6.4694 (LUMO)
        32                         -0.2018448              -5.4925
        33                         -0.1692520              -4.6056
        34                          0.0301078               0.8193
        35                          0.0405689               1.1039
       ...                                ...                  ...
        53                          0.6293738              17.1261
      -------------------------------------------------------------
                  HL-Gap            0.1325872 Eh            3.6079 eV
             Fermi-level           -0.3040412 Eh           -8.2734 eV

 SCC (total)                   0 d,  0 h,  0 min,  0.018 sec
 SCC setup                      ...        0 min,  0.000 sec (  2.036%)
 Dispersion                     ...        0 min,  0.000 sec (  0.515%)
 classical contributions        ...        0 min,  0.000 sec (  0.111%)
 integral evaluation            ...        0 min,  0.002 sec (  9.807%)
 iterations                     ...        0 min,  0.012 sec ( 65.275%)
 molecular gradient             ...        0 min,  0.004 sec ( 21.873%)
 printout                       ...        0 min,  0.000 sec (  0.304%)

         :::::::::::::::::::::::::::::::::::::::::::::::::::::
         ::                     SUMMARY                     ::
         :::::::::::::::::::::::::::::::::::::::::::::::::::::
         :: total energy             -34.365151103768 Eh    ::
         :: total w/o Gsasa/hb       -34.351544950112 Eh    ::
         :: gradient norm              0.006666677044 Eh/a0 ::
         :: HOMO-LUMO gap              3.607881125120 eV    ::
         ::.................................................::
         :: SCC energy               -34.764891915027 Eh    ::
         :: -> isotropic ES            0.096732840467 Eh    ::
         :: -> anisotropic ES          0.002759425649 Eh    ::
         :: -> anisotropic XC          0.015557344492 Eh    ::
         :: -> dispersion             -0.017411818065 Eh    ::
         :: -> Gsolv                  -0.029246464390 Eh    ::
         ::    -> Gelec               -0.015640310734 Eh    ::
         ::    -> Gsasa               -0.001651591559 Eh    ::
         ::    -> Ghb                 -0.013035321795 Eh    ::
         ::    -> Gshift               0.001080759698 Eh    ::
         :: repulsion energy           0.399740811259 Eh    ::
         :: add. restraining           0.000000000000 Eh    ::
         :: total charge               0.000000000000 e     ::
         :::::::::::::::::::::::::::::::::::::::::::::::::::::


Property printout bound to 'properties.out'

           -------------------------------------------------
          | TOTAL ENERGY              -34.365151103768 Eh   |
          | GRADIENT NORM               0.006666677044 Eh/α |
          | HOMO-LUMO GAP               3.607881125120 eV   |
           -------------------------------------------------

------------------------------------------------------------------------
 * finished run on 2026/04/09 at 15:47:06.027     
------------------------------------------------------------------------
 total:
 * wall-time:     0 d,  0 h,  0 min,  0.028 sec
 *  cpu-time:     0 d,  0 h,  0 min,  0.017 sec
 * ratio c/w:     0.588 speedup
 SCF:
 * wall-time:     0 d,  0 h,  0 min,  0.018 sec
 *  cpu-time:     0 d,  0 h,  0 min,  0.011 sec
 * ratio c/w:     0.605 speedup


-------------------------   --------------------
FINAL SINGLE POINT ENERGY       -34.365151103770
-------------------------   --------------------


-------------
DIPOLE MOMENT
-------------
                                X             Y             Z
Total Dipole Moment    :      1.51200      -0.57100       0.13100
                        -----------------------------------------
Magnitude (a.u.)       :      1.62153
Magnitude (Debye)      :      4.12159


------------------
CARTESIAN GRADIENT
------------------

   1   N   :   -0.000956372   -0.000247221   -0.001024268
   2   C   :    0.002059515   -0.000093685    0.000515454
   3   C   :   -0.001100545   -0.001509472    0.000874726
   4   C   :   -0.001270906   -0.000377457    0.001114423
   5   C   :   -0.000373457   -0.000144086   -0.001226855
   6   N   :   -0.000306129    0.000328729   -0.000303802
   7   C   :    0.001478061    0.000930065    0.000696483
   8   N   :   -0.001077207   -0.000220939   -0.000405344
   9   C   :    0.001745731   -0.000319485   -0.001203896
  10   O   :   -0.000029969    0.001243657    0.001613844
  11   O   :   -0.002402304   -0.001715617   -0.000687254
  12   H   :    0.000501418   -0.000608782    0.000111008
  13   H   :    0.000541671    0.000752570    0.000077502
  14   H   :   -0.000447202   -0.000171343   -0.000068161
  15   H   :   -0.000155597    0.000651571   -0.000349986
  16   H   :    0.000073470    0.000399620    0.000334494
  17   H   :    0.000171571   -0.000376336    0.000532354
  18   H   :    0.000720314    0.000244150    0.000222654
  19   H   :    0.000087205    0.000170627   -0.000163222
  20   H   :    0.000740733    0.001063435   -0.000660154

Difference to translation invariance:
           :    0.0000000000    0.0000000000    0.0000000000

Difference to rotation invariance:
           :    0.0001987872   -0.0000699927    0.0000906841

Norm of the Cartesian gradient     ...    0.0066666770
RMS gradient                       ...    0.0008606643
MAX gradient                       ...    0.0024023044
------------------------------------------------------------------------------
                         ORCA GEOMETRY RELAXATION STEP
------------------------------------------------------------------------------

Reading the OPT-File                    .... done
Getting information on internals        .... done
Copying old internal coords+grads       .... done
Making the new internal coordinates     .... (2022 redundants) done
Validating the new internal coordinates .... (2022 redundants) done
Calculating the B-matrix                .... done
Calculating the G,G- and P matrices     .... done
Transforming gradient to internals      .... done
Projecting the internal gradient        .... done
Number of atoms                         ....  20
Number of internal coordinates          ....  92
Current Energy                          ....   -34.365151104 Eh
Current gradient norm                   ....     0.006666677 Eh/bohr
Maximum allowed component of the step   ....  0.300
Current trust radius                    ....  0.700
Updating the Hessian (BFGS)             .... done
Forming the augmented Hessian           .... done
Diagonalizing the augmented Hessian     .... done
Last element of RFO vector              ....  0.993596326
Lowest eigenvalues of augmented Hessian:
 -0.000224588  0.005162198  0.014366593  0.015011475  0.015579622
Length of the computed step             ....  0.113716438
The final length of the internal step   ....  0.113716438
Converting the step to Cartesian space:
 Initial RMS(Int)=    0.0118557582
Transforming coordinates:
 Iter   0:  RMS(Cart)=    0.0415891892 RMS(Int)=    0.9262202580
done
Storing new coordinates                 .... done
The predicted energy change is          ....    -0.000113746
Previously predicted energy change      ....    -0.000329787
Actually observed energy change         ....    -0.000333805
Ratio of predicted to observed change   ....     1.012181934
New trust radius                        ....     0.700000000

                                .--------------------.
          ----------------------|Geometry convergence|-------------------------
          Item                value                   Tolerance       Converged
          ---------------------------------------------------------------------
          Energy change      -0.0003338047            0.0000050000      NO
          RMS gradient        0.0006025582            0.0001000000      NO
          MAX gradient        0.0021285865            0.0003000000      NO
          RMS step            0.0118557582            0.0020000000      NO
          MAX step            0.0437577042            0.0040000000      NO
          -------------------------------------------------------------------------
          ........................................................
          Max(Bonds)      0.0023      Max(Angles)    0.51
          Max(Dihed)        2.51      Max(Improp)    0.00
          ---------------------------------------------------------------------

The optimization has not yet converged - more geometry cycles are needed


    ---------------------------------------------------------------------------
                         Redundant Internal Coordinates
                            (Angstroem and degrees)

        Definition                    Value    dE/dq     Step     New-Value
    ----------------------------------------------------------------------------
     1. B(C   1,N   0)                1.4480 -0.000806  0.0012    1.4492   
     2. B(C   2,C   1)                1.5536 -0.001987  0.0018    1.5554   
     3. B(C   3,C   2)                1.4901 -0.000170  0.0001    1.4901   
     4. B(C   4,C   3)                1.3690 -0.000010  0.0003    1.3693   
     5. B(N   5,C   4)                1.3675  0.000839 -0.0010    1.3665   
     6. B(C   6,N   5)                1.3491 -0.000265  0.0002    1.3493   
     7. B(N   7,C   3)                1.3690  0.000661 -0.0006    1.3684   
     8. B(N   7,C   6)                1.3071  0.001655 -0.0009    1.3062   
     9. B(C   8,C   1)                1.5177  0.000642 -0.0014    1.5164   
    10. B(O   9,C   8)                1.2128  0.001668 -0.0004    1.2124   
    11. B(O  10,C   8)                1.3189  0.002051 -0.0009    1.3180   
    12. B(H  11,N   0)                1.0146  0.000771 -0.0006    1.0140   
    13. B(H  12,N   0)                1.0169  0.000933 -0.0009    1.0161   
    14. B(H  12,O   9)                2.3064 -0.000001 -0.0023    2.3041   
    15. B(H  13,C   1)                1.0970  0.000474 -0.0007    1.0964   
    16. B(H  14,C   2)                1.0899  0.000287 -0.0003    1.0896   
    17. B(H  15,C   2)                1.0900 -0.000193  0.0005    1.0906   
    18. B(H  16,C   4)                1.0709  0.000672 -0.0007    1.0702   
    19. B(H  17,N   5)                1.0080  0.000779 -0.0006    1.0073   
    20. B(H  18,C   6)                1.0711  0.000248 -0.0003    1.0708   
    21. B(H  19,O  10)                0.9789  0.001194 -0.0013    0.9776   
    22. A(C   1,N   0,H  12)          109.03 -0.000064    0.06    109.08   
    23. A(H  11,N   0,H  12)          108.17  0.000030   -0.07    108.10   
    24. A(C   1,N   0,H  11)          109.98 -0.000256    0.06    110.04   
    25. A(N   0,C   1,C   8)          109.78  0.000511   -0.11    109.67   
    26. A(C   8,C   1,H  13)          108.21 -0.000092    0.12    108.34   
    27. A(N   0,C   1,H  13)          108.89  0.000124   -0.02    108.87   
    28. A(C   2,C   1,H  13)          108.26  0.000058   -0.02    108.24   
    29. A(C   2,C   1,C   8)          106.77 -0.000480    0.06    106.83   
    30. A(N   0,C   1,C   2)          114.73 -0.000135   -0.03    114.70   
    31. A(C   1,C   2,H  15)          108.49  0.000677   -0.23    108.26   
    32. A(C   3,C   2,H  14)          109.17  0.000631   -0.01    109.15   
    33. A(C   1,C   2,H  14)          108.52  0.000097    0.16    108.67   
    34. A(H  14,C   2,H  15)          110.05  0.000556   -0.35    109.70   
    35. A(C   1,C   2,C   3)          110.20 -0.002129    0.51    110.71   
    36. A(C   3,C   2,H  15)          110.40  0.000158   -0.14    110.25   
    37. A(C   2,C   3,C   4)          129.30  0.000271    0.03    129.32   
    38. A(C   2,C   3,N   7)          121.37  0.000191   -0.05    121.32   
    39. A(C   4,C   3,N   7)          109.24 -0.000473    0.03    109.27   
    40. A(N   5,C   4,H  16)          122.24 -0.000322   -0.01    122.23   
    41. A(C   3,C   4,H  16)          131.51 -0.000255    0.07    131.57   
    42. A(C   3,C   4,N   5)          106.25  0.000578   -0.06    106.19   
    43. A(C   4,N   5,H  17)          126.30  0.000117   -0.04    126.26   
    44. A(C   4,N   5,C   6)          106.58 -0.000013    0.04    106.63   
    45. A(C   6,N   5,H  17)          127.12 -0.000103   -0.01    127.11   
    46. A(N   5,C   6,H  18)          123.71  0.000189    0.01    123.72   
    47. A(N   7,C   6,H  18)          124.24  0.000115    0.01    124.25   
    48. A(N   5,C   6,N   7)          112.05 -0.000304   -0.02    112.03   
    49. A(C   3,N   7,C   6)          105.87  0.000213    0.00    105.87   
    50. A(O   9,C   8,O  10)          123.68  0.000769   -0.23    123.44   
    51. A(C   1,C   8,O  10)          112.46 -0.000134    0.18    112.63   
    52. A(C   1,C   8,O   9)          123.87 -0.000634    0.10    123.97   
    53. A(C   8,O  10,H  19)          112.53 -0.000677    0.20    112.74   
    54. D(C   8,C   1,N   0,H  11)   -154.89  0.000280   -0.13   -155.02   
    55. D(C   2,C   1,N   0,H  11)    -34.67 -0.000056   -0.16    -34.83   
    56. D(H  13,C   1,N   0,H  11)     86.81  0.000020   -0.22     86.59   
    57. D(C   8,C   1,N   0,H  12)    -36.44  0.000127   -0.13    -36.57   
    58. D(C   2,C   1,N   0,H  12)     83.78 -0.000208   -0.16     83.62   
    59. D(C   3,C   2,C   1,N   0)    -65.11 -0.000097   -0.61    -65.72   
    60. D(H  14,C   2,C   1,H  13)     53.58  0.000223   -1.01     52.56   
    61. D(H  14,C   2,C   1,C   8)    -62.73  0.000550   -1.18    -63.91   
    62. D(H  14,C   2,C   1,N   0)    175.40  0.000336   -1.07    174.33   
    63. D(C   3,C   2,C   1,C   8)     56.75  0.000117   -0.72     56.03   
    64. D(C   3,C   2,C   1,H  13)    173.06 -0.000209   -0.55    172.50   
    65. D(C   4,C   3,C   2,H  15)    -32.09  0.000937   -2.00    -34.10   
    66. D(C   4,C   3,C   2,H  14)   -153.19 -0.000258   -1.47   -154.66   
    67. D(N   7,C   3,C   2,C   1)    -88.33  0.000786   -2.51    -90.84   
    68. D(C   4,C   3,C   2,C   1)     87.73  0.000517   -2.06     85.66   
    69. D(N   7,C   3,C   2,H  14)     30.75  0.000011   -1.92     28.84   
    70. D(H  16,C   4,C   3,N   7)   -179.37 -0.000027    0.05   -179.32   
    71. D(H  16,C   4,C   3,C   2)      4.20  0.000199   -0.33      3.87   
    72. D(N   5,C   4,C   3,N   7)      0.04  0.000037   -0.12     -0.09   
    73. D(N   5,C   4,C   3,C   2)   -176.40  0.000262   -0.50   -176.90   
    74. D(H  17,N   5,C   4,H  16)     -0.54  0.000072   -0.19     -0.72   
    75. D(H  17,N   5,C   4,C   3)    179.99  0.000016   -0.02    179.97   
    76. D(C   6,N   5,C   4,H  16)    179.55  0.000049   -0.12    179.43   
    77. D(C   6,N   5,C   4,C   3)      0.08 -0.000007    0.05      0.13   
    78. D(H  18,C   6,N   5,H  17)      0.15  0.000006   -0.01      0.14   
    79. D(H  18,C   6,N   5,C   4)   -179.94  0.000029   -0.08   -180.03   
    80. D(N   7,C   6,N   5,H  17)    179.91 -0.000048    0.12    180.03   
    81. D(N   7,C   6,N   5,C   4)     -0.18 -0.000025    0.04     -0.14   
    82. D(C   3,N   7,C   6,N   5)      0.20  0.000048   -0.12      0.07   
    83. D(C   6,N   7,C   3,C   4)     -0.14 -0.000051    0.15      0.01   
    84. D(C   6,N   7,C   3,C   2)    176.63 -0.000249    0.52    177.15   
    85. D(C   3,N   7,C   6,H  18)    179.96 -0.000006    0.02    179.98   
    86. D(O  10,C   8,C   1,C   2)     77.06  0.000328    1.21     78.27   
    87. D(O  10,C   8,C   1,N   0)   -158.00  0.000167    1.15   -156.85   
    88. D(O   9,C   8,C   1,H  13)    140.84 -0.000104    1.40    142.24   
    89. D(O   9,C   8,C   1,C   2)   -102.82 -0.000331    1.48   -101.35   
    90. D(O   9,C   8,C   1,N   0)     22.11 -0.000492    1.41     23.53   
    91. D(H  19,O  10,C   8,O   9)      4.48  0.000964   -1.91      2.57   
    92. D(H  19,O  10,C   8,C   1)   -175.41  0.000309   -1.71   -177.11   
    ----------------------------------------------------------------------------

Geometry step timings:
Preparation and reading OPT file:      0.000 s ( 0.719 %)
Internal coordinates            :      0.000 s ( 0.719 %)
B/P matrices and projection     :      0.001 s (39.757 %)
Hessian update/contruction      :      0.000 s (10.692 %)
Making the step                 :      0.001 s (30.189 %)
Converting the step to Cartesian:      0.000 s ( 3.639 %)
Storing new data                :      0.000 s ( 0.943 %)
Checking convergence            :      0.000 s ( 1.078 %)
Final printing                  :      0.000 s (12.264 %)
Total time                      :      0.002 s

Time for energy+gradient        :      0.032 s
Time for complete geometry iter :      0.035 s

         *************************************************************
         *                GEOMETRY OPTIMIZATION CYCLE   8            *
         *************************************************************
---------------------------------
CARTESIAN COORDINATES (ANGSTROEM)
---------------------------------
  N    -1.324200   -0.424829    1.825299
  C    -1.576842   -0.581003    0.407126
  C    -0.437793   -1.286694   -0.382690
  C     0.796362   -0.451624   -0.387689
  C     1.800669   -0.381732    0.540444
  N     2.661064    0.583707    0.098922
  C     2.151610    1.055058   -1.058249
  N     1.035865    0.457862   -1.381698
  C    -1.773038    0.781662   -0.227696
  O    -1.337989    1.813206    0.237542
  O    -2.463807    0.724619   -1.348691
  H    -0.803608   -1.221367    2.175545
  H    -0.762623    0.409272    1.972025
  H    -2.497699   -1.160532    0.272345
  H    -0.768753   -1.442414   -1.409059
  H    -0.240123   -2.249477    0.089867
  H     1.972764   -0.930122    1.443180
  H     3.507843    0.881482    0.556125
  H     2.612664    1.826775   -1.639960
  H    -2.552366    1.596151   -1.782688

----------------------------
CARTESIAN COORDINATES (A.U.)
----------------------------
  NO LB    ZA    FRAG    MASS        X           Y           Z
   0 N   7.0000    0    14.007   -2.502376   -0.802811    3.449315
   1 C   6.0000    0    12.011   -2.979800   -1.097936    0.769356
   2 C   6.0000    0    12.011   -0.827309   -2.431499   -0.723180
   3 C   6.0000    0    12.011    1.504907   -0.853446   -0.732626
   4 C   6.0000    0    12.011    3.402771   -0.721370    1.021291
   5 N   7.0000    0    14.007    5.028682    1.103047    0.186936
   6 C   6.0000    0    12.011    4.065953    1.993771   -1.999801
   7 N   7.0000    0    14.007    1.957501    0.865234   -2.611031
   8 C   6.0000    0    12.011   -3.350555    1.477127   -0.430282
   9 O   8.0000    0    15.999   -2.528432    3.426463    0.448889
  10 O   8.0000    0    15.999   -4.655920    1.369331   -2.548657
  11 H   1.0000    0     1.008   -1.518598   -2.308049    4.111184
  12 H   1.0000    0     1.008   -1.441149    0.773412    3.726587
  13 H   1.0000    0     1.008   -4.719967   -2.193088    0.514657
  14 H   1.0000    0     1.008   -1.452733   -2.725768   -2.662735
  15 H   1.0000    0     1.008   -0.453767   -4.250895    0.169823
  16 H   1.0000    0     1.008    3.727984   -1.757675    2.727216
  17 H   1.0000    0     1.008    6.628863    1.665760    1.050925
  18 H   1.0000    0     1.008    4.937220    3.452105   -3.099076
  19 H   1.0000    0     1.008   -4.823273    3.016288   -3.368792

      -----------------------------------------------------------      
     |                   =====================                   |     
     |                           x T B                           |     
     |                   =====================                   |     
     |                         S. Grimme                         |     
     |          Mulliken Center for Theoretical Chemistry        |     
     |                    University of Bonn                     |     
      -----------------------------------------------------------      

   * xtb version 6.7.1 (edcfbbe) compiled by 'albert@albert-system' on 2024-07-22

   xtb is free software: you can redistribute it and/or modify it under
   the terms of the GNU Lesser General Public License as published by
   the Free Software Foundation, either version 3 of the License, or
   (at your option) any later version.
   
   xtb is distributed in the hope that it will be useful,
   but WITHOUT ANY WARRANTY; without even the implied warranty of
   MERCHANTABILITY or FITNESS FOR A PARTICULAR PURPOSE.  See the
   GNU Lesser General Public License for more details.
   
   Cite this work as:
   * C. Bannwarth, E. Caldeweyher, S. Ehlert, A. Hansen, P. Pracht,
     J. Seibert, S. Spicher, S. Grimme, WIREs Comput. Mol. Sci., 2020, 11,
     e01493. DOI: 10.1002/wcms.1493
   
   for GFN2-xTB:
   * C. Bannwarth, S. Ehlert and S. Grimme., J. Chem. Theory Comput., 2019,
     15, 1652-1671. DOI: 10.1021/acs.jctc.8b01176
   for GFN1-xTB:
   * S. Grimme, C. Bannwarth, P. Shushkov, J. Chem. Theory Comput., 2017,
     13, 1989-2009. DOI: 10.1021/acs.jctc.7b00118
   for GFN0-xTB:
   * P. Pracht, E. Caldeweyher, S. Ehlert, S. Grimme, ChemRxiv, 2019, preprint.
     DOI: 10.26434/chemrxiv.8326202.v1
   for GFN-FF:
   * S. Spicher and S. Grimme, Angew. Chem. Int. Ed., 2020, 59, 15665-15673.
     DOI: 10.1002/anie.202004239
   
   for ALPB and GBSA implicit solvation:
   * S. Ehlert, M. Stahn, S. Spicher, S. Grimme, J. Chem. Theory Comput.,
     2021, 17, 4250-4261. DOI: 10.1021/acs.jctc.1c00471
   
   for ddCOSMO and CPCM-X implicit solvation:
   * M. Stahn, S. Ehlert, S. Grimme, J. Phys. Chem. A,
     2023, XX, XXXX-XXXX. DOI: 10.1021/acs.jpca.3c04382
   
   for DFT-D4:
   * E. Caldeweyher, C. Bannwarth and S. Grimme, J. Chem. Phys., 2017,
     147, 034112. DOI: 10.1063/1.4993215
   * E. Caldeweyher, S. Ehlert, A. Hansen, H. Neugebauer, S. Spicher,
     C. Bannwarth and S. Grimme, J. Chem. Phys., 2019, 150, 154122.
     DOI: 10.1063/1.5090222
   * E. Caldeweyher, J.-M. Mewes, S. Ehlert and S. Grimme, Phys. Chem. Chem. Phys.
     2020, 22, 8499-8512. DOI: 10.1039/D0CP00502A
   
   for sTDA-xTB:
   * S. Grimme and C. Bannwarth, J. Chem. Phys., 2016, 145, 054103.
     DOI: 10.1063/1.4959605
   
   in the mass-spec context:
   * V. Asgeirsson, C. Bauer and S. Grimme, Chem. Sci., 2017, 8, 4879.
     DOI: 10.1039/c7sc00601b
   * J. Koopman and S. Grimme, ACS Omega 2019, 4, 12, 15120-15133.
     DOI: 10.1021/acsomega.9b02011
   
   for metadynamics refer to:
   * S. Grimme, J. Chem. Theory Comput., 2019, 155, 2847-2862
     DOI: 10.1021/acs.jctc.9b00143
   
   for SPH calculations refer to:
   * S. Spicher and S. Grimme, J. Chem. Theory Comput., 2021, 17, 1701-1714
     DOI: 10.1021/acs.jctc.0c01306
   
   for ONIOM refer to:
   * C. Plett, A. Katbashev, S. Ehlert, S. Grimme, M. Bursch,
     Phys. Chem. Chem. Phys., 2023, 25, 17860-17868. DOI: 10.1039/D3CP02178E
   
   for DIPRO refer to:
   * J. Kohn, N. Gildemeister, S. Grimme, D. Fazzi, A. Hansen,
     J. Chem. Phys., 2023, just accepted.
   
   for PTB refer to:
   * S. Grimme, M. Mueller, A. Hansen, J. Chem. Phys., 2023, 158, 124111.
     DOI: 10.1063/5.0137838
   
   with help from (in alphabetical order)
   P. Atkinson, C. Bannwarth, F. Bohle, G. Brandenburg, E. Caldeweyher
   M. Checinski, S. Dohm, S. Ehlert, S. Ehrlich, I. Gerasimov, C. Hölzer
   A. Katbashev, J. Kohn, J. Koopman, C. Lavigne, S. Lehtola, F. März, M. Müller,
   F. Musil, H. Neugebauer, J. Pisarek, C. Plett, P. Pracht, F. Pultar,
   J. Seibert, P. Shushkov, S. Spicher, M. Stahn, M. Steiner, T. Strunk,
   J. Stückrath, T. Rose, and J. Unsleber
   
 * started run on 2026/04/09 at 15:47:06.034     
   ID    Z sym.   atoms
    1    7 N      1, 6, 8
    2    6 C      2-5, 7, 9
    3    8 O      10, 11
    4    1 H      12-20

           -------------------------------------------------
          |                Calculation Setup                |
           -------------------------------------------------

          program call               : /home/analima/Programs/orca-6.1.0-f.0_linux_x86-64/bin/otool_xtb geo_opt_XTB.xyz --grad -c 0 -u 0 -P 1 --namespace geo_opt --input geo_opt_XTB.input.tmp --alpb WATER --acc 0.200000
          calculation namespace      : geo_opt
          coordinate file            : geo_opt_XTB.xyz
          omp threads                :                     1


           -------------------------------------------------
          |                 G F N 2 - x T B                 |
           -------------------------------------------------

        Reference                      10.1021/acs.jctc.8b01176
      * Hamiltonian:
        H0-scaling (s, p, d)           1.850000    2.230000    2.230000
        zeta-weighting                 0.500000
      * Dispersion:
        s8                             2.700000
        a1                             0.520000
        a2                             5.000000
        s9                             5.000000
      * Repulsion:
        kExp                           1.500000    1.000000
        rExp                           1.000000
      * Coulomb:
        alpha                          2.000000
        third order                    shell-resolved
        anisotropic                    true
        a3                             3.000000
        a5                             4.000000
        cn-shift                       1.200000
        cn-exp                         4.000000
        max-rad                        5.000000

      * Solvation model:               ALPB
        Solvent                        WATER
        Parameter file                 internal GFN2-xTB/ALPB
        Dielectric constant                8.0200E+01
        Reference state                gsolv [1 M gas/solution]
        Free energy shift                  1.0808E-03 Eh       6.7819E-01 kcal/mol
        Temperature                        2.9815E+02 K
        Density                            1.0000E+00 kg/L
        Solvent mass                       1.8000E+01 g/mol
        Interaction kernel             P16
        Born radius scaling (c1)           1.4744E+00
        Born radii integrator          GBOBC
        Born offset                        0.0000E+00 a0       0.0000E+00 AA
        H-bond correction              true
        Ion screening                  false
        Surface tension                    1.0000E-05 Eh       1.5569E+01 dyn/cm
        Grid points                               230 per atom
q/qsh data taken from xtbrestart
CAMM data taken from xtbrestart

          ...................................................
          :                      SETUP                      :
          :.................................................:
          :  # basis functions                  53          :
          :  # atomic orbitals                  53          :
          :  # shells                           31          :
          :  # electrons                        60          :
          :  max. iterations                   250          :
          :  Hamiltonian                  GFN2-xTB          :
          :  restarted?                       true          :
          :  GBSA solvation                   true          :
          :  PC potential                    false          :
          :  electronic temp.          300.0000000     K    :
          :  accuracy                    0.2000000          :
          :  -> integral cutoff          0.3198970E+02      :
          :  -> integral neglect         0.2000000E-08      :
          :  -> SCF convergence          0.2000000E-06 Eh   :
          :  -> wf. convergence          0.2000000E-04 e    :
          :  Broyden damping             0.4000000          :
          :  net charge                          0          :
          :  unpaired electrons                  0          :
          ...................................................

 iter      E             dE          RMSdq      gap      omega  full diag
   1    -34.7664011 -0.347664E+02  0.132E-01    3.61       0.0  T
   2    -34.7664036 -0.247946E-05  0.764E-02    3.61       1.0  T
   3    -34.7664037 -0.905833E-07  0.850E-03    3.61       2.6  T
   4    -34.7664046 -0.877806E-06  0.327E-03    3.61       6.8  T
   5    -34.7664046 -0.113023E-07  0.129E-03    3.61      17.3  T
   6    -34.7664046 -0.158444E-07  0.278E-04    3.61      80.4  T
   7    -34.7664046 -0.138805E-09  0.146E-04    3.61     153.3  T
   8    -34.7664046 -0.770299E-10  0.489E-05    3.61     457.1  T

   *** convergence criteria satisfied after 8 iterations ***

         #    Occupation            Energy/Eh            Energy/eV
      -------------------------------------------------------------
         1        2.0000           -0.7439711             -20.2445
       ...           ...                  ...                  ...
        24        2.0000           -0.4594456             -12.5022
        25        2.0000           -0.4517970             -12.2940
        26        2.0000           -0.4287010             -11.6655
        27        2.0000           -0.4215939             -11.4722
        28        2.0000           -0.3874117             -10.5420
        29        2.0000           -0.3825973             -10.4110
        30        2.0000           -0.3703973             -10.0790 (HOMO)
        31                         -0.2377847              -6.4705 (LUMO)
        32                         -0.2015930              -5.4856
        33                         -0.1691140              -4.6018
        34                          0.0310536               0.8450
        35                          0.0406772               1.1069
       ...                                ...                  ...
        53                          0.6301596              17.1475
      -------------------------------------------------------------
                  HL-Gap            0.1326126 Eh            3.6086 eV
             Fermi-level           -0.3040910 Eh           -8.2747 eV

 SCC (total)                   0 d,  0 h,  0 min,  0.017 sec
 SCC setup                      ...        0 min,  0.000 sec (  2.453%)
 Dispersion                     ...        0 min,  0.000 sec (  0.658%)
 classical contributions        ...        0 min,  0.000 sec (  0.144%)
 integral evaluation            ...        0 min,  0.002 sec ( 10.739%)
 iterations                     ...        0 min,  0.011 sec ( 61.761%)
 molecular gradient             ...        0 min,  0.004 sec ( 23.843%)
 printout                       ...        0 min,  0.000 sec (  0.340%)

         :::::::::::::::::::::::::::::::::::::::::::::::::::::
         ::                     SUMMARY                     ::
         :::::::::::::::::::::::::::::::::::::::::::::::::::::
         :: total energy             -34.365314825718 Eh    ::
         :: total w/o Gsasa/hb       -34.351602806243 Eh    ::
         :: gradient norm              0.003255842913 Eh/a0 ::
         :: HOMO-LUMO gap              3.608571374389 eV    ::
         ::.................................................::
         :: SCC energy               -34.766279394722 Eh    ::
         :: -> isotropic ES            0.096703139885 Eh    ::
         :: -> anisotropic ES          0.002751681320 Eh    ::
         :: -> anisotropic XC          0.015487352570 Eh    ::
         :: -> dispersion             -0.017365415813 Eh    ::
         :: -> Gsolv                  -0.029317443706 Eh    ::
         ::    -> Gelec               -0.015605424232 Eh    ::
         ::    -> Gsasa               -0.001699305449 Eh    ::
         ::    -> Ghb                 -0.013093473724 Eh    ::
         ::    -> Gshift               0.001080759698 Eh    ::
         :: repulsion energy           0.400964569005 Eh    ::
         :: add. restraining           0.000000000000 Eh    ::
         :: total charge               0.000000000000 e     ::
         :::::::::::::::::::::::::::::::::::::::::::::::::::::


Property printout bound to 'properties.out'

           -------------------------------------------------
          | TOTAL ENERGY              -34.365314825718 Eh   |
          | GRADIENT NORM               0.003255842913 Eh/α |
          | HOMO-LUMO GAP               3.608571374389 eV   |
           -------------------------------------------------

------------------------------------------------------------------------
 * finished run on 2026/04/09 at 15:47:06.062     
------------------------------------------------------------------------
 total:
 * wall-time:     0 d,  0 h,  0 min,  0.028 sec
 *  cpu-time:     0 d,  0 h,  0 min,  0.018 sec
 * ratio c/w:     0.640 speedup
 SCF:
 * wall-time:     0 d,  0 h,  0 min,  0.017 sec
 *  cpu-time:     0 d,  0 h,  0 min,  0.012 sec
 * ratio c/w:     0.676 speedup


-------------------------   --------------------
FINAL SINGLE POINT ENERGY       -34.365314825720
-------------------------   --------------------


-------------
DIPOLE MOMENT
-------------
                                X             Y             Z
Total Dipole Moment    :      1.46000      -0.52500       0.17000
                        -----------------------------------------
Magnitude (a.u.)       :      1.56081
Magnitude (Debye)      :      3.96726


------------------
CARTESIAN GRADIENT
------------------

   1   N   :   -0.000499133   -0.000011337   -0.000372561
   2   C   :    0.000724657    0.000210150    0.000172590
   3   C   :   -0.000766058   -0.000638276    0.000103623
   4   C   :   -0.000380200   -0.000192399    0.000804081
   5   C   :    0.000127065    0.000116783   -0.000621873
   6   N   :   -0.000539028   -0.000197676   -0.000021069
   7   C   :    0.000860046    0.000429731    0.000127500
   8   N   :   -0.000449590    0.000099359    0.000046113
   9   C   :    0.001519615   -0.000639140   -0.000375268
  10   O   :   -0.000469261    0.000343835    0.000605748
  11   O   :   -0.001038091   -0.000082369   -0.000711387
  12   H   :    0.000350190   -0.000143248    0.000044390
  13   H   :    0.000209055    0.000238312    0.000074683
  14   H   :   -0.000269436   -0.000049164   -0.000001722
  15   H   :    0.000003169    0.000042769   -0.000178659
  16   H   :    0.000105927    0.000314394    0.000188930
  17   H   :    0.000157759   -0.000132438    0.000164276
  18   H   :    0.000264574    0.000088577    0.000023594
  19   H   :   -0.000061206   -0.000000365   -0.000060044
  20   H   :    0.000149948    0.000202502   -0.000012944

Difference to translation invariance:
           :   -0.0000000000    0.0000000000   -0.0000000000

Difference to rotation invariance:
           :   -0.0000069565   -0.0000935356    0.0001208152

Norm of the Cartesian gradient     ...    0.0032558429
RMS gradient                       ...    0.0004203275
MAX gradient                       ...    0.0015196149
------------------------------------------------------------------------------
                         ORCA GEOMETRY RELAXATION STEP
------------------------------------------------------------------------------

Reading the OPT-File                    .... done
Getting information on internals        .... done
Copying old internal coords+grads       .... done
Making the new internal coordinates     .... (2022 redundants) done
Validating the new internal coordinates .... (2022 redundants) done
Calculating the B-matrix                .... done
Calculating the G,G- and P matrices     .... done
Transforming gradient to internals      .... done
Projecting the internal gradient        .... done
Number of atoms                         ....  20
Number of internal coordinates          ....  92
Current Energy                          ....   -34.365314826 Eh
Current gradient norm                   ....     0.003255843 Eh/bohr
Maximum allowed component of the step   ....  0.300
Current trust radius                    ....  0.700
Updating the Hessian (BFGS)             .... done
Forming the augmented Hessian           .... done
Diagonalizing the augmented Hessian     .... done
Last element of RFO vector              ....  0.979350546
Lowest eigenvalues of augmented Hessian:
 -0.000181984  0.003344259  0.012156885  0.014696445  0.015644081
Length of the computed step             ....  0.206432214
The final length of the internal step   ....  0.206432214
Converting the step to Cartesian space:
 Initial RMS(Int)=    0.0215220461
Transforming coordinates:
 Iter   0:  RMS(Cart)=    0.0668018521 RMS(Int)=    0.6552057506
 Iter   5:  RMS(Cart)=    0.0000000259 RMS(Int)=    0.0000000145
done
Storing new coordinates                 .... done
The predicted energy change is          ....    -0.000094870
Previously predicted energy change      ....    -0.000113746
Actually observed energy change         ....    -0.000163722
Ratio of predicted to observed change   ....     1.439363254
New trust radius                        ....     0.700000000

                                .--------------------.
          ----------------------|Geometry convergence|-------------------------
          Item                value                   Tolerance       Converged
          ---------------------------------------------------------------------
          Energy change      -0.0001637219            0.0000050000      NO
          RMS gradient        0.0002487160            0.0001000000      NO
          MAX gradient        0.0010734720            0.0003000000      NO
          RMS step            0.0215220461            0.0020000000      NO
          MAX step            0.0695594244            0.0040000000      NO
          -------------------------------------------------------------------------
          ........................................................
          Max(Bonds)      0.0018      Max(Angles)    0.49
          Max(Dihed)        3.99      Max(Improp)    0.00
          ---------------------------------------------------------------------

The optimization has not yet converged - more geometry cycles are needed


    ---------------------------------------------------------------------------
                         Redundant Internal Coordinates
                            (Angstroem and degrees)

        Definition                    Value    dE/dq     Step     New-Value
    ----------------------------------------------------------------------------
     1. B(C   1,N   0)                1.4489 -0.000175  0.0008    1.4497   
     2. B(C   2,C   1)                1.5554 -0.000750  0.0018    1.5572   
     3. B(C   3,C   2)                1.4901  0.000094 -0.0002    1.4899   
     4. B(C   4,C   3)                1.3693 -0.000002 -0.0000    1.3693   
     5. B(N   5,C   4)                1.3665 -0.000008 -0.0005    1.3660   
     6. B(C   6,N   5)                1.3494 -0.000170  0.0001    1.3495   
     7. B(N   7,C   3)                1.3684  0.000276 -0.0004    1.3680   
     8. B(N   7,C   6)                1.3062  0.000547 -0.0007    1.3055   
     9. B(C   8,C   1)                1.5160  0.000096 -0.0016    1.5144   
    10. B(O   9,C   8)                1.2124  0.000368 -0.0003    1.2121   
    11. B(O  10,C   8)                1.3180  0.001073 -0.0012    1.3168   
    12. B(H  11,N   0)                1.0140  0.000308 -0.0004    1.0135   
    13. B(H  12,N   0)                1.0162  0.000305 -0.0004    1.0157   
    14. B(H  12,O   9)                2.3045 -0.000072  0.0013    2.3057   
    15. B(H  13,C   1)                1.0964  0.000252 -0.0010    1.0953   
    16. B(H  14,C   2)                1.0896  0.000161 -0.0003    1.0892   
    17. B(H  15,C   2)                1.0906 -0.000177  0.0007    1.0913   
    18. B(H  16,C   4)                1.0702  0.000232 -0.0006    1.0696   
    19. B(H  17,N   5)                1.0073  0.000258 -0.0006    1.0068   
    20. B(H  18,C   6)                1.0708  0.000006 -0.0002    1.0706   
    21. B(H  19,O  10)                0.9776  0.000174 -0.0006    0.9770   
    22. A(C   1,N   0,H  12)          109.04  0.000119   -0.05    108.98   
    23. A(H  11,N   0,H  12)          108.13 -0.000121   -0.16    107.98   
    24. A(C   1,N   0,H  11)          110.06 -0.000092    0.04    110.10   
    25. A(N   0,C   1,C   8)          109.60  0.000125   -0.13    109.47   
    26. A(C   8,C   1,H  13)          108.36 -0.000081    0.30    108.65   
    27. A(N   0,C   1,H  13)          108.89  0.000109    0.07    108.96   
    28. A(C   2,C   1,H  13)          108.23 -0.000058    0.02    108.25   
    29. A(C   2,C   1,C   8)          106.85 -0.000041   -0.18    106.67   
    30. A(N   0,C   1,C   2)          114.72 -0.000062   -0.05    114.67   
    31. A(C   1,C   2,H  15)          108.26  0.000267   -0.24    108.01   
    32. A(C   3,C   2,H  14)          109.18  0.000256   -0.15    109.02   
    33. A(C   1,C   2,H  14)          108.71  0.000015    0.20    108.90   
    34. A(H  14,C   2,H  15)          109.70  0.000261   -0.29    109.41   
    35. A(C   1,C   2,C   3)          110.73 -0.000621    0.49    111.22   
    36. A(C   3,C   2,H  15)          110.25 -0.000171    0.01    110.26   
    37. A(C   2,C   3,C   4)          129.33  0.000360    0.13    129.46   
    38. A(C   2,C   3,N   7)          121.32 -0.000080   -0.16    121.16   
    39. A(C   4,C   3,N   7)          109.27 -0.000282    0.04    109.32   
    40. A(N   5,C   4,H  16)          122.23 -0.000203   -0.18    122.05   
    41. A(C   3,C   4,H  16)          131.57 -0.000025    0.23    131.80   
    42. A(C   3,C   4,N   5)          106.19  0.000227   -0.06    106.14   
    43. A(C   4,N   5,H  17)          126.26  0.000003    0.01    126.27   
    44. A(C   4,N   5,C   6)          106.63  0.000155    0.03    106.65   
    45. A(C   6,N   5,H  17)          127.11 -0.000158   -0.03    127.08   
    46. A(N   5,C   6,H  18)          123.72  0.000213    0.06    123.78   
    47. A(N   7,C   6,H  18)          124.25  0.000039   -0.06    124.19   
    48. A(N   5,C   6,N   7)          112.03 -0.000252   -0.00    112.03   
    49. A(C   3,N   7,C   6)          105.87  0.000152   -0.01    105.86   
    50. A(O   9,C   8,O  10)          123.46 -0.000174   -0.14    123.31   
    51. A(C   1,C   8,O  10)          112.65  0.000422    0.06    112.71   
    52. A(C   1,C   8,O   9)          123.89 -0.000245    0.05    123.94   
    53. A(C   8,O  10,H  19)          112.74 -0.000291    0.11    112.84   
    54. D(C   8,C   1,N   0,H  11)   -155.02  0.000115   -0.12   -155.14   
    55. D(C   2,C   1,N   0,H  11)    -34.83  0.000112   -0.49    -35.31   
    56. D(H  13,C   1,N   0,H  11)     86.61  0.000076   -0.44     86.17   
    57. D(C   8,C   1,N   0,H  12)    -36.57 -0.000015   -0.31    -36.88   
    58. D(C   2,C   1,N   0,H  12)     83.62 -0.000018   -0.68     82.94   
    59. D(C   3,C   2,C   1,N   0)    -65.70  0.000040   -1.08    -66.79   
    60. D(H  14,C   2,C   1,H  13)     52.57  0.000038   -1.38     51.19   
    61. D(H  14,C   2,C   1,C   8)    -63.94  0.000183   -1.64    -65.57   
    62. D(H  14,C   2,C   1,N   0)    174.36  0.000094   -1.30    173.07   
    63. D(C   3,C   2,C   1,C   8)     56.00  0.000130   -1.42     54.57   
    64. D(C   3,C   2,C   1,H  13)    172.50 -0.000015   -1.16    171.34   
    65. D(C   4,C   3,C   2,H  15)    -34.10  0.000507   -3.78    -37.88   
    66. D(C   4,C   3,C   2,H  14)   -154.68  0.000129   -3.34   -158.01   
    67. D(N   7,C   3,C   2,C   1)    -90.82  0.000384   -3.99    -94.81   
    68. D(C   4,C   3,C   2,C   1)     85.67  0.000330   -3.76     81.91   
    69. D(N   7,C   3,C   2,H  14)     28.83  0.000183   -3.56     25.27   
    70. D(H  16,C   4,C   3,N   7)   -179.31  0.000026    0.05   -179.25   
    71. D(H  16,C   4,C   3,C   2)      3.86  0.000072   -0.15      3.71   
    72. D(N   5,C   4,C   3,N   7)     -0.09 -0.000030    0.04     -0.05   
    73. D(N   5,C   4,C   3,C   2)   -176.92  0.000016   -0.17   -177.09   
    74. D(H  17,N   5,C   4,H  16)     -0.72 -0.000000   -0.16     -0.88   
    75. D(H  17,N   5,C   4,C   3)    179.97  0.000048   -0.19    179.79   
    76. D(C   6,N   5,C   4,H  16)    179.44 -0.000041    0.04    179.48   
    77. D(C   6,N   5,C   4,C   3)      0.13  0.000008    0.01      0.14   
    78. D(H  18,C   6,N   5,H  17)      0.13 -0.000033    0.11      0.24   
    79. D(H  18,C   6,N   5,C   4)    179.97  0.000009   -0.10    179.88   
    80. D(N   7,C   6,N   5,H  17)   -179.97 -0.000021    0.15   -179.82   
    81. D(N   7,C   6,N   5,C   4)     -0.13  0.000020   -0.05     -0.19   
    82. D(C   3,N   7,C   6,N   5)      0.08 -0.000038    0.08      0.16   
    83. D(C   6,N   7,C   3,C   4)      0.01  0.000041   -0.07     -0.06   
    84. D(C   6,N   7,C   3,C   2)    177.14  0.000017    0.11    177.25   
    85. D(C   3,N   7,C   6,H  18)    179.97 -0.000026    0.12    180.09   
    86. D(O  10,C   8,C   1,C   2)     78.28  0.000262    2.85     81.13   
    87. D(O  10,C   8,C   1,N   0)   -156.84  0.000237    2.58   -154.26   
    88. D(O   9,C   8,C   1,H  13)    142.22 -0.000245    3.75    145.97   
    89. D(O   9,C   8,C   1,C   2)   -101.36 -0.000375    3.83    -97.52   
    90. D(O   9,C   8,C   1,N   0)     23.52 -0.000401    3.57     27.09   
    91. D(H  19,O  10,C   8,O   9)      2.55  0.000400   -1.50      1.05   
    92. D(H  19,O  10,C   8,C   1)   -177.09 -0.000234   -0.48   -177.57   
    ----------------------------------------------------------------------------

Geometry step timings:
Preparation and reading OPT file:      0.000 s ( 0.816 %)
Internal coordinates            :      0.000 s ( 0.816 %)
B/P matrices and projection     :      0.001 s (39.710 %)
Hessian update/contruction      :      0.000 s (10.381 %)
Making the step                 :      0.001 s (30.417 %)
Converting the step to Cartesian:      0.000 s ( 3.898 %)
Storing new data                :      0.000 s ( 0.907 %)
Checking convergence            :      0.000 s ( 1.179 %)
Final printing                  :      0.000 s (11.831 %)
Total time                      :      0.002 s

Time for energy+gradient        :      0.032 s
Time for complete geometry iter :      0.035 s

         *************************************************************
         *                GEOMETRY OPTIMIZATION CYCLE   9            *
         *************************************************************
---------------------------------
CARTESIAN COORDINATES (ANGSTROEM)
---------------------------------
  N    -1.343134   -0.463600    1.823842
  C    -1.580372   -0.593182    0.399817
  C    -0.431645   -1.286413   -0.390652
  C     0.801301   -0.449897   -0.394594
  C     1.772811   -0.327263    0.562525
  N     2.647361    0.613403    0.097490
  C     2.177891    1.019069   -1.100875
  N     1.075063    0.402386   -1.429017
  C    -1.758085    0.782218   -0.207796
  O    -1.267939    1.791790    0.250001
  O    -2.481451    0.763227   -1.307916
  H    -0.834458   -1.270219    2.167160
  H    -0.773109    0.360781    1.989363
  H    -2.499862   -1.167306    0.242786
  H    -0.756258   -1.444970   -1.418243
  H    -0.232532   -2.250830    0.079635
  H     1.916743   -0.822016    1.499850
  H     3.476220    0.939624    0.566696
  H     2.657115    1.758940   -1.708398
  H    -2.565661    1.644257   -1.721675

----------------------------
CARTESIAN COORDINATES (A.U.)
----------------------------
  NO LB    ZA    FRAG    MASS        X           Y           Z
   0 N   7.0000    0    14.007   -2.538156   -0.876076    3.446562
   1 C   6.0000    0    12.011   -2.986471   -1.120951    0.755545
   2 C   6.0000    0    12.011   -0.815690   -2.430969   -0.738225
   3 C   6.0000    0    12.011    1.514238   -0.850182   -0.745675
   4 C   6.0000    0    12.011    3.350128   -0.618438    1.063018
   5 N   7.0000    0    14.007    5.002788    1.159164    0.184230
   6 C   6.0000    0    12.011    4.115617    1.925761   -2.080353
   7 N   7.0000    0    14.007    2.031574    0.760399   -2.700450
   8 C   6.0000    0    12.011   -3.322298    1.478178   -0.392678
   9 O   8.0000    0    15.999   -2.396057    3.385993    0.472434
  10 O   8.0000    0    15.999   -4.689263    1.442291   -2.471602
  11 H   1.0000    0     1.008   -1.576896   -2.400366    4.095339
  12 H   1.0000    0     1.008   -1.460964    0.681778    3.759352
  13 H   1.0000    0     1.008   -4.724055   -2.205888    0.458798
  14 H   1.0000    0     1.008   -1.429120   -2.730597   -2.680091
  15 H   1.0000    0     1.008   -0.439422   -4.253451    0.150489
  16 H   1.0000    0     1.008    3.622119   -1.553385    2.834306
  17 H   1.0000    0     1.008    6.569103    1.775632    1.070900
  18 H   1.0000    0     1.008    5.021220    3.323914   -3.228405
  19 H   1.0000    0     1.008   -4.848396    3.107196   -3.253494

      -----------------------------------------------------------      
     |                   =====================                   |     
     |                           x T B                           |     
     |                   =====================                   |     
     |                         S. Grimme                         |     
     |          Mulliken Center for Theoretical Chemistry        |     
     |                    University of Bonn                     |     
      -----------------------------------------------------------      

   * xtb version 6.7.1 (edcfbbe) compiled by 'albert@albert-system' on 2024-07-22

   xtb is free software: you can redistribute it and/or modify it under
   the terms of the GNU Lesser General Public License as published by
   the Free Software Foundation, either version 3 of the License, or
   (at your option) any later version.
   
   xtb is distributed in the hope that it will be useful,
   but WITHOUT ANY WARRANTY; without even the implied warranty of
   MERCHANTABILITY or FITNESS FOR A PARTICULAR PURPOSE.  See the
   GNU Lesser General Public License for more details.
   
   Cite this work as:
   * C. Bannwarth, E. Caldeweyher, S. Ehlert, A. Hansen, P. Pracht,
     J. Seibert, S. Spicher, S. Grimme, WIREs Comput. Mol. Sci., 2020, 11,
     e01493. DOI: 10.1002/wcms.1493
   
   for GFN2-xTB:
   * C. Bannwarth, S. Ehlert and S. Grimme., J. Chem. Theory Comput., 2019,
     15, 1652-1671. DOI: 10.1021/acs.jctc.8b01176
   for GFN1-xTB:
   * S. Grimme, C. Bannwarth, P. Shushkov, J. Chem. Theory Comput., 2017,
     13, 1989-2009. DOI: 10.1021/acs.jctc.7b00118
   for GFN0-xTB:
   * P. Pracht, E. Caldeweyher, S. Ehlert, S. Grimme, ChemRxiv, 2019, preprint.
     DOI: 10.26434/chemrxiv.8326202.v1
   for GFN-FF:
   * S. Spicher and S. Grimme, Angew. Chem. Int. Ed., 2020, 59, 15665-15673.
     DOI: 10.1002/anie.202004239
   
   for ALPB and GBSA implicit solvation:
   * S. Ehlert, M. Stahn, S. Spicher, S. Grimme, J. Chem. Theory Comput.,
     2021, 17, 4250-4261. DOI: 10.1021/acs.jctc.1c00471
   
   for ddCOSMO and CPCM-X implicit solvation:
   * M. Stahn, S. Ehlert, S. Grimme, J. Phys. Chem. A,
     2023, XX, XXXX-XXXX. DOI: 10.1021/acs.jpca.3c04382
   
   for DFT-D4:
   * E. Caldeweyher, C. Bannwarth and S. Grimme, J. Chem. Phys., 2017,
     147, 034112. DOI: 10.1063/1.4993215
   * E. Caldeweyher, S. Ehlert, A. Hansen, H. Neugebauer, S. Spicher,
     C. Bannwarth and S. Grimme, J. Chem. Phys., 2019, 150, 154122.
     DOI: 10.1063/1.5090222
   * E. Caldeweyher, J.-M. Mewes, S. Ehlert and S. Grimme, Phys. Chem. Chem. Phys.
     2020, 22, 8499-8512. DOI: 10.1039/D0CP00502A
   
   for sTDA-xTB:
   * S. Grimme and C. Bannwarth, J. Chem. Phys., 2016, 145, 054103.
     DOI: 10.1063/1.4959605
   
   in the mass-spec context:
   * V. Asgeirsson, C. Bauer and S. Grimme, Chem. Sci., 2017, 8, 4879.
     DOI: 10.1039/c7sc00601b
   * J. Koopman and S. Grimme, ACS Omega 2019, 4, 12, 15120-15133.
     DOI: 10.1021/acsomega.9b02011
   
   for metadynamics refer to:
   * S. Grimme, J. Chem. Theory Comput., 2019, 155, 2847-2862
     DOI: 10.1021/acs.jctc.9b00143
   
   for SPH calculations refer to:
   * S. Spicher and S. Grimme, J. Chem. Theory Comput., 2021, 17, 1701-1714
     DOI: 10.1021/acs.jctc.0c01306
   
   for ONIOM refer to:
   * C. Plett, A. Katbashev, S. Ehlert, S. Grimme, M. Bursch,
     Phys. Chem. Chem. Phys., 2023, 25, 17860-17868. DOI: 10.1039/D3CP02178E
   
   for DIPRO refer to:
   * J. Kohn, N. Gildemeister, S. Grimme, D. Fazzi, A. Hansen,
     J. Chem. Phys., 2023, just accepted.
   
   for PTB refer to:
   * S. Grimme, M. Mueller, A. Hansen, J. Chem. Phys., 2023, 158, 124111.
     DOI: 10.1063/5.0137838
   
   with help from (in alphabetical order)
   P. Atkinson, C. Bannwarth, F. Bohle, G. Brandenburg, E. Caldeweyher
   M. Checinski, S. Dohm, S. Ehlert, S. Ehrlich, I. Gerasimov, C. Hölzer
   A. Katbashev, J. Kohn, J. Koopman, C. Lavigne, S. Lehtola, F. März, M. Müller,
   F. Musil, H. Neugebauer, J. Pisarek, C. Plett, P. Pracht, F. Pultar,
   J. Seibert, P. Shushkov, S. Spicher, M. Stahn, M. Steiner, T. Strunk,
   J. Stückrath, T. Rose, and J. Unsleber
   
 * started run on 2026/04/09 at 15:47:06.068     
   ID    Z sym.   atoms
    1    7 N      1, 6, 8
    2    6 C      2-5, 7, 9
    3    8 O      10, 11
    4    1 H      12-20

           -------------------------------------------------
          |                Calculation Setup                |
           -------------------------------------------------

          program call               : /home/analima/Programs/orca-6.1.0-f.0_linux_x86-64/bin/otool_xtb geo_opt_XTB.xyz --grad -c 0 -u 0 -P 1 --namespace geo_opt --input geo_opt_XTB.input.tmp --alpb WATER --acc 0.200000
          calculation namespace      : geo_opt
          coordinate file            : geo_opt_XTB.xyz
          omp threads                :                     1


           -------------------------------------------------
          |                 G F N 2 - x T B                 |
           -------------------------------------------------

        Reference                      10.1021/acs.jctc.8b01176
      * Hamiltonian:
        H0-scaling (s, p, d)           1.850000    2.230000    2.230000
        zeta-weighting                 0.500000
      * Dispersion:
        s8                             2.700000
        a1                             0.520000
        a2                             5.000000
        s9                             5.000000
      * Repulsion:
        kExp                           1.500000    1.000000
        rExp                           1.000000
      * Coulomb:
        alpha                          2.000000
        third order                    shell-resolved
        anisotropic                    true
        a3                             3.000000
        a5                             4.000000
        cn-shift                       1.200000
        cn-exp                         4.000000
        max-rad                        5.000000

      * Solvation model:               ALPB
        Solvent                        WATER
        Parameter file                 internal GFN2-xTB/ALPB
        Dielectric constant                8.0200E+01
        Reference state                gsolv [1 M gas/solution]
        Free energy shift                  1.0808E-03 Eh       6.7819E-01 kcal/mol
        Temperature                        2.9815E+02 K
        Density                            1.0000E+00 kg/L
        Solvent mass                       1.8000E+01 g/mol
        Interaction kernel             P16
        Born radius scaling (c1)           1.4744E+00
        Born radii integrator          GBOBC
        Born offset                        0.0000E+00 a0       0.0000E+00 AA
        H-bond correction              true
        Ion screening                  false
        Surface tension                    1.0000E-05 Eh       1.5569E+01 dyn/cm
        Grid points                               230 per atom
q/qsh data taken from xtbrestart
CAMM data taken from xtbrestart

          ...................................................
          :                      SETUP                      :
          :.................................................:
          :  # basis functions                  53          :
          :  # atomic orbitals                  53          :
          :  # shells                           31          :
          :  # electrons                        60          :
          :  max. iterations                   250          :
          :  Hamiltonian                  GFN2-xTB          :
          :  restarted?                       true          :
          :  GBSA solvation                   true          :
          :  PC potential                    false          :
          :  electronic temp.          300.0000000     K    :
          :  accuracy                    0.2000000          :
          :  -> integral cutoff          0.3198970E+02      :
          :  -> integral neglect         0.2000000E-08      :
          :  -> SCF convergence          0.2000000E-06 Eh   :
          :  -> wf. convergence          0.2000000E-04 e    :
          :  Broyden damping             0.4000000          :
          :  net charge                          0          :
          :  unpaired electrons                  0          :
          ...................................................

 iter      E             dE          RMSdq      gap      omega  full diag
   1    -34.7675668 -0.347676E+02  0.236E-01    3.62       0.0  T
   2    -34.7675741 -0.729858E-05  0.137E-01    3.61       1.0  T
   3    -34.7675765 -0.239218E-05  0.987E-03    3.61       2.3  T
   4    -34.7675771 -0.583457E-06  0.521E-03    3.61       4.3  T
   5    -34.7675771 -0.371673E-07  0.137E-03    3.61      16.4  T
   6    -34.7675771 -0.174821E-07  0.631E-04    3.61      35.4  T
   7    -34.7675771 -0.767386E-09  0.277E-04    3.61      80.7  T
   8    -34.7675771 -0.308980E-09  0.867E-05    3.61     257.8  T
   9    -34.7675771 -0.560902E-10  0.418E-05    3.61     535.1  T

   *** convergence criteria satisfied after 9 iterations ***

         #    Occupation            Energy/Eh            Energy/eV
      -------------------------------------------------------------
         1        2.0000           -0.7448384             -20.2681
       ...           ...                  ...                  ...
        24        2.0000           -0.4594197             -12.5014
        25        2.0000           -0.4517915             -12.2939
        26        2.0000           -0.4288807             -11.6704
        27        2.0000           -0.4219487             -11.4818
        28        2.0000           -0.3871722             -10.5355
        29        2.0000           -0.3825034             -10.4084
        30        2.0000           -0.3707052             -10.0874 (HOMO)
        31                         -0.2380635              -6.4780 (LUMO)
        32                         -0.2012408              -5.4760
        33                         -0.1688590              -4.5949
        34                          0.0319687               0.8699
        35                          0.0412589               1.1227
       ...                                ...                  ...
        53                          0.6319103              17.1952
      -------------------------------------------------------------
                  HL-Gap            0.1326417 Eh            3.6094 eV
             Fermi-level           -0.3043843 Eh           -8.2827 eV

 SCC (total)                   0 d,  0 h,  0 min,  0.014 sec
 SCC setup                      ...        0 min,  0.000 sec (  1.718%)
 Dispersion                     ...        0 min,  0.000 sec (  0.399%)
 classical contributions        ...        0 min,  0.000 sec (  0.085%)
 integral evaluation            ...        0 min,  0.001 sec (  6.600%)
 iterations                     ...        0 min,  0.008 sec ( 59.972%)
 molecular gradient             ...        0 min,  0.004 sec ( 30.627%)
 printout                       ...        0 min,  0.000 sec (  0.520%)

         :::::::::::::::::::::::::::::::::::::::::::::::::::::
         ::                     SUMMARY                     ::
         :::::::::::::::::::::::::::::::::::::::::::::::::::::
         :: total energy             -34.365421688725 Eh    ::
         :: total w/o Gsasa/hb       -34.351584100081 Eh    ::
         :: gradient norm              0.002407153064 Eh/a0 ::
         :: HOMO-LUMO gap              3.609364427927 eV    ::
         ::.................................................::
         :: SCC energy               -34.767452281438 Eh    ::
         :: -> isotropic ES            0.096617793712 Eh    ::
         :: -> anisotropic ES          0.002636250574 Eh    ::
         :: -> anisotropic XC          0.015436146923 Eh    ::
         :: -> dispersion             -0.017369387620 Eh    ::
         :: -> Gsolv                  -0.029334450215 Eh    ::
         ::    -> Gelec               -0.015496861571 Eh    ::
         ::    -> Gsasa               -0.001778083763 Eh    ::
         ::    -> Ghb                 -0.013140264579 Eh    ::
         ::    -> Gshift               0.001080759698 Eh    ::
         :: repulsion energy           0.402030592713 Eh    ::
         :: add. restraining           0.000000000000 Eh    ::
         :: total charge              -0.000000000000 e     ::
         :::::::::::::::::::::::::::::::::::::::::::::::::::::


Property printout bound to 'properties.out'

           -------------------------------------------------
          | TOTAL ENERGY              -34.365421688725 Eh   |
          | GRADIENT NORM               0.002407153064 Eh/α |
          | HOMO-LUMO GAP               3.609364427927 eV   |
           -------------------------------------------------

------------------------------------------------------------------------
 * finished run on 2026/04/09 at 15:47:06.095     
------------------------------------------------------------------------
 total:
 * wall-time:     0 d,  0 h,  0 min,  0.026 sec
 *  cpu-time:     0 d,  0 h,  0 min,  0.016 sec
 * ratio c/w:     0.625 speedup
 SCF:
 * wall-time:     0 d,  0 h,  0 min,  0.014 sec
 *  cpu-time:     0 d,  0 h,  0 min,  0.010 sec
 * ratio c/w:     0.720 speedup


-------------------------   --------------------
FINAL SINGLE POINT ENERGY       -34.365421688730
-------------------------   --------------------


-------------
DIPOLE MOMENT
-------------
                                X             Y             Z
Total Dipole Moment    :      1.36800      -0.43700       0.22900
                        -----------------------------------------
Magnitude (a.u.)       :      1.45425
Magnitude (Debye)      :      3.69640


------------------
CARTESIAN GRADIENT
------------------

   1   N   :   -0.000394080   -0.000003845   -0.000054827
   2   C   :   -0.000361660    0.000441121   -0.000401101
   3   C   :   -0.000397125    0.000323121   -0.000492562
   4   C   :    0.000301751    0.000135133    0.000651446
   5   C   :    0.000123917   -0.000050307   -0.000289826
   6   N   :   -0.000488233   -0.000529854    0.000423653
   7   C   :    0.000211053    0.000095212   -0.000072410
   8   N   :    0.000183280    0.000115782    0.000025400
   9   C   :    0.000361078   -0.000606383    0.000803731
  10   O   :   -0.000271795   -0.000448113   -0.000446663
  11   O   :    0.000238005    0.000634457   -0.000349222
  12   H   :    0.000315421    0.000340259   -0.000051161
  13   H   :    0.000010812   -0.000108411    0.000004428
  14   H   :    0.000013010    0.000092858    0.000018831
  15   H   :    0.000199582   -0.000318886    0.000043043
  16   H   :    0.000114825    0.000112063    0.000139376
  17   H   :    0.000330099    0.000184781   -0.000125614
  18   H   :   -0.000110692   -0.000037632   -0.000197339
  19   H   :   -0.000271630   -0.000064037   -0.000052686
  20   H   :   -0.000107617   -0.000307320    0.000423504

Difference to translation invariance:
           :    0.0000000000   -0.0000000000   -0.0000000000

Difference to rotation invariance:
           :   -0.0001444384    0.0000926704    0.0001735472

Norm of the Cartesian gradient     ...    0.0024071531
RMS gradient                       ...    0.0003107621
MAX gradient                       ...    0.0008037312
------------------------------------------------------------------------------
                         ORCA GEOMETRY RELAXATION STEP
------------------------------------------------------------------------------

Reading the OPT-File                    .... done
Getting information on internals        .... done
Copying old internal coords+grads       .... done
Making the new internal coordinates     .... (2022 redundants) done
Validating the new internal coordinates .... (2022 redundants) done
Calculating the B-matrix                .... done
Calculating the G,G- and P matrices     .... done
Transforming gradient to internals      .... done
Projecting the internal gradient        .... done
Number of atoms                         ....  20
Number of internal coordinates          ....  92
Current Energy                          ....   -34.365421689 Eh
Current gradient norm                   ....     0.002407153 Eh/bohr
Maximum allowed component of the step   ....  0.300
Current trust radius                    ....  0.700
Updating the Hessian (BFGS)             .... done
Forming the augmented Hessian           .... done
Diagonalizing the augmented Hessian     .... done
Last element of RFO vector              ....  0.996712212
Lowest eigenvalues of augmented Hessian:
 -0.000043547  0.002779357  0.010953322  0.014673802  0.015785238
Length of the computed step             ....  0.081290516
The final length of the internal step   ....  0.081290516
Converting the step to Cartesian space:
 Initial RMS(Int)=    0.0084751221
Transforming coordinates:
 Iter   0:  RMS(Cart)=    0.0268339978 RMS(Int)=    0.6549560432
done
Storing new coordinates                 .... done
The predicted energy change is          ....    -0.000021917
Previously predicted energy change      ....    -0.000094870
Actually observed energy change         ....    -0.000106863
Ratio of predicted to observed change   ....     1.126419827
New trust radius                        ....     0.700000000

                                .--------------------.
          ----------------------|Geometry convergence|-------------------------
          Item                value                   Tolerance       Converged
          ---------------------------------------------------------------------
          Energy change      -0.0001068630            0.0000050000      NO
          RMS gradient        0.0002176494            0.0001000000      NO
          MAX gradient        0.0006769000            0.0003000000      NO
          RMS step            0.0084751221            0.0020000000      NO
          MAX step            0.0336079972            0.0040000000      NO
          -------------------------------------------------------------------------
          ........................................................
          Max(Bonds)      0.0081      Max(Angles)    0.09
          Max(Dihed)        1.93      Max(Improp)    0.00
          ---------------------------------------------------------------------

The optimization has not yet converged - more geometry cycles are needed


    ---------------------------------------------------------------------------
                         Redundant Internal Coordinates
                            (Angstroem and degrees)

        Definition                    Value    dE/dq     Step     New-Value
    ----------------------------------------------------------------------------
     1. B(C   1,N   0)                1.4495  0.000047  0.0002    1.4496   
     2. B(C   2,C   1)                1.5572  0.000137  0.0005    1.5578   
     3. B(C   3,C   2)                1.4899  0.000141 -0.0002    1.4897   
     4. B(C   4,C   3)                1.3693 -0.000094  0.0001    1.3693   
     5. B(N   5,C   4)                1.3660 -0.000542  0.0003    1.3663   
     6. B(C   6,N   5)                1.3495 -0.000001  0.0000    1.3495   
     7. B(N   7,C   3)                1.3680 -0.000013 -0.0002    1.3678   
     8. B(N   7,C   6)                1.3055 -0.000369 -0.0000    1.3054   
     9. B(C   8,C   1)                1.5141 -0.000677  0.0004    1.5145   
    10. B(O   9,C   8)                1.2120 -0.000621  0.0002    1.2122   
    11. B(O  10,C   8)                1.3168 -0.000142 -0.0004    1.3164   
    12. B(H  11,N   0)                1.0135 -0.000130 -0.0001    1.0135   
    13. B(H  12,N   0)                1.0158 -0.000134 -0.0001    1.0158   
    14. B(H  12,O   9)                2.3061 -0.000196  0.0081    2.3142   
    15. B(H  13,C   1)                1.0953 -0.000062 -0.0002    1.0951   
    16. B(H  14,C   2)                1.0892 -0.000052 -0.0000    1.0892   
    17. B(H  15,C   2)                1.0913 -0.000020  0.0002    1.0915   
    18. B(H  16,C   4)                1.0696 -0.000150 -0.0000    1.0696   
    19. B(H  17,N   5)                1.0068 -0.000195 -0.0000    1.0067   
    20. B(H  18,C   6)                1.0706 -0.000137  0.0001    1.0707   
    21. B(H  19,O  10)                0.9770 -0.000444  0.0002    0.9772   
    22. A(C   1,N   0,H  12)          108.93  0.000225   -0.03    108.90   
    23. A(H  11,N   0,H  12)          108.00 -0.000287    0.07    108.07   
    24. A(C   1,N   0,H  11)          110.11  0.000012    0.04    110.14   
    25. A(N   0,C   1,C   8)          109.41 -0.000153    0.01    109.42   
    26. A(C   8,C   1,H  13)          108.67  0.000023    0.06    108.73   
    27. A(N   0,C   1,H  13)          108.97  0.000036    0.01    108.98   
    28. A(C   2,C   1,H  13)          108.25 -0.000022   -0.02    108.23   
    29. A(C   2,C   1,C   8)          106.69  0.000152   -0.07    106.62   
    30. A(N   0,C   1,C   2)          114.69 -0.000031    0.01    114.70   
    31. A(C   1,C   2,H  15)          108.01 -0.000044   -0.04    107.98   
    32. A(C   3,C   2,H  14)          109.02 -0.000092   -0.06    108.96   
    33. A(C   1,C   2,H  14)          108.90  0.000043    0.01    108.90   
    34. A(H  14,C   2,H  15)          109.41  0.000061   -0.07    109.34   
    35. A(C   1,C   2,C   3)          111.21  0.000356    0.07    111.29   
    36. A(C   3,C   2,H  15)          110.26 -0.000320    0.09    110.35   
    37. A(C   2,C   3,C   4)          129.46  0.000496   -0.04    129.42   
    38. A(C   2,C   3,N   7)          121.16 -0.000468    0.02    121.18   
    39. A(C   4,C   3,N   7)          109.32 -0.000024    0.02    109.33   
    40. A(N   5,C   4,H  16)          122.05 -0.000319    0.01    122.07   
    41. A(C   3,C   4,H  16)          131.80  0.000391   -0.00    131.80   
    42. A(C   3,C   4,N   5)          106.14 -0.000073   -0.01    106.13   
    43. A(C   4,N   5,H  17)          126.27 -0.000004   -0.00    126.27   
    44. A(C   4,N   5,C   6)          106.65  0.000202   -0.02    106.63   
    45. A(C   6,N   5,H  17)          127.08 -0.000198    0.02    127.10   
    46. A(N   5,C   6,H  18)          123.78  0.000304   -0.04    123.74   
    47. A(N   7,C   6,H  18)          124.19 -0.000169    0.01    124.21   
    48. A(N   5,C   6,N   7)          112.03 -0.000135    0.02    112.06   
    49. A(C   3,N   7,C   6)          105.86  0.000030   -0.01    105.85   
    50. A(O   9,C   8,O  10)          123.35 -0.000667    0.05    123.40   
    51. A(C   1,C   8,O  10)          112.75  0.000432   -0.04    112.71   
    52. A(C   1,C   8,O   9)          123.89  0.000236   -0.02    123.87   
    53. A(C   8,O  10,H  19)          112.84 -0.000241    0.07    112.91   
    54. D(C   8,C   1,N   0,H  11)   -155.13  0.000150   -0.52   -155.65   
    55. D(C   2,C   1,N   0,H  11)    -35.31  0.000213   -0.60    -35.91   
    56. D(H  13,C   1,N   0,H  11)     86.19  0.000190   -0.61     85.58   
    57. D(C   8,C   1,N   0,H  12)    -36.87 -0.000057   -0.41    -37.28   
    58. D(C   2,C   1,N   0,H  12)     82.95  0.000005   -0.49     82.46   
    59. D(C   3,C   2,C   1,N   0)    -66.76  0.000094   -0.33    -67.10   
    60. D(H  14,C   2,C   1,H  13)     51.19 -0.000050   -0.30     50.89   
    61. D(H  14,C   2,C   1,C   8)    -65.60 -0.000145   -0.33    -65.93   
    62. D(H  14,C   2,C   1,N   0)    173.09 -0.000040   -0.30    172.79   
    63. D(C   3,C   2,C   1,C   8)     54.55 -0.000011   -0.36     54.19   
    64. D(C   3,C   2,C   1,H  13)    171.34  0.000084   -0.34    171.00   
    65. D(C   4,C   3,C   2,H  15)    -37.88  0.000177   -1.93    -39.81   
    66. D(C   4,C   3,C   2,H  14)   -158.01  0.000356   -1.86   -159.87   
    67. D(N   7,C   3,C   2,C   1)    -94.81  0.000043   -1.70    -96.51   
    68. D(C   4,C   3,C   2,C   1)     81.91  0.000142   -1.86     80.05   
    69. D(N   7,C   3,C   2,H  14)     25.27  0.000258   -1.70     23.57   
    70. D(H  16,C   4,C   3,N   7)   -179.27  0.000086   -0.18   -179.45   
    71. D(H  16,C   4,C   3,C   2)      3.70  0.000011   -0.05      3.65   
    72. D(N   5,C   4,C   3,N   7)     -0.05  0.000042   -0.12     -0.17   
    73. D(N   5,C   4,C   3,C   2)   -177.08 -0.000034    0.02   -177.06   
    74. D(H  17,N   5,C   4,H  16)     -0.89 -0.000021   -0.00     -0.89   
    75. D(H  17,N   5,C   4,C   3)    179.79  0.000012   -0.06    179.73   
    76. D(C   6,N   5,C   4,H  16)    179.46 -0.000047    0.11    179.57   
    77. D(C   6,N   5,C   4,C   3)      0.14 -0.000014    0.05      0.19   
    78. D(H  18,C   6,N   5,H  17)      0.24 -0.000052    0.13      0.37   
    79. D(H  18,C   6,N   5,C   4)    179.88 -0.000025    0.02    179.90   
    80. D(N   7,C   6,N   5,H  17)   -179.84 -0.000047    0.15   -179.68   
    81. D(N   7,C   6,N   5,C   4)     -0.19 -0.000020    0.04     -0.15   
    82. D(C   3,N   7,C   6,N   5)      0.16  0.000045   -0.12      0.04   
    83. D(C   6,N   7,C   3,C   4)     -0.06 -0.000054    0.14      0.08   
    84. D(C   6,N   7,C   3,C   2)    177.25  0.000047    0.00    177.26   
    85. D(C   3,N   7,C   6,H  18)   -179.91  0.000050   -0.09   -180.00   
    86. D(O  10,C   8,C   1,C   2)     81.12  0.000088    0.49     81.61   
    87. D(O  10,C   8,C   1,N   0)   -154.26  0.000054    0.46   -153.80   
    88. D(O   9,C   8,C   1,H  13)    145.97 -0.000023    0.78    146.75   
    89. D(O   9,C   8,C   1,C   2)    -97.52  0.000043    0.75    -96.77   
    90. D(O   9,C   8,C   1,N   0)     27.10  0.000008    0.73     27.83   
    91. D(H  19,O  10,C   8,O   9)      1.06 -0.000194   -0.01      1.05   
    92. D(H  19,O  10,C   8,C   1)   -177.59 -0.000254    0.25   -177.34   
    ----------------------------------------------------------------------------

Geometry step timings:
Preparation and reading OPT file:      0.000 s ( 1.199 %)
Internal coordinates            :      0.000 s ( 1.027 %)
B/P matrices and projection     :      0.000 s (36.986 %)
Hessian update/contruction      :      0.000 s (12.158 %)
Making the step                 :      0.000 s (30.651 %)
Converting the step to Cartesian:      0.000 s ( 3.253 %)
Storing new data                :      0.000 s ( 0.856 %)
Checking convergence            :      0.000 s ( 1.199 %)
Final printing                  :      0.000 s (12.586 %)
Total time                      :      0.001 s

Time for energy+gradient        :      0.030 s
Time for complete geometry iter :      0.032 s

         *************************************************************
         *                GEOMETRY OPTIMIZATION CYCLE  10            *
         *************************************************************
---------------------------------
CARTESIAN COORDINATES (ANGSTROEM)
---------------------------------
  N    -1.343094   -0.478802    1.825317
  C    -1.579511   -0.596722    0.399802
  C    -0.431027   -1.286048   -0.395446
  C     0.801547   -0.449350   -0.399845
  C     1.757240   -0.304082    0.570026
  N     2.639296    0.626162    0.097453
  C     2.188395    1.004117   -1.117005
  N     1.090333    0.380574   -1.448051
  C    -1.752620    0.783869   -0.198753
  O    -1.249571    1.787284    0.259064
  O    -2.483038    0.774601   -1.293899
  H    -0.844762   -1.293310    2.164947
  H    -0.764935    0.338455    1.997002
  H    -2.499574   -1.168085    0.237515
  H    -0.757084   -1.440963   -1.423109
  H    -0.231855   -2.252865    0.070289
  H     1.885224   -0.776270    1.521171
  H     3.459842    0.964231    0.572783
  H     2.677634    1.730008   -1.733511
  H    -2.562440    1.657196   -1.705749

----------------------------
CARTESIAN COORDINATES (A.U.)
----------------------------
  NO LB    ZA    FRAG    MASS        X           Y           Z
   0 N   7.0000    0    14.007   -2.538080   -0.904804    3.449348
   1 C   6.0000    0    12.011   -2.984843   -1.127642    0.755517
   2 C   6.0000    0    12.011   -0.814522   -2.430279   -0.747285
   3 C   6.0000    0    12.011    1.514705   -0.849149   -0.755598
   4 C   6.0000    0    12.011    3.320703   -0.574632    1.077193
   5 N   7.0000    0    14.007    4.987546    1.183276    0.184159
   6 C   6.0000    0    12.011    4.135466    1.897506   -2.110834
   7 N   7.0000    0    14.007    2.060430    0.719181   -2.736421
   8 C   6.0000    0    12.011   -3.311972    1.481299   -0.375588
   9 O   8.0000    0    15.999   -2.361346    3.377478    0.489561
  10 O   8.0000    0    15.999   -4.692263    1.463783   -2.445115
  11 H   1.0000    0     1.008   -1.596368   -2.444001    4.091156
  12 H   1.0000    0     1.008   -1.445518    0.639586    3.773787
  13 H   1.0000    0     1.008   -4.723511   -2.207361    0.448838
  14 H   1.0000    0     1.008   -1.430682   -2.723026   -2.689286
  15 H   1.0000    0     1.008   -0.438142   -4.257297    0.132827
  16 H   1.0000    0     1.008    3.562557   -1.466937    2.874597
  17 H   1.0000    0     1.008    6.538155    1.822132    1.082404
  18 H   1.0000    0     1.008    5.059995    3.269241   -3.275862
  19 H   1.0000    0     1.008   -4.842310    3.131647   -3.223399

      -----------------------------------------------------------      
     |                   =====================                   |     
     |                           x T B                           |     
     |                   =====================                   |     
     |                         S. Grimme                         |     
     |          Mulliken Center for Theoretical Chemistry        |     
     |                    University of Bonn                     |     
      -----------------------------------------------------------      

   * xtb version 6.7.1 (edcfbbe) compiled by 'albert@albert-system' on 2024-07-22

   xtb is free software: you can redistribute it and/or modify it under
   the terms of the GNU Lesser General Public License as published by
   the Free Software Foundation, either version 3 of the License, or
   (at your option) any later version.
   
   xtb is distributed in the hope that it will be useful,
   but WITHOUT ANY WARRANTY; without even the implied warranty of
   MERCHANTABILITY or FITNESS FOR A PARTICULAR PURPOSE.  See the
   GNU Lesser General Public License for more details.
   
   Cite this work as:
   * C. Bannwarth, E. Caldeweyher, S. Ehlert, A. Hansen, P. Pracht,
     J. Seibert, S. Spicher, S. Grimme, WIREs Comput. Mol. Sci., 2020, 11,
     e01493. DOI: 10.1002/wcms.1493
   
   for GFN2-xTB:
   * C. Bannwarth, S. Ehlert and S. Grimme., J. Chem. Theory Comput., 2019,
     15, 1652-1671. DOI: 10.1021/acs.jctc.8b01176
   for GFN1-xTB:
   * S. Grimme, C. Bannwarth, P. Shushkov, J. Chem. Theory Comput., 2017,
     13, 1989-2009. DOI: 10.1021/acs.jctc.7b00118
   for GFN0-xTB:
   * P. Pracht, E. Caldeweyher, S. Ehlert, S. Grimme, ChemRxiv, 2019, preprint.
     DOI: 10.26434/chemrxiv.8326202.v1
   for GFN-FF:
   * S. Spicher and S. Grimme, Angew. Chem. Int. Ed., 2020, 59, 15665-15673.
     DOI: 10.1002/anie.202004239
   
   for ALPB and GBSA implicit solvation:
   * S. Ehlert, M. Stahn, S. Spicher, S. Grimme, J. Chem. Theory Comput.,
     2021, 17, 4250-4261. DOI: 10.1021/acs.jctc.1c00471
   
   for ddCOSMO and CPCM-X implicit solvation:
   * M. Stahn, S. Ehlert, S. Grimme, J. Phys. Chem. A,
     2023, XX, XXXX-XXXX. DOI: 10.1021/acs.jpca.3c04382
   
   for DFT-D4:
   * E. Caldeweyher, C. Bannwarth and S. Grimme, J. Chem. Phys., 2017,
     147, 034112. DOI: 10.1063/1.4993215
   * E. Caldeweyher, S. Ehlert, A. Hansen, H. Neugebauer, S. Spicher,
     C. Bannwarth and S. Grimme, J. Chem. Phys., 2019, 150, 154122.
     DOI: 10.1063/1.5090222
   * E. Caldeweyher, J.-M. Mewes, S. Ehlert and S. Grimme, Phys. Chem. Chem. Phys.
     2020, 22, 8499-8512. DOI: 10.1039/D0CP00502A
   
   for sTDA-xTB:
   * S. Grimme and C. Bannwarth, J. Chem. Phys., 2016, 145, 054103.
     DOI: 10.1063/1.4959605
   
   in the mass-spec context:
   * V. Asgeirsson, C. Bauer and S. Grimme, Chem. Sci., 2017, 8, 4879.
     DOI: 10.1039/c7sc00601b
   * J. Koopman and S. Grimme, ACS Omega 2019, 4, 12, 15120-15133.
     DOI: 10.1021/acsomega.9b02011
   
   for metadynamics refer to:
   * S. Grimme, J. Chem. Theory Comput., 2019, 155, 2847-2862
     DOI: 10.1021/acs.jctc.9b00143
   
   for SPH calculations refer to:
   * S. Spicher and S. Grimme, J. Chem. Theory Comput., 2021, 17, 1701-1714
     DOI: 10.1021/acs.jctc.0c01306
   
   for ONIOM refer to:
   * C. Plett, A. Katbashev, S. Ehlert, S. Grimme, M. Bursch,
     Phys. Chem. Chem. Phys., 2023, 25, 17860-17868. DOI: 10.1039/D3CP02178E
   
   for DIPRO refer to:
   * J. Kohn, N. Gildemeister, S. Grimme, D. Fazzi, A. Hansen,
     J. Chem. Phys., 2023, just accepted.
   
   for PTB refer to:
   * S. Grimme, M. Mueller, A. Hansen, J. Chem. Phys., 2023, 158, 124111.
     DOI: 10.1063/5.0137838
   
   with help from (in alphabetical order)
   P. Atkinson, C. Bannwarth, F. Bohle, G. Brandenburg, E. Caldeweyher
   M. Checinski, S. Dohm, S. Ehlert, S. Ehrlich, I. Gerasimov, C. Hölzer
   A. Katbashev, J. Kohn, J. Koopman, C. Lavigne, S. Lehtola, F. März, M. Müller,
   F. Musil, H. Neugebauer, J. Pisarek, C. Plett, P. Pracht, F. Pultar,
   J. Seibert, P. Shushkov, S. Spicher, M. Stahn, M. Steiner, T. Strunk,
   J. Stückrath, T. Rose, and J. Unsleber
   
 * started run on 2026/04/09 at 15:47:06.100     
   ID    Z sym.   atoms
    1    7 N      1, 6, 8
    2    6 C      2-5, 7, 9
    3    8 O      10, 11
    4    1 H      12-20

           -------------------------------------------------
          |                Calculation Setup                |
           -------------------------------------------------

          program call               : /home/analima/Programs/orca-6.1.0-f.0_linux_x86-64/bin/otool_xtb geo_opt_XTB.xyz --grad -c 0 -u 0 -P 1 --namespace geo_opt --input geo_opt_XTB.input.tmp --alpb WATER --acc 0.200000
          calculation namespace      : geo_opt
          coordinate file            : geo_opt_XTB.xyz
          omp threads                :                     1


           -------------------------------------------------
          |                 G F N 2 - x T B                 |
           -------------------------------------------------

        Reference                      10.1021/acs.jctc.8b01176
      * Hamiltonian:
        H0-scaling (s, p, d)           1.850000    2.230000    2.230000
        zeta-weighting                 0.500000
      * Dispersion:
        s8                             2.700000
        a1                             0.520000
        a2                             5.000000
        s9                             5.000000
      * Repulsion:
        kExp                           1.500000    1.000000
        rExp                           1.000000
      * Coulomb:
        alpha                          2.000000
        third order                    shell-resolved
        anisotropic                    true
        a3                             3.000000
        a5                             4.000000
        cn-shift                       1.200000
        cn-exp                         4.000000
        max-rad                        5.000000

      * Solvation model:               ALPB
        Solvent                        WATER
        Parameter file                 internal GFN2-xTB/ALPB
        Dielectric constant                8.0200E+01
        Reference state                gsolv [1 M gas/solution]
        Free energy shift                  1.0808E-03 Eh       6.7819E-01 kcal/mol
        Temperature                        2.9815E+02 K
        Density                            1.0000E+00 kg/L
        Solvent mass                       1.8000E+01 g/mol
        Interaction kernel             P16
        Born radius scaling (c1)           1.4744E+00
        Born radii integrator          GBOBC
        Born offset                        0.0000E+00 a0       0.0000E+00 AA
        H-bond correction              true
        Ion screening                  false
        Surface tension                    1.0000E-05 Eh       1.5569E+01 dyn/cm
        Grid points                               230 per atom
q/qsh data taken from xtbrestart
CAMM data taken from xtbrestart

          ...................................................
          :                      SETUP                      :
          :.................................................:
          :  # basis functions                  53          :
          :  # atomic orbitals                  53          :
          :  # shells                           31          :
          :  # electrons                        60          :
          :  max. iterations                   250          :
          :  Hamiltonian                  GFN2-xTB          :
          :  restarted?                       true          :
          :  GBSA solvation                   true          :
          :  PC potential                    false          :
          :  electronic temp.          300.0000000     K    :
          :  accuracy                    0.2000000          :
          :  -> integral cutoff          0.3198970E+02      :
          :  -> integral neglect         0.2000000E-08      :
          :  -> SCF convergence          0.2000000E-06 Eh   :
          :  -> wf. convergence          0.2000000E-04 e    :
          :  Broyden damping             0.4000000          :
          :  net charge                          0          :
          :  unpaired electrons                  0          :
          ...................................................

 iter      E             dE          RMSdq      gap      omega  full diag
   1    -34.7674788 -0.347675E+02  0.930E-02    3.61       0.0  T
   2    -34.7674798 -0.104147E-05  0.539E-02    3.61       1.0  T
   3    -34.7674802 -0.398182E-06  0.306E-03    3.61       7.3  T
   4    -34.7674802 -0.112925E-07  0.151E-03    3.61      14.8  T
   5    -34.7674802 -0.949809E-08  0.355E-04    3.61      62.9  T
   6    -34.7674802 -0.761979E-09  0.162E-04    3.61     138.2  T
   7    -34.7674802 -0.449560E-10  0.689E-05    3.61     324.4  T

   *** convergence criteria satisfied after 7 iterations ***

         #    Occupation            Energy/Eh            Energy/eV
      -------------------------------------------------------------
         1        2.0000           -0.7450948             -20.2751
       ...           ...                  ...                  ...
        24        2.0000           -0.4595071             -12.5038
        25        2.0000           -0.4517041             -12.2915
        26        2.0000           -0.4289153             -11.6714
        27        2.0000           -0.4220154             -11.4836
        28        2.0000           -0.3870432             -10.5320
        29        2.0000           -0.3825112             -10.4087
        30        2.0000           -0.3707482             -10.0886 (HOMO)
        31                         -0.2382454              -6.4830 (LUMO)
        32                         -0.2012217              -5.4755
        33                         -0.1688043              -4.5934
        34                          0.0319863               0.8704
        35                          0.0406508               1.1062
       ...                                ...                  ...
        53                          0.6318035              17.1922
      -------------------------------------------------------------
                  HL-Gap            0.1325028 Eh            3.6056 eV
             Fermi-level           -0.3044968 Eh           -8.2858 eV

 SCC (total)                   0 d,  0 h,  0 min,  0.016 sec
 SCC setup                      ...        0 min,  0.000 sec (  2.246%)
 Dispersion                     ...        0 min,  0.000 sec (  0.579%)
 classical contributions        ...        0 min,  0.000 sec (  0.125%)
 integral evaluation            ...        0 min,  0.002 sec ( 11.232%)
 iterations                     ...        0 min,  0.009 sec ( 58.086%)
 molecular gradient             ...        0 min,  0.004 sec ( 27.153%)
 printout                       ...        0 min,  0.000 sec (  0.459%)

         :::::::::::::::::::::::::::::::::::::::::::::::::::::
         ::                     SUMMARY                     ::
         :::::::::::::::::::::::::::::::::::::::::::::::::::::
         :: total energy             -34.365455339149 Eh    ::
         :: total w/o Gsasa/hb       -34.351578990449 Eh    ::
         :: gradient norm              0.001956902220 Eh/a0 ::
         :: HOMO-LUMO gap              3.605585055388 eV    ::
         ::.................................................::
         :: SCC energy               -34.767355325659 Eh    ::
         :: -> isotropic ES            0.096562295863 Eh    ::
         :: -> anisotropic ES          0.002646593300 Eh    ::
         :: -> anisotropic XC          0.015429012571 Eh    ::
         :: -> dispersion             -0.017375605966 Eh    ::
         :: -> Gsolv                  -0.029344346136 Eh    ::
         ::    -> Gelec               -0.015467997436 Eh    ::
         ::    -> Gsasa               -0.001797795016 Eh    ::
         ::    -> Ghb                 -0.013159313381 Eh    ::
         ::    -> Gshift               0.001080759698 Eh    ::
         :: repulsion energy           0.401899986510 Eh    ::
         :: add. restraining           0.000000000000 Eh    ::
         :: total charge               0.000000000000 e     ::
         :::::::::::::::::::::::::::::::::::::::::::::::::::::


Property printout bound to 'properties.out'

           -------------------------------------------------
          | TOTAL ENERGY              -34.365455339149 Eh   |
          | GRADIENT NORM               0.001956902220 Eh/α |
          | HOMO-LUMO GAP               3.605585055388 eV   |
           -------------------------------------------------

------------------------------------------------------------------------
 * finished run on 2026/04/09 at 15:47:06.123     
------------------------------------------------------------------------
 total:
 * wall-time:     0 d,  0 h,  0 min,  0.023 sec
 *  cpu-time:     0 d,  0 h,  0 min,  0.017 sec
 * ratio c/w:     0.750 speedup
 SCF:
 * wall-time:     0 d,  0 h,  0 min,  0.016 sec
 *  cpu-time:     0 d,  0 h,  0 min,  0.011 sec
 * ratio c/w:     0.667 speedup


-------------------------   --------------------
FINAL SINGLE POINT ENERGY       -34.365455339150
-------------------------   --------------------


-------------
DIPOLE MOMENT
-------------
                                X             Y             Z
Total Dipole Moment    :      1.33700      -0.41000       0.24400
                        -----------------------------------------
Magnitude (a.u.)       :      1.41958
Magnitude (Debye)      :      3.60828


------------------
CARTESIAN GRADIENT
------------------

   1   N   :   -0.000154895   -0.000148517    0.000282212
   2   C   :   -0.000572043    0.000293919   -0.000594184
   3   C   :   -0.000080318    0.000404950   -0.000445056
   4   C   :    0.000436283    0.000011292    0.000279760
   5   C   :   -0.000097449   -0.000161585   -0.000109389
   6   N   :   -0.000204253   -0.000291458    0.000398838
   7   C   :    0.000100413   -0.000154153   -0.000120472
   8   N   :    0.000036073    0.000296593    0.000102067
   9   C   :   -0.000101581   -0.000364798    0.000558980
  10   O   :   -0.000062910   -0.000212106   -0.000389686
  11   O   :    0.000391196    0.000472566   -0.000120518
  12   H   :    0.000275237    0.000347623    0.000009969
  13   H   :   -0.000058536   -0.000135294   -0.000025670
  14   H   :    0.000067475    0.000066264    0.000001660
  15   H   :    0.000185394   -0.000322131    0.000081830
  16   H   :    0.000059816    0.000001814    0.000124932
  17   H   :    0.000233475    0.000221416   -0.000095795
  18   H   :   -0.000141594   -0.000047565   -0.000185739
  19   H   :   -0.000204030   -0.000051125   -0.000065754
  20   H   :   -0.000107752   -0.000227705    0.000312016

Difference to translation invariance:
           :   -0.0000000000    0.0000000000    0.0000000000

Difference to rotation invariance:
           :   -0.0001178597    0.0000816044    0.0001445074

Norm of the Cartesian gradient     ...    0.0019569022
RMS gradient                       ...    0.0002526350
MAX gradient                       ...    0.0005941842
------------------------------------------------------------------------------
                         ORCA GEOMETRY RELAXATION STEP
------------------------------------------------------------------------------

Reading the OPT-File                    .... done
Getting information on internals        .... done
Copying old internal coords+grads       .... done
Making the new internal coordinates     .... (2022 redundants) done
Validating the new internal coordinates .... (2022 redundants) done
Calculating the B-matrix                .... done
Calculating the G,G- and P matrices     .... done
Transforming gradient to internals      .... done
Projecting the internal gradient        .... done
Number of atoms                         ....  20
Number of internal coordinates          ....  92
Current Energy                          ....   -34.365455339 Eh
Current gradient norm                   ....     0.001956902 Eh/bohr
Maximum allowed component of the step   ....  0.300
Current trust radius                    ....  0.700
Updating the Hessian (BFGS)             .... done
Forming the augmented Hessian           .... done
Diagonalizing the augmented Hessian     .... done
Last element of RFO vector              ....  0.993710500
Lowest eigenvalues of augmented Hessian:
 -0.000055071  0.002288280  0.007513815  0.014570948  0.015599083
Length of the computed step             ....  0.112688403
The final length of the internal step   ....  0.112688403
Converting the step to Cartesian space:
 Initial RMS(Int)=    0.0117485781
Transforming coordinates:
 Iter   0:  RMS(Cart)=    0.0319655192 RMS(Int)=    0.0117479915
done
Storing new coordinates                 .... done
The predicted energy change is          ....    -0.000027885
Previously predicted energy change      ....    -0.000021917
Actually observed energy change         ....    -0.000033650
Ratio of predicted to observed change   ....     1.535331867
New trust radius                        ....     0.466666667

                                .--------------------.
          ----------------------|Geometry convergence|-------------------------
          Item                value                   Tolerance       Converged
          ---------------------------------------------------------------------
          Energy change      -0.0000336504            0.0000050000      NO
          RMS gradient        0.0001780860            0.0001000000      NO
          MAX gradient        0.0005052060            0.0003000000      NO
          RMS step            0.0117485781            0.0020000000      NO
          MAX step            0.0453477832            0.0040000000      NO
          -------------------------------------------------------------------------
          ........................................................
          Max(Bonds)      0.0158      Max(Angles)    0.20
          Max(Dihed)        2.60      Max(Improp)    0.00
          ---------------------------------------------------------------------

The optimization has not yet converged - more geometry cycles are needed


    ---------------------------------------------------------------------------
                         Redundant Internal Coordinates
                            (Angstroem and degrees)

        Definition                    Value    dE/dq     Step     New-Value
    ----------------------------------------------------------------------------
     1. B(C   1,N   0)                1.4498  0.000352 -0.0003    1.4495   
     2. B(C   2,C   1)                1.5578  0.000299  0.0003    1.5580   
     3. B(C   3,C   2)                1.4897  0.000028 -0.0002    1.4896   
     4. B(C   4,C   3)                1.3693 -0.000116  0.0002    1.3695   
     5. B(N   5,C   4)                1.3663 -0.000335  0.0005    1.3668   
     6. B(C   6,N   5)                1.3495  0.000058 -0.0001    1.3494   
     7. B(N   7,C   3)                1.3678 -0.000059 -0.0002    1.3676   
     8. B(N   7,C   6)                1.3054 -0.000382  0.0002    1.3056   
     9. B(C   8,C   1)                1.5147 -0.000355  0.0012    1.5159   
    10. B(O   9,C   8)                1.2122 -0.000331  0.0002    1.2124   
    11. B(O  10,C   8)                1.3164 -0.000321 -0.0002    1.3162   
    12. B(H  11,N   0)                1.0135 -0.000141 -0.0000    1.0135   
    13. B(H  12,N   0)                1.0157 -0.000176 -0.0001    1.0156   
    14. B(H  12,O   9)                2.3140 -0.000108  0.0158    2.3297   
    15. B(H  13,C   1)                1.0951 -0.000091 -0.0000    1.0951   
    16. B(H  14,C   2)                1.0892 -0.000085  0.0001    1.0894   
    17. B(H  15,C   2)                1.0915  0.000061 -0.0000    1.0914   
    18. B(H  16,C   4)                1.0696 -0.000154  0.0001    1.0697   
    19. B(H  17,N   5)                1.0067 -0.000219  0.0002    1.0070   
    20. B(H  18,C   6)                1.0707 -0.000091  0.0002    1.0709   
    21. B(H  19,O  10)                0.9772 -0.000325  0.0005    0.9777   
    22. A(C   1,N   0,H  12)          108.93  0.000065    0.05    108.98   
    23. A(H  11,N   0,H  12)          108.07 -0.000235    0.20    108.27   
    24. A(C   1,N   0,H  11)          110.14  0.000150    0.01    110.15   
    25. A(N   0,C   1,C   8)          109.45 -0.000180    0.14    109.59   
    26. A(C   8,C   1,H  13)          108.72  0.000039   -0.01    108.71   
    27. A(N   0,C   1,H  13)          108.97  0.000061   -0.03    108.95   
    28. A(C   2,C   1,H  13)          108.23 -0.000035   -0.02    108.21   
    29. A(C   2,C   1,C   8)          106.61  0.000251   -0.16    106.45   
    30. A(N   0,C   1,C   2)          114.69 -0.000125    0.08    114.77   
    31. A(C   1,C   2,H  15)          107.98 -0.000141    0.05    108.03   
    32. A(C   3,C   2,H  14)          108.95 -0.000127   -0.09    108.86   
    33. A(C   1,C   2,H  14)          108.90  0.000059   -0.08    108.82   
    34. A(H  14,C   2,H  15)          109.34  0.000008   -0.02    109.32   
    35. A(C   1,C   2,C   3)          111.28  0.000424   -0.03    111.25   
    36. A(C   3,C   2,H  15)          110.35 -0.000224    0.18    110.54   
    37. A(C   2,C   3,C   4)          129.42  0.000281   -0.12    129.30   
    38. A(C   2,C   3,N   7)          121.18 -0.000356    0.10    121.28   
    39. A(C   4,C   3,N   7)          109.33  0.000077    0.01    109.34   
    40. A(N   5,C   4,H  16)          122.07 -0.000243    0.09    122.16   
    41. A(C   3,C   4,H  16)          131.80  0.000354   -0.10    131.70   
    42. A(C   3,C   4,N   5)          106.13 -0.000112    0.01    106.14   
    43. A(C   4,N   5,H  17)          126.26  0.000030   -0.02    126.25   
    44. A(C   4,N   5,C   6)          106.63  0.000099   -0.04    106.59   
    45. A(C   6,N   5,H  17)          127.10 -0.000129    0.06    127.16   
    46. A(N   5,C   6,H  18)          123.74  0.000214   -0.10    123.64   
    47. A(N   7,C   6,H  18)          124.21 -0.000176    0.06    124.27   
    48. A(N   5,C   6,N   7)          112.06 -0.000038    0.04    112.09   
    49. A(C   3,N   7,C   6)          105.85 -0.000026   -0.01    105.83   
    50. A(O   9,C   8,O  10)          123.39 -0.000505    0.12    123.51   
    51. A(C   1,C   8,O  10)          112.69  0.000313   -0.14    112.55   
    52. A(C   1,C   8,O   9)          123.90  0.000190    0.01    123.92   
    53. A(C   8,O  10,H  19)          112.91 -0.000147    0.11    113.03   
    54. D(C   8,C   1,N   0,H  11)   -155.65  0.000129   -1.23   -156.88   
    55. D(C   2,C   1,N   0,H  11)    -35.91  0.000236   -1.28    -37.19   
    56. D(H  13,C   1,N   0,H  11)     85.58  0.000151   -1.28     84.30   
    57. D(C   8,C   1,N   0,H  12)    -37.29 -0.000030   -0.94    -38.23   
    58. D(C   2,C   1,N   0,H  12)     82.45  0.000077   -0.99     81.46   
    59. D(C   3,C   2,C   1,N   0)    -67.11  0.000072   -0.26    -67.37   
    60. D(H  14,C   2,C   1,H  13)     50.89 -0.000041   -0.06     50.82   
    61. D(H  14,C   2,C   1,C   8)    -65.91 -0.000199    0.04    -65.87   
    62. D(H  14,C   2,C   1,N   0)    172.78 -0.000072   -0.07    172.71   
    63. D(C   3,C   2,C   1,C   8)     54.20 -0.000055   -0.15     54.05   
    64. D(C   3,C   2,C   1,H  13)    171.01  0.000104   -0.26    170.75   
    65. D(C   4,C   3,C   2,H  15)    -39.81  0.000065   -2.57    -42.37   
    66. D(C   4,C   3,C   2,H  14)   -159.87  0.000272   -2.60   -162.47   
    67. D(N   7,C   3,C   2,C   1)    -96.52 -0.000024   -2.27    -98.78   
    68. D(C   4,C   3,C   2,C   1)     80.05  0.000017   -2.40     77.64   
    69. D(N   7,C   3,C   2,H  14)     23.57  0.000231   -2.46     21.11   
    70. D(H  16,C   4,C   3,N   7)   -179.46  0.000004   -0.10   -179.56   
    71. D(H  16,C   4,C   3,C   2)      3.66 -0.000020    0.04      3.70   
    72. D(N   5,C   4,C   3,N   7)     -0.17 -0.000039    0.09     -0.08   
    73. D(N   5,C   4,C   3,C   2)   -177.05 -0.000063    0.23   -176.82   
    74. D(H  17,N   5,C   4,H  16)     -0.90 -0.000006    0.01     -0.88   
    75. D(H  17,N   5,C   4,C   3)    179.73  0.000027   -0.17    179.56   
    76. D(C   6,N   5,C   4,H  16)    179.57 -0.000028    0.18    179.75   
    77. D(C   6,N   5,C   4,C   3)      0.19  0.000005    0.00      0.20   
    78. D(H  18,C   6,N   5,H  17)      0.37 -0.000048    0.27      0.63   
    79. D(H  18,C   6,N   5,C   4)    179.90 -0.000026    0.09    179.99   
    80. D(N   7,C   6,N   5,H  17)   -179.68  0.000010    0.07   -179.61   
    81. D(N   7,C   6,N   5,C   4)     -0.15  0.000032   -0.10     -0.25   
    82. D(C   3,N   7,C   6,N   5)      0.05 -0.000056    0.17      0.22   
    83. D(C   6,N   7,C   3,C   4)      0.08  0.000058   -0.16     -0.08   
    84. D(C   6,N   7,C   3,C   2)    177.27  0.000102   -0.27    177.00   
    85. D(C   3,N   7,C   6,H  18)    180.00  0.000002   -0.05    179.95   
    86. D(O  10,C   8,C   1,C   2)     81.61  0.000053    0.11     81.72   
    87. D(O  10,C   8,C   1,N   0)   -153.80 -0.000049    0.19   -153.61   
    88. D(O   9,C   8,C   1,H  13)    146.76  0.000023    0.40    147.16   
    89. D(O   9,C   8,C   1,C   2)    -96.76  0.000134    0.28    -96.49   
    90. D(O   9,C   8,C   1,N   0)     27.82  0.000031    0.36     28.18   
    91. D(H  19,O  10,C   8,O   9)      1.05 -0.000218    0.45      1.49   
    92. D(H  19,O  10,C   8,C   1)   -177.34 -0.000151    0.61   -176.72   
    ----------------------------------------------------------------------------

Geometry step timings:
Preparation and reading OPT file:      0.000 s ( 0.876 %)
Internal coordinates            :      0.000 s ( 0.876 %)
B/P matrices and projection     :      0.000 s (37.686 %)
Hessian update/contruction      :      0.000 s (10.692 %)
Making the step                 :      0.000 s (31.551 %)
Converting the step to Cartesian:      0.000 s ( 3.330 %)
Storing new data                :      0.000 s ( 0.876 %)
Checking convergence            :      0.000 s ( 1.315 %)
Final printing                  :      0.000 s (12.796 %)
Total time                      :      0.001 s

Time for energy+gradient        :      0.027 s
Time for complete geometry iter :      0.028 s

         *************************************************************
         *                GEOMETRY OPTIMIZATION CYCLE  11            *
         *************************************************************
---------------------------------
CARTESIAN COORDINATES (ANGSTROEM)
---------------------------------
  N    -1.336585   -0.494026    1.828673
  C    -1.576131   -0.599168    0.402921
  C    -0.432311   -1.285420   -0.402150
  C     0.800536   -0.449419   -0.407746
  C     1.736728   -0.277785    0.577000
  N     2.627098    0.642248    0.098483
  C     2.199229    0.987993   -1.133695
  N     1.109877    0.352497   -1.471552
  C    -1.745312    0.786527   -0.188080
  O    -1.232874    1.785059    0.270480
  O    -2.481199    0.783247   -1.279330
  H    -0.858931   -1.322392    2.164438
  H    -0.741885    0.310047    2.005565
  H    -2.498397   -1.166204    0.238285
  H    -0.764068   -1.430522   -1.429560
  H    -0.234068   -2.256951    0.053982
  H     1.843450   -0.724561    1.543083
  H     3.436350    0.995388    0.582611
  H     2.701327    1.698168   -1.758449
  H    -2.552834    1.665273   -1.694959

----------------------------
CARTESIAN COORDINATES (A.U.)
----------------------------
  NO LB    ZA    FRAG    MASS        X           Y           Z
   0 N   7.0000    0    14.007   -2.525780   -0.933574    3.455691
   1 C   6.0000    0    12.011   -2.978456   -1.132264    0.761410
   2 C   6.0000    0    12.011   -0.816949   -2.429091   -0.759953
   3 C   6.0000    0    12.011    1.512794   -0.849279   -0.770527
   4 C   6.0000    0    12.011    3.281939   -0.524937    1.090372
   5 N   7.0000    0    14.007    4.964495    1.213672    0.186106
   6 C   6.0000    0    12.011    4.155941    1.867036   -2.142374
   7 N   7.0000    0    14.007    2.097363    0.666123   -2.780830
   8 C   6.0000    0    12.011   -3.298163    1.486321   -0.355420
   9 O   8.0000    0    15.999   -2.329794    3.373273    0.511133
  10 O   8.0000    0    15.999   -4.688786    1.480123   -2.417584
  11 H   1.0000    0     1.008   -1.623144   -2.498958    4.090195
  12 H   1.0000    0     1.008   -1.401959    0.585905    3.789969
  13 H   1.0000    0     1.008   -4.721286   -2.203806    0.450293
  14 H   1.0000    0     1.008   -1.443880   -2.703295   -2.701476
  15 H   1.0000    0     1.008   -0.442324   -4.265020    0.102012
  16 H   1.0000    0     1.008    3.483616   -1.369222    2.916004
  17 H   1.0000    0     1.008    6.493760    1.881011    1.100976
  18 H   1.0000    0     1.008    5.104768    3.209072   -3.322987
  19 H   1.0000    0     1.008   -4.824156    3.146911   -3.203009

      -----------------------------------------------------------      
     |                   =====================                   |     
     |                           x T B                           |     
     |                   =====================                   |     
     |                         S. Grimme                         |     
     |          Mulliken Center for Theoretical Chemistry        |     
     |                    University of Bonn                     |     
      -----------------------------------------------------------      

   * xtb version 6.7.1 (edcfbbe) compiled by 'albert@albert-system' on 2024-07-22

   xtb is free software: you can redistribute it and/or modify it under
   the terms of the GNU Lesser General Public License as published by
   the Free Software Foundation, either version 3 of the License, or
   (at your option) any later version.
   
   xtb is distributed in the hope that it will be useful,
   but WITHOUT ANY WARRANTY; without even the implied warranty of
   MERCHANTABILITY or FITNESS FOR A PARTICULAR PURPOSE.  See the
   GNU Lesser General Public License for more details.
   
   Cite this work as:
   * C. Bannwarth, E. Caldeweyher, S. Ehlert, A. Hansen, P. Pracht,
     J. Seibert, S. Spicher, S. Grimme, WIREs Comput. Mol. Sci., 2020, 11,
     e01493. DOI: 10.1002/wcms.1493
   
   for GFN2-xTB:
   * C. Bannwarth, S. Ehlert and S. Grimme., J. Chem. Theory Comput., 2019,
     15, 1652-1671. DOI: 10.1021/acs.jctc.8b01176
   for GFN1-xTB:
   * S. Grimme, C. Bannwarth, P. Shushkov, J. Chem. Theory Comput., 2017,
     13, 1989-2009. DOI: 10.1021/acs.jctc.7b00118
   for GFN0-xTB:
   * P. Pracht, E. Caldeweyher, S. Ehlert, S. Grimme, ChemRxiv, 2019, preprint.
     DOI: 10.26434/chemrxiv.8326202.v1
   for GFN-FF:
   * S. Spicher and S. Grimme, Angew. Chem. Int. Ed., 2020, 59, 15665-15673.
     DOI: 10.1002/anie.202004239
   
   for ALPB and GBSA implicit solvation:
   * S. Ehlert, M. Stahn, S. Spicher, S. Grimme, J. Chem. Theory Comput.,
     2021, 17, 4250-4261. DOI: 10.1021/acs.jctc.1c00471
   
   for ddCOSMO and CPCM-X implicit solvation:
   * M. Stahn, S. Ehlert, S. Grimme, J. Phys. Chem. A,
     2023, XX, XXXX-XXXX. DOI: 10.1021/acs.jpca.3c04382
   
   for DFT-D4:
   * E. Caldeweyher, C. Bannwarth and S. Grimme, J. Chem. Phys., 2017,
     147, 034112. DOI: 10.1063/1.4993215
   * E. Caldeweyher, S. Ehlert, A. Hansen, H. Neugebauer, S. Spicher,
     C. Bannwarth and S. Grimme, J. Chem. Phys., 2019, 150, 154122.
     DOI: 10.1063/1.5090222
   * E. Caldeweyher, J.-M. Mewes, S. Ehlert and S. Grimme, Phys. Chem. Chem. Phys.
     2020, 22, 8499-8512. DOI: 10.1039/D0CP00502A
   
   for sTDA-xTB:
   * S. Grimme and C. Bannwarth, J. Chem. Phys., 2016, 145, 054103.
     DOI: 10.1063/1.4959605
   
   in the mass-spec context:
   * V. Asgeirsson, C. Bauer and S. Grimme, Chem. Sci., 2017, 8, 4879.
     DOI: 10.1039/c7sc00601b
   * J. Koopman and S. Grimme, ACS Omega 2019, 4, 12, 15120-15133.
     DOI: 10.1021/acsomega.9b02011
   
   for metadynamics refer to:
   * S. Grimme, J. Chem. Theory Comput., 2019, 155, 2847-2862
     DOI: 10.1021/acs.jctc.9b00143
   
   for SPH calculations refer to:
   * S. Spicher and S. Grimme, J. Chem. Theory Comput., 2021, 17, 1701-1714
     DOI: 10.1021/acs.jctc.0c01306
   
   for ONIOM refer to:
   * C. Plett, A. Katbashev, S. Ehlert, S. Grimme, M. Bursch,
     Phys. Chem. Chem. Phys., 2023, 25, 17860-17868. DOI: 10.1039/D3CP02178E
   
   for DIPRO refer to:
   * J. Kohn, N. Gildemeister, S. Grimme, D. Fazzi, A. Hansen,
     J. Chem. Phys., 2023, just accepted.
   
   for PTB refer to:
   * S. Grimme, M. Mueller, A. Hansen, J. Chem. Phys., 2023, 158, 124111.
     DOI: 10.1063/5.0137838
   
   with help from (in alphabetical order)
   P. Atkinson, C. Bannwarth, F. Bohle, G. Brandenburg, E. Caldeweyher
   M. Checinski, S. Dohm, S. Ehlert, S. Ehrlich, I. Gerasimov, C. Hölzer
   A. Katbashev, J. Kohn, J. Koopman, C. Lavigne, S. Lehtola, F. März, M. Müller,
   F. Musil, H. Neugebauer, J. Pisarek, C. Plett, P. Pracht, F. Pultar,
   J. Seibert, P. Shushkov, S. Spicher, M. Stahn, M. Steiner, T. Strunk,
   J. Stückrath, T. Rose, and J. Unsleber
   
 * started run on 2026/04/09 at 15:47:06.128     
   ID    Z sym.   atoms
    1    7 N      1, 6, 8
    2    6 C      2-5, 7, 9
    3    8 O      10, 11
    4    1 H      12-20

           -------------------------------------------------
          |                Calculation Setup                |
           -------------------------------------------------

          program call               : /home/analima/Programs/orca-6.1.0-f.0_linux_x86-64/bin/otool_xtb geo_opt_XTB.xyz --grad -c 0 -u 0 -P 1 --namespace geo_opt --input geo_opt_XTB.input.tmp --alpb WATER --acc 0.200000
          calculation namespace      : geo_opt
          coordinate file            : geo_opt_XTB.xyz
          omp threads                :                     1


           -------------------------------------------------
          |                 G F N 2 - x T B                 |
           -------------------------------------------------

        Reference                      10.1021/acs.jctc.8b01176
      * Hamiltonian:
        H0-scaling (s, p, d)           1.850000    2.230000    2.230000
        zeta-weighting                 0.500000
      * Dispersion:
        s8                             2.700000
        a1                             0.520000
        a2                             5.000000
        s9                             5.000000
      * Repulsion:
        kExp                           1.500000    1.000000
        rExp                           1.000000
      * Coulomb:
        alpha                          2.000000
        third order                    shell-resolved
        anisotropic                    true
        a3                             3.000000
        a5                             4.000000
        cn-shift                       1.200000
        cn-exp                         4.000000
        max-rad                        5.000000

      * Solvation model:               ALPB
        Solvent                        WATER
        Parameter file                 internal GFN2-xTB/ALPB
        Dielectric constant                8.0200E+01
        Reference state                gsolv [1 M gas/solution]
        Free energy shift                  1.0808E-03 Eh       6.7819E-01 kcal/mol
        Temperature                        2.9815E+02 K
        Density                            1.0000E+00 kg/L
        Solvent mass                       1.8000E+01 g/mol
        Interaction kernel             P16
        Born radius scaling (c1)           1.4744E+00
        Born radii integrator          GBOBC
        Born offset                        0.0000E+00 a0       0.0000E+00 AA
        H-bond correction              true
        Ion screening                  false
        Surface tension                    1.0000E-05 Eh       1.5569E+01 dyn/cm
        Grid points                               230 per atom
q/qsh data taken from xtbrestart
CAMM data taken from xtbrestart

          ...................................................
          :                      SETUP                      :
          :.................................................:
          :  # basis functions                  53          :
          :  # atomic orbitals                  53          :
          :  # shells                           31          :
          :  # electrons                        60          :
          :  max. iterations                   250          :
          :  Hamiltonian                  GFN2-xTB          :
          :  restarted?                       true          :
          :  GBSA solvation                   true          :
          :  PC potential                    false          :
          :  electronic temp.          300.0000000     K    :
          :  accuracy                    0.2000000          :
          :  -> integral cutoff          0.3198970E+02      :
          :  -> integral neglect         0.2000000E-08      :
          :  -> SCF convergence          0.2000000E-06 Eh   :
          :  -> wf. convergence          0.2000000E-04 e    :
          :  Broyden damping             0.4000000          :
          :  net charge                          0          :
          :  unpaired electrons                  0          :
          ...................................................

 iter      E             dE          RMSdq      gap      omega  full diag
   1    -34.7670902 -0.347671E+02  0.110E-01    3.60       0.0  T
   2    -34.7670918 -0.163446E-05  0.635E-02    3.60       1.0  T
   3    -34.7670924 -0.610527E-06  0.363E-03    3.60       6.2  T
   4    -34.7670924 -0.133058E-07  0.167E-03    3.60      13.4  T
   5    -34.7670924 -0.549367E-08  0.415E-04    3.60      53.8  T
   6    -34.7670924 -0.188435E-08  0.179E-04    3.60     124.6  T
   7    -34.7670924 -0.905231E-10  0.813E-05    3.60     275.0  T

   *** convergence criteria satisfied after 7 iterations ***

         #    Occupation            Energy/Eh            Energy/eV
      -------------------------------------------------------------
         1        2.0000           -0.7453258             -20.2813
       ...           ...                  ...                  ...
        24        2.0000           -0.4597217             -12.5097
        25        2.0000           -0.4515615             -12.2876
        26        2.0000           -0.4289044             -11.6711
        27        2.0000           -0.4220047             -11.4833
        28        2.0000           -0.3868224             -10.5260
        29        2.0000           -0.3825255             -10.4090
        30        2.0000           -0.3707401             -10.0884 (HOMO)
        31                         -0.2384206              -6.4878 (LUMO)
        32                         -0.2012587              -5.4765
        33                         -0.1687801              -4.5927
        34                          0.0317220               0.8632
        35                          0.0397216               1.0809
       ...                                ...                  ...
        53                          0.6309155              17.1681
      -------------------------------------------------------------
                  HL-Gap            0.1323195 Eh            3.6006 eV
             Fermi-level           -0.3045803 Eh           -8.2881 eV

 SCC (total)                   0 d,  0 h,  0 min,  0.012 sec
 SCC setup                      ...        0 min,  0.000 sec (  2.116%)
 Dispersion                     ...        0 min,  0.000 sec (  0.486%)
 classical contributions        ...        0 min,  0.000 sec (  0.103%)
 integral evaluation            ...        0 min,  0.001 sec (  7.975%)
 iterations                     ...        0 min,  0.007 sec ( 60.006%)
 molecular gradient             ...        0 min,  0.003 sec ( 28.888%)
 printout                       ...        0 min,  0.000 sec (  0.355%)

         :::::::::::::::::::::::::::::::::::::::::::::::::::::
         ::                     SUMMARY                     ::
         :::::::::::::::::::::::::::::::::::::::::::::::::::::
         :: total energy             -34.365485309287 Eh    ::
         :: total w/o Gsasa/hb       -34.351568293996 Eh    ::
         :: gradient norm              0.001409856446 Eh/a0 ::
         :: HOMO-LUMO gap              3.600596749284 eV    ::
         ::.................................................::
         :: SCC energy               -34.766967364016 Eh    ::
         :: -> isotropic ES            0.096467121456 Eh    ::
         :: -> anisotropic ES          0.002704729241 Eh    ::
         :: -> anisotropic XC          0.015429045009 Eh    ::
         :: -> dispersion             -0.017389074442 Eh    ::
         :: -> Gsolv                  -0.029354288194 Eh    ::
         ::    -> Gelec               -0.015437272903 Eh    ::
         ::    -> Gsasa               -0.001816183642 Eh    ::
         ::    -> Ghb                 -0.013181591347 Eh    ::
         ::    -> Gshift               0.001080759698 Eh    ::
         :: repulsion energy           0.401482054728 Eh    ::
         :: add. restraining           0.000000000000 Eh    ::
         :: total charge              -0.000000000000 e     ::
         :::::::::::::::::::::::::::::::::::::::::::::::::::::


Property printout bound to 'properties.out'

           -------------------------------------------------
          | TOTAL ENERGY              -34.365485309287 Eh   |
          | GRADIENT NORM               0.001409856446 Eh/α |
          | HOMO-LUMO GAP               3.600596749284 eV   |
           -------------------------------------------------

------------------------------------------------------------------------
 * finished run on 2026/04/09 at 15:47:06.147     
------------------------------------------------------------------------
 total:
 * wall-time:     0 d,  0 h,  0 min,  0.018 sec
 *  cpu-time:     0 d,  0 h,  0 min,  0.013 sec
 * ratio c/w:     0.703 speedup
 SCF:
 * wall-time:     0 d,  0 h,  0 min,  0.012 sec
 *  cpu-time:     0 d,  0 h,  0 min,  0.008 sec
 * ratio c/w:     0.721 speedup


-------------------------   --------------------
FINAL SINGLE POINT ENERGY       -34.365485309290
-------------------------   --------------------


-------------
DIPOLE MOMENT
-------------
                                X             Y             Z
Total Dipole Moment    :      1.30000      -0.38600       0.25900
                        -----------------------------------------
Magnitude (a.u.)       :      1.38061
Magnitude (Debye)      :      3.50923


------------------
CARTESIAN GRADIENT
------------------

   1   N   :    0.000126047   -0.000393832    0.000497534
   2   C   :   -0.000449239    0.000036909   -0.000553371
   3   C   :    0.000235011    0.000241078   -0.000010295
   4   C   :    0.000054081    0.000192245   -0.000087075
   5   C   :   -0.000207482   -0.000441017   -0.000014438
   6   N   :    0.000224036    0.000135766    0.000098533
   7   C   :   -0.000205483   -0.000039076    0.000099453
   8   N   :    0.000127640   -0.000108666   -0.000135933
   9   C   :   -0.000401975    0.000124585   -0.000131698
  10   O   :    0.000138244    0.000133170   -0.000028656
  11   O   :    0.000256387   -0.000009071    0.000214521
  12   H   :    0.000143696    0.000165698    0.000102698
  13   H   :   -0.000090142   -0.000004305   -0.000031286
  14   H   :    0.000069702    0.000029755   -0.000014846
  15   H   :    0.000058534   -0.000164195    0.000059500
  16   H   :   -0.000043074   -0.000046419    0.000016145
  17   H   :    0.000023000    0.000137376    0.000012677
  18   H   :   -0.000009125   -0.000014765   -0.000054380
  19   H   :   -0.000041662    0.000022097   -0.000039174
  20   H   :   -0.000008194    0.000002668    0.000000091

Difference to translation invariance:
           :   -0.0000000000    0.0000000000   -0.0000000000

Difference to rotation invariance:
           :    0.0000635841    0.0000260509    0.0001166240

Norm of the Cartesian gradient     ...    0.0014098564
RMS gradient                       ...    0.0001820117
MAX gradient                       ...    0.0005533709
------------------------------------------------------------------------------
                         ORCA GEOMETRY RELAXATION STEP
------------------------------------------------------------------------------

Reading the OPT-File                    .... done
Getting information on internals        .... done
Copying old internal coords+grads       .... done
Making the new internal coordinates     .... (2022 redundants) done
Validating the new internal coordinates .... (2022 redundants) done
Calculating the B-matrix                .... done
Calculating the G,G- and P matrices     .... done
Transforming gradient to internals      .... done
Projecting the internal gradient        .... done
Number of atoms                         ....  20
Number of internal coordinates          ....  92
Current Energy                          ....   -34.365485309 Eh
Current gradient norm                   ....     0.001409856 Eh/bohr
Maximum allowed component of the step   ....  0.300
Current trust radius                    ....  0.467
Updating the Hessian (BFGS)             .... done
Forming the augmented Hessian           .... done
Diagonalizing the augmented Hessian     .... done
Last element of RFO vector              ....  0.999700551
Lowest eigenvalues of augmented Hessian:
 -0.000009650  0.002478656  0.006555994  0.014494543  0.015373014
Length of the computed step             ....  0.024477877
The final length of the internal step   ....  0.024477877
Converting the step to Cartesian space:
 Initial RMS(Int)=    0.0025519951
Transforming coordinates:
 Iter   0:  RMS(Cart)=    0.0048027059 RMS(Int)=    0.6550395630
done
Storing new coordinates                 .... done
The predicted energy change is          ....    -0.000004828
Previously predicted energy change      ....    -0.000027885
Actually observed energy change         ....    -0.000029970
Ratio of predicted to observed change   ....     1.074765433
New trust radius                        ....     0.700000000

                                .--------------------.
          ----------------------|Geometry convergence|-------------------------
          Item                value                   Tolerance       Converged
          ---------------------------------------------------------------------
          Energy change      -0.0000299701            0.0000050000      NO
          RMS gradient        0.0001123966            0.0001000000      NO
          MAX gradient        0.0005437628            0.0003000000      NO
          RMS step            0.0025519951            0.0020000000      NO
          MAX step            0.0080438749            0.0040000000      NO
          -------------------------------------------------------------------------
          ........................................................
          Max(Bonds)      0.0037      Max(Angles)    0.09
          Max(Dihed)        0.46      Max(Improp)    0.00
          ---------------------------------------------------------------------

The optimization has not yet converged - more geometry cycles are needed


    ---------------------------------------------------------------------------
                         Redundant Internal Coordinates
                            (Angstroem and degrees)

        Definition                    Value    dE/dq     Step     New-Value
    ----------------------------------------------------------------------------
     1. B(C   1,N   0)                1.4496  0.000544 -0.0007    1.4488   
     2. B(C   2,C   1)                1.5580  0.000227 -0.0003    1.5577   
     3. B(C   3,C   2)                1.4896 -0.000098  0.0001    1.4897   
     4. B(C   4,C   3)                1.3695 -0.000065  0.0001    1.3696   
     5. B(N   5,C   4)                1.3668  0.000158 -0.0000    1.3668   
     6. B(C   6,N   5)                1.3494  0.000067 -0.0001    1.3493   
     7. B(N   7,C   3)                1.3676 -0.000055  0.0000    1.3677   
     8. B(N   7,C   6)                1.3056 -0.000111  0.0001    1.3058   
     9. B(C   8,C   1)                1.5159  0.000178  0.0001    1.5160   
    10. B(O   9,C   8)                1.2124  0.000152 -0.0001    1.2123   
    11. B(O  10,C   8)                1.3162 -0.000316  0.0003    1.3165   
    12. B(H  11,N   0)                1.0135 -0.000036  0.0000    1.0135   
    13. B(H  12,N   0)                1.0156 -0.000050  0.0000    1.0157   
    14. B(H  12,O   9)                2.3296  0.000041  0.0037    2.3333   
    15. B(H  13,C   1)                1.0951 -0.000072  0.0001    1.0952   
    16. B(H  14,C   2)                1.0894 -0.000053  0.0001    1.0895   
    17. B(H  15,C   2)                1.0914  0.000040 -0.0001    1.0913   
    18. B(H  16,C   4)                1.0697 -0.000043  0.0001    1.0698   
    19. B(H  17,N   5)                1.0070 -0.000039  0.0001    1.0070   
    20. B(H  18,C   6)                1.0709  0.000017  0.0000    1.0709   
    21. B(H  19,O  10)                0.9777  0.000004  0.0001    0.9778   
    22. A(C   1,N   0,H  12)          109.00 -0.000151    0.04    109.03   
    23. A(H  11,N   0,H  12)          108.27 -0.000063    0.06    108.33   
    24. A(C   1,N   0,H  11)          110.15  0.000275   -0.04    110.10   
    25. A(N   0,C   1,C   8)          109.61 -0.000070    0.03    109.64   
    26. A(C   8,C   1,H  13)          108.71  0.000024   -0.04    108.66   
    27. A(N   0,C   1,H  13)          108.94  0.000043   -0.01    108.93   
    28. A(C   2,C   1,H  13)          108.21 -0.000030    0.01    108.22   
    29. A(C   2,C   1,C   8)          106.45  0.000198   -0.05    106.40   
    30. A(N   0,C   1,C   2)          114.76 -0.000157    0.06    114.82   
    31. A(C   1,C   2,H  15)          108.03 -0.000158    0.06    108.09   
    32. A(C   3,C   2,H  14)          108.86 -0.000114    0.00    108.86   
    33. A(C   1,C   2,H  14)          108.81  0.000020   -0.05    108.76   
    34. A(H  14,C   2,H  15)          109.32 -0.000060    0.05    109.37   
    35. A(C   1,C   2,C   3)          111.25  0.000315   -0.09    111.16   
    36. A(C   3,C   2,H  15)          110.54 -0.000006    0.04    110.58   
    37. A(C   2,C   3,C   4)          129.30 -0.000088   -0.02    129.28   
    38. A(C   2,C   3,N   7)          121.28 -0.000029    0.03    121.31   
    39. A(C   4,C   3,N   7)          109.34  0.000120   -0.01    109.33   
    40. A(N   5,C   4,H  16)          122.16 -0.000061    0.05    122.21   
    41. A(C   3,C   4,H  16)          131.70  0.000129   -0.05    131.65   
    42. A(C   3,C   4,N   5)          106.14 -0.000067    0.01    106.15   
    43. A(C   4,N   5,H  17)          126.25  0.000072   -0.01    126.23   
    44. A(C   4,N   5,C   6)          106.59 -0.000085    0.00    106.60   
    45. A(C   6,N   5,H  17)          127.16  0.000013    0.01    127.17   
    46. A(N   5,C   6,H  18)          123.64  0.000010   -0.03    123.61   
    47. A(N   7,C   6,H  18)          124.26 -0.000098    0.03    124.29   
    48. A(N   5,C   6,N   7)          112.09  0.000088   -0.00    112.09   
    49. A(C   3,N   7,C   6)          105.83 -0.000056    0.01    105.84   
    50. A(O   9,C   8,O  10)          123.50 -0.000003    0.03    123.53   
    51. A(C   1,C   8,O  10)          112.54  0.000007   -0.03    112.51   
    52. A(C   1,C   8,O   9)          123.93 -0.000007    0.00    123.93   
    53. A(C   8,O  10,H  19)          113.03  0.000007    0.01    113.04   
    54. D(C   8,C   1,N   0,H  11)   -156.88  0.000062   -0.46   -157.34   
    55. D(C   2,C   1,N   0,H  11)    -37.19  0.000161   -0.46    -37.65   
    56. D(H  13,C   1,N   0,H  11)     84.29  0.000048   -0.42     83.87   
    57. D(C   8,C   1,N   0,H  12)    -38.23  0.000056   -0.39    -38.62   
    58. D(C   2,C   1,N   0,H  12)     81.46  0.000155   -0.39     81.07   
    59. D(C   3,C   2,C   1,N   0)    -67.38 -0.000028    0.21    -67.16   
    60. D(H  14,C   2,C   1,H  13)     50.82 -0.000022    0.28     51.10   
    61. D(H  14,C   2,C   1,C   8)    -65.87 -0.000138    0.35    -65.51   
    62. D(H  14,C   2,C   1,N   0)    172.70 -0.000094    0.31    173.01   
    63. D(C   3,C   2,C   1,C   8)     54.06 -0.000072    0.25     54.31   
    64. D(C   3,C   2,C   1,H  13)    170.75  0.000044    0.18    170.93   
    65. D(C   4,C   3,C   2,H  15)    -42.38 -0.000059   -0.16    -42.54   
    66. D(C   4,C   3,C   2,H  14)   -162.47  0.000091   -0.24   -162.71   
    67. D(N   7,C   3,C   2,C   1)    -98.78 -0.000113    0.07    -98.71   
    68. D(C   4,C   3,C   2,C   1)     77.64 -0.000055   -0.11     77.53   
    69. D(N   7,C   3,C   2,H  14)     21.11  0.000032   -0.06     21.05   
    70. D(H  16,C   4,C   3,N   7)   -179.56 -0.000009   -0.04   -179.60   
    71. D(H  16,C   4,C   3,C   2)      3.68 -0.000058    0.11      3.80   
    72. D(N   5,C   4,C   3,N   7)     -0.07  0.000057   -0.14     -0.21   
    73. D(N   5,C   4,C   3,C   2)   -176.83  0.000008    0.02   -176.81   
    74. D(H  17,N   5,C   4,H  16)     -0.89  0.000038   -0.07     -0.96   
    75. D(H  17,N   5,C   4,C   3)    179.56 -0.000021    0.04    179.60   
    76. D(C   6,N   5,C   4,H  16)    179.74  0.000045   -0.07    179.67   
    77. D(C   6,N   5,C   4,C   3)      0.19 -0.000014    0.04      0.23   
    78. D(H  18,C   6,N   5,H  17)      0.63  0.000004    0.02      0.66   
    79. D(H  18,C   6,N   5,C   4)    179.99 -0.000002    0.02    180.02   
    80. D(N   7,C   6,N   5,H  17)   -179.62 -0.000030    0.07   -179.55   
    81. D(N   7,C   6,N   5,C   4)     -0.26 -0.000037    0.07     -0.19   
    82. D(C   3,N   7,C   6,N   5)      0.21  0.000071   -0.16      0.05   
    83. D(C   6,N   7,C   3,C   4)     -0.08 -0.000078    0.18      0.10   
    84. D(C   6,N   7,C   3,C   2)    176.98 -0.000036    0.03    177.01   
    85. D(C   3,N   7,C   6,H  18)    179.95  0.000037   -0.10    179.85   
    86. D(O  10,C   8,C   1,C   2)     81.72 -0.000015   -0.13     81.59   
    87. D(O  10,C   8,C   1,N   0)   -153.61 -0.000123   -0.07   -153.69   
    88. D(O   9,C   8,C   1,H  13)    147.16  0.000025   -0.19    146.97   
    89. D(O   9,C   8,C   1,C   2)    -96.48  0.000106   -0.23    -96.71   
    90. D(O   9,C   8,C   1,N   0)     28.18 -0.000001   -0.17     28.01   
    91. D(H  19,O  10,C   8,O   9)      1.49 -0.000065    0.18      1.67   
    92. D(H  19,O  10,C   8,C   1)   -176.72  0.000056    0.09   -176.63   
    ----------------------------------------------------------------------------

Geometry step timings:
Preparation and reading OPT file:      0.000 s ( 0.891 %)
Internal coordinates            :      0.000 s ( 0.891 %)
B/P matrices and projection     :      0.000 s (37.879 %)
Hessian update/contruction      :      0.000 s (10.606 %)
Making the step                 :      0.000 s (31.907 %)
Converting the step to Cartesian:      0.000 s ( 3.030 %)
Storing new data                :      0.000 s ( 0.891 %)
Checking convergence            :      0.000 s ( 1.070 %)
Final printing                  :      0.000 s (12.834 %)
Total time                      :      0.001 s

Time for energy+gradient        :      0.022 s
Time for complete geometry iter :      0.023 s

         *************************************************************
         *                GEOMETRY OPTIMIZATION CYCLE  12            *
         *************************************************************
---------------------------------
CARTESIAN COORDINATES (ANGSTROEM)
---------------------------------
  N    -1.331879   -0.490416    1.828730
  C    -1.574490   -0.598126    0.404406
  C    -0.433265   -1.285041   -0.403248
  C     0.799957   -0.449419   -0.408237
  C     1.735697   -0.278781    0.577241
  N     2.626682    0.641356    0.100160
  C     2.199291    0.989024   -1.131570
  N     1.108674    0.355676   -1.469869
  C    -1.745664    0.786193   -0.189417
  O    -1.235105    1.786433    0.267328
  O    -2.482918    0.779155   -1.280036
  H    -0.859892   -1.321629    2.165552
  H    -0.731841    0.310314    2.002894
  H    -2.497451   -1.165261    0.243072
  H    -0.767188   -1.426130   -1.430621
  H    -0.235618   -2.257975    0.049935
  H     1.841738   -0.728020    1.542350
  H     3.436013    0.993304    0.585192
  H     2.702425    1.699618   -1.755030
  H    -2.555165    1.659723   -1.698832

----------------------------
CARTESIAN COORDINATES (A.U.)
----------------------------
  NO LB    ZA    FRAG    MASS        X           Y           Z
   0 N   7.0000    0    14.007   -2.516887   -0.926751    3.455800
   1 C   6.0000    0    12.011   -2.975355   -1.130294    0.764216
   2 C   6.0000    0    12.011   -0.818752   -2.428376   -0.762029
   3 C   6.0000    0    12.011    1.511700   -0.849279   -0.771457
   4 C   6.0000    0    12.011    3.279992   -0.526820    1.090827
   5 N   7.0000    0    14.007    4.963710    1.211988    0.189275
   6 C   6.0000    0    12.011    4.156057    1.868985   -2.138357
   7 N   7.0000    0    14.007    2.095090    0.672131   -2.777650
   8 C   6.0000    0    12.011   -3.298827    1.485690   -0.357947
   9 O   8.0000    0    15.999   -2.334011    3.375869    0.505178
  10 O   8.0000    0    15.999   -4.692036    1.472390   -2.418917
  11 H   1.0000    0     1.008   -1.624960   -2.497517    4.092301
  12 H   1.0000    0     1.008   -1.382979    0.586409    3.784922
  13 H   1.0000    0     1.008   -4.719499   -2.202024    0.459339
  14 H   1.0000    0     1.008   -1.449775   -2.694996   -2.703483
  15 H   1.0000    0     1.008   -0.445253   -4.266954    0.094364
  16 H   1.0000    0     1.008    3.480380   -1.375758    2.914619
  17 H   1.0000    0     1.008    6.493124    1.877072    1.105853
  18 H   1.0000    0     1.008    5.106844    3.211813   -3.316527
  19 H   1.0000    0     1.008   -4.828562    3.136421   -3.210327

      -----------------------------------------------------------      
     |                   =====================                   |     
     |                           x T B                           |     
     |                   =====================                   |     
     |                         S. Grimme                         |     
     |          Mulliken Center for Theoretical Chemistry        |     
     |                    University of Bonn                     |     
      -----------------------------------------------------------      

   * xtb version 6.7.1 (edcfbbe) compiled by 'albert@albert-system' on 2024-07-22

   xtb is free software: you can redistribute it and/or modify it under
   the terms of the GNU Lesser General Public License as published by
   the Free Software Foundation, either version 3 of the License, or
   (at your option) any later version.
   
   xtb is distributed in the hope that it will be useful,
   but WITHOUT ANY WARRANTY; without even the implied warranty of
   MERCHANTABILITY or FITNESS FOR A PARTICULAR PURPOSE.  See the
   GNU Lesser General Public License for more details.
   
   Cite this work as:
   * C. Bannwarth, E. Caldeweyher, S. Ehlert, A. Hansen, P. Pracht,
     J. Seibert, S. Spicher, S. Grimme, WIREs Comput. Mol. Sci., 2020, 11,
     e01493. DOI: 10.1002/wcms.1493
   
   for GFN2-xTB:
   * C. Bannwarth, S. Ehlert and S. Grimme., J. Chem. Theory Comput., 2019,
     15, 1652-1671. DOI: 10.1021/acs.jctc.8b01176
   for GFN1-xTB:
   * S. Grimme, C. Bannwarth, P. Shushkov, J. Chem. Theory Comput., 2017,
     13, 1989-2009. DOI: 10.1021/acs.jctc.7b00118
   for GFN0-xTB:
   * P. Pracht, E. Caldeweyher, S. Ehlert, S. Grimme, ChemRxiv, 2019, preprint.
     DOI: 10.26434/chemrxiv.8326202.v1
   for GFN-FF:
   * S. Spicher and S. Grimme, Angew. Chem. Int. Ed., 2020, 59, 15665-15673.
     DOI: 10.1002/anie.202004239
   
   for ALPB and GBSA implicit solvation:
   * S. Ehlert, M. Stahn, S. Spicher, S. Grimme, J. Chem. Theory Comput.,
     2021, 17, 4250-4261. DOI: 10.1021/acs.jctc.1c00471
   
   for ddCOSMO and CPCM-X implicit solvation:
   * M. Stahn, S. Ehlert, S. Grimme, J. Phys. Chem. A,
     2023, XX, XXXX-XXXX. DOI: 10.1021/acs.jpca.3c04382
   
   for DFT-D4:
   * E. Caldeweyher, C. Bannwarth and S. Grimme, J. Chem. Phys., 2017,
     147, 034112. DOI: 10.1063/1.4993215
   * E. Caldeweyher, S. Ehlert, A. Hansen, H. Neugebauer, S. Spicher,
     C. Bannwarth and S. Grimme, J. Chem. Phys., 2019, 150, 154122.
     DOI: 10.1063/1.5090222
   * E. Caldeweyher, J.-M. Mewes, S. Ehlert and S. Grimme, Phys. Chem. Chem. Phys.
     2020, 22, 8499-8512. DOI: 10.1039/D0CP00502A
   
   for sTDA-xTB:
   * S. Grimme and C. Bannwarth, J. Chem. Phys., 2016, 145, 054103.
     DOI: 10.1063/1.4959605
   
   in the mass-spec context:
   * V. Asgeirsson, C. Bauer and S. Grimme, Chem. Sci., 2017, 8, 4879.
     DOI: 10.1039/c7sc00601b
   * J. Koopman and S. Grimme, ACS Omega 2019, 4, 12, 15120-15133.
     DOI: 10.1021/acsomega.9b02011
   
   for metadynamics refer to:
   * S. Grimme, J. Chem. Theory Comput., 2019, 155, 2847-2862
     DOI: 10.1021/acs.jctc.9b00143
   
   for SPH calculations refer to:
   * S. Spicher and S. Grimme, J. Chem. Theory Comput., 2021, 17, 1701-1714
     DOI: 10.1021/acs.jctc.0c01306
   
   for ONIOM refer to:
   * C. Plett, A. Katbashev, S. Ehlert, S. Grimme, M. Bursch,
     Phys. Chem. Chem. Phys., 2023, 25, 17860-17868. DOI: 10.1039/D3CP02178E
   
   for DIPRO refer to:
   * J. Kohn, N. Gildemeister, S. Grimme, D. Fazzi, A. Hansen,
     J. Chem. Phys., 2023, just accepted.
   
   for PTB refer to:
   * S. Grimme, M. Mueller, A. Hansen, J. Chem. Phys., 2023, 158, 124111.
     DOI: 10.1063/5.0137838
   
   with help from (in alphabetical order)
   P. Atkinson, C. Bannwarth, F. Bohle, G. Brandenburg, E. Caldeweyher
   M. Checinski, S. Dohm, S. Ehlert, S. Ehrlich, I. Gerasimov, C. Hölzer
   A. Katbashev, J. Kohn, J. Koopman, C. Lavigne, S. Lehtola, F. März, M. Müller,
   F. Musil, H. Neugebauer, J. Pisarek, C. Plett, P. Pracht, F. Pultar,
   J. Seibert, P. Shushkov, S. Spicher, M. Stahn, M. Steiner, T. Strunk,
   J. Stückrath, T. Rose, and J. Unsleber
   
 * started run on 2026/04/09 at 15:47:06.151     
   ID    Z sym.   atoms
    1    7 N      1, 6, 8
    2    6 C      2-5, 7, 9
    3    8 O      10, 11
    4    1 H      12-20

           -------------------------------------------------
          |                Calculation Setup                |
           -------------------------------------------------

          program call               : /home/analima/Programs/orca-6.1.0-f.0_linux_x86-64/bin/otool_xtb geo_opt_XTB.xyz --grad -c 0 -u 0 -P 1 --namespace geo_opt --input geo_opt_XTB.input.tmp --alpb WATER --acc 0.200000
          calculation namespace      : geo_opt
          coordinate file            : geo_opt_XTB.xyz
          omp threads                :                     1


           -------------------------------------------------
          |                 G F N 2 - x T B                 |
           -------------------------------------------------

        Reference                      10.1021/acs.jctc.8b01176
      * Hamiltonian:
        H0-scaling (s, p, d)           1.850000    2.230000    2.230000
        zeta-weighting                 0.500000
      * Dispersion:
        s8                             2.700000
        a1                             0.520000
        a2                             5.000000
        s9                             5.000000
      * Repulsion:
        kExp                           1.500000    1.000000
        rExp                           1.000000
      * Coulomb:
        alpha                          2.000000
        third order                    shell-resolved
        anisotropic                    true
        a3                             3.000000
        a5                             4.000000
        cn-shift                       1.200000
        cn-exp                         4.000000
        max-rad                        5.000000

      * Solvation model:               ALPB
        Solvent                        WATER
        Parameter file                 internal GFN2-xTB/ALPB
        Dielectric constant                8.0200E+01
        Reference state                gsolv [1 M gas/solution]
        Free energy shift                  1.0808E-03 Eh       6.7819E-01 kcal/mol
        Temperature                        2.9815E+02 K
        Density                            1.0000E+00 kg/L
        Solvent mass                       1.8000E+01 g/mol
        Interaction kernel             P16
        Born radius scaling (c1)           1.4744E+00
        Born radii integrator          GBOBC
        Born offset                        0.0000E+00 a0       0.0000E+00 AA
        H-bond correction              true
        Ion screening                  false
        Surface tension                    1.0000E-05 Eh       1.5569E+01 dyn/cm
        Grid points                               230 per atom
q/qsh data taken from xtbrestart
CAMM data taken from xtbrestart

          ...................................................
          :                      SETUP                      :
          :.................................................:
          :  # basis functions                  53          :
          :  # atomic orbitals                  53          :
          :  # shells                           31          :
          :  # electrons                        60          :
          :  max. iterations                   250          :
          :  Hamiltonian                  GFN2-xTB          :
          :  restarted?                       true          :
          :  GBSA solvation                   true          :
          :  PC potential                    false          :
          :  electronic temp.          300.0000000     K    :
          :  accuracy                    0.2000000          :
          :  -> integral cutoff          0.3198970E+02      :
          :  -> integral neglect         0.2000000E-08      :
          :  -> SCF convergence          0.2000000E-06 Eh   :
          :  -> wf. convergence          0.2000000E-04 e    :
          :  Broyden damping             0.4000000          :
          :  net charge                          0          :
          :  unpaired electrons                  0          :
          ...................................................

 iter      E             dE          RMSdq      gap      omega  full diag
   1    -34.7670379 -0.347670E+02  0.122E-02    3.60       0.0  T
   2    -34.7670380 -0.638557E-07  0.708E-03    3.60       3.2  T
   3    -34.7670380 -0.604601E-08  0.101E-03    3.60      22.0  T
   4    -34.7670380 -0.706160E-08  0.445E-04    3.60      50.3  T
   5    -34.7670380 -0.108454E-08  0.221E-04    3.60     101.3  T
   6    -34.7670380 -0.223842E-09  0.824E-05    3.60     271.5  T
   7    -34.7670380 -0.265246E-10  0.281E-05    3.60     796.8  T

   *** convergence criteria satisfied after 7 iterations ***

         #    Occupation            Energy/Eh            Energy/eV
      -------------------------------------------------------------
         1        2.0000           -0.7452323             -20.2788
       ...           ...                  ...                  ...
        24        2.0000           -0.4597475             -12.5104
        25        2.0000           -0.4515457             -12.2872
        26        2.0000           -0.4288549             -11.6697
        27        2.0000           -0.4219267             -11.4812
        28        2.0000           -0.3868244             -10.5260
        29        2.0000           -0.3824991             -10.4083
        30        2.0000           -0.3707177             -10.0877 (HOMO)
        31                         -0.2383684              -6.4863 (LUMO)
        32                         -0.2012641              -5.4767
        33                         -0.1687859              -4.5929
        34                          0.0316674               0.8617
        35                          0.0398930               1.0855
       ...                                ...                  ...
        53                          0.6305237              17.1574
      -------------------------------------------------------------
                  HL-Gap            0.1323493 Eh            3.6014 eV
             Fermi-level           -0.3045431 Eh           -8.2870 eV

 SCC (total)                   0 d,  0 h,  0 min,  0.014 sec
 SCC setup                      ...        0 min,  0.000 sec (  1.682%)
 Dispersion                     ...        0 min,  0.000 sec (  0.386%)
 classical contributions        ...        0 min,  0.000 sec (  0.079%)
 integral evaluation            ...        0 min,  0.001 sec (  6.595%)
 iterations                     ...        0 min,  0.008 sec ( 59.457%)
 molecular gradient             ...        0 min,  0.004 sec ( 31.064%)
 printout                       ...        0 min,  0.000 sec (  0.659%)

         :::::::::::::::::::::::::::::::::::::::::::::::::::::
         ::                     SUMMARY                     ::
         :::::::::::::::::::::::::::::::::::::::::::::::::::::
         :: total energy             -34.365491760197 Eh    ::
         :: total w/o Gsasa/hb       -34.351579830420 Eh    ::
         :: gradient norm              0.000896103208 Eh/a0 ::
         :: HOMO-LUMO gap              3.601406589094 eV    ::
         ::.................................................::
         :: SCC energy               -34.766913096405 Eh    ::
         :: -> isotropic ES            0.096465894435 Eh    ::
         :: -> anisotropic ES          0.002721407230 Eh    ::
         :: -> anisotropic XC          0.015435045498 Eh    ::
         :: -> dispersion             -0.017394853635 Eh    ::
         :: -> Gsolv                  -0.029363752813 Eh    ::
         ::    -> Gelec               -0.015451823037 Eh    ::
         ::    -> Gsasa               -0.001811384480 Eh    ::
         ::    -> Ghb                 -0.013181304994 Eh    ::
         ::    -> Gshift               0.001080759698 Eh    ::
         :: repulsion energy           0.401421336208 Eh    ::
         :: add. restraining           0.000000000000 Eh    ::
         :: total charge               0.000000000000 e     ::
         :::::::::::::::::::::::::::::::::::::::::::::::::::::


Property printout bound to 'properties.out'

           -------------------------------------------------
          | TOTAL ENERGY              -34.365491760197 Eh   |
          | GRADIENT NORM               0.000896103208 Eh/α |
          | HOMO-LUMO GAP               3.601406589094 eV   |
           -------------------------------------------------

------------------------------------------------------------------------
 * finished run on 2026/04/09 at 15:47:06.170     
------------------------------------------------------------------------
 total:
 * wall-time:     0 d,  0 h,  0 min,  0.019 sec
 *  cpu-time:     0 d,  0 h,  0 min,  0.014 sec
 * ratio c/w:     0.756 speedup
 SCF:
 * wall-time:     0 d,  0 h,  0 min,  0.014 sec
 *  cpu-time:     0 d,  0 h,  0 min,  0.010 sec
 * ratio c/w:     0.680 speedup


-------------------------   --------------------
FINAL SINGLE POINT ENERGY       -34.365491760200
-------------------------   --------------------


-------------
DIPOLE MOMENT
-------------
                                X             Y             Z
Total Dipole Moment    :      1.30200      -0.39600       0.26000
                        -----------------------------------------
Magnitude (a.u.)       :      1.38550
Magnitude (Debye)      :      3.52167


------------------
CARTESIAN GRADIENT
------------------

   1   N   :    0.000068279   -0.000349851    0.000225280
   2   C   :   -0.000096671    0.000036466   -0.000247467
   3   C   :    0.000158443    0.000049431    0.000156148
   4   C   :    0.000046608   -0.000040055   -0.000217771
   5   C   :   -0.000198249   -0.000220022    0.000020161
   6   N   :    0.000167514    0.000193115   -0.000015695
   7   C   :    0.000007457   -0.000130968    0.000038975
   8   N   :   -0.000131790    0.000146345    0.000038387
   9   C   :   -0.000169558    0.000120975   -0.000226744
  10   O   :    0.000103177    0.000108302    0.000102019
  11   O   :    0.000067090   -0.000118768    0.000168369
  12   H   :    0.000095038    0.000082285    0.000042296
  13   H   :   -0.000069943    0.000063650   -0.000026886
  14   H   :    0.000016759    0.000028640   -0.000016192
  15   H   :   -0.000019512   -0.000058641    0.000009982
  16   H   :   -0.000071348   -0.000056278    0.000002650
  17   H   :   -0.000041526    0.000083013    0.000052685
  18   H   :    0.000029171    0.000007046   -0.000005356
  19   H   :    0.000029733    0.000004294   -0.000026938
  20   H   :    0.000009327    0.000051020   -0.000073901

Difference to translation invariance:
           :    0.0000000000    0.0000000000   -0.0000000000

Difference to rotation invariance:
           :    0.0000797068    0.0000222334    0.0001109952

Norm of the Cartesian gradient     ...    0.0008961032
RMS gradient                       ...    0.0001156864
MAX gradient                       ...    0.0003498506
------------------------------------------------------------------------------
                         ORCA GEOMETRY RELAXATION STEP
------------------------------------------------------------------------------

Reading the OPT-File                    .... done
Getting information on internals        .... done
Copying old internal coords+grads       .... done
Making the new internal coordinates     .... (2022 redundants) done
Validating the new internal coordinates .... (2022 redundants) done
Calculating the B-matrix                .... done
Calculating the G,G- and P matrices     .... done
Transforming gradient to internals      .... done
Projecting the internal gradient        .... done
Number of atoms                         ....  20
Number of internal coordinates          ....  92
Current Energy                          ....   -34.365491760 Eh
Current gradient norm                   ....     0.000896103 Eh/bohr
Maximum allowed component of the step   ....  0.300
Current trust radius                    ....  0.700
Updating the Hessian (BFGS)             .... done
Forming the augmented Hessian           .... done
Diagonalizing the augmented Hessian     .... done
Last element of RFO vector              ....  0.999527935
Lowest eigenvalues of augmented Hessian:
 -0.000007508  0.002465885  0.004915938  0.011067576  0.014893370
Length of the computed step             ....  0.030737578
The final length of the internal step   ....  0.030737578
Converting the step to Cartesian space:
 Initial RMS(Int)=    0.0032046140
Transforming coordinates:
 Iter   0:  RMS(Cart)=    0.0068785029 RMS(Int)=    0.0032068435
done
Storing new coordinates                 .... done
The predicted energy change is          ....    -0.000003757
Previously predicted energy change      ....    -0.000004828
Actually observed energy change         ....    -0.000006451
Ratio of predicted to observed change   ....     1.336158510
New trust radius                        ....     0.700000000

                                .--------------------.
          ----------------------|Geometry convergence|-------------------------
          Item                value                   Tolerance       Converged
          ---------------------------------------------------------------------
          Energy change      -0.0000064509            0.0000050000      NO
          RMS gradient        0.0000657850            0.0001000000      YES
          MAX gradient        0.0002189204            0.0003000000      YES
          RMS step            0.0032046140            0.0020000000      NO
          MAX step            0.0113640727            0.0040000000      NO
          -------------------------------------------------------------------------
          ........................................................
          Max(Bonds)      0.0044      Max(Angles)    0.08
          Max(Dihed)        0.65      Max(Improp)    0.00
          ---------------------------------------------------------------------

The optimization has not yet converged - more geometry cycles are needed


    ---------------------------------------------------------------------------
                         Redundant Internal Coordinates
                            (Angstroem and degrees)

        Definition                    Value    dE/dq     Step     New-Value
    ----------------------------------------------------------------------------
     1. B(C   1,N   0)                1.4488  0.000219 -0.0008    1.4481   
     2. B(C   2,C   1)                1.5577 -0.000032 -0.0001    1.5576   
     3. B(C   3,C   2)                1.4897 -0.000056  0.0001    1.4898   
     4. B(C   4,C   3)                1.3696 -0.000023  0.0001    1.3697   
     5. B(N   5,C   4)                1.3668  0.000198 -0.0002    1.3666   
     6. B(C   6,N   5)                1.3493 -0.000001 -0.0000    1.3493   
     7. B(N   7,C   3)                1.3677 -0.000005  0.0000    1.3677   
     8. B(N   7,C   6)                1.3058  0.000039  0.0001    1.3058   
     9. B(C   8,C   1)                1.5160  0.000138 -0.0001    1.5159   
    10. B(O   9,C   8)                1.2123  0.000168 -0.0001    1.2122   
    11. B(O  10,C   8)                1.3165 -0.000120  0.0003    1.3168   
    12. B(H  11,N   0)                1.0135 -0.000011  0.0001    1.0135   
    13. B(H  12,N   0)                1.0157  0.000012  0.0000    1.0157   
    14. B(H  12,O   9)                2.3333  0.000027  0.0044    2.3377   
    15. B(H  13,C   1)                1.0952 -0.000027  0.0002    1.0954   
    16. B(H  14,C   2)                1.0895  0.000004  0.0001    1.0895   
    17. B(H  15,C   2)                1.0913  0.000039 -0.0001    1.0912   
    18. B(H  16,C   4)                1.0698  0.000009  0.0001    1.0699   
    19. B(H  17,N   5)                1.0070  0.000023  0.0000    1.0071   
    20. B(H  18,C   6)                1.0709  0.000032 -0.0000    1.0709   
    21. B(H  19,O  10)                0.9778  0.000078 -0.0000    0.9777   
    22. A(C   1,N   0,H  12)          109.03 -0.000115    0.04    109.07   
    23. A(H  11,N   0,H  12)          108.33  0.000000    0.05    108.38   
    24. A(C   1,N   0,H  11)          110.10  0.000139   -0.06    110.05   
    25. A(N   0,C   1,C   8)          109.64  0.000032   -0.01    109.63   
    26. A(C   8,C   1,H  13)          108.66 -0.000003   -0.04    108.63   
    27. A(N   0,C   1,H  13)          108.93  0.000019   -0.01    108.93   
    28. A(C   2,C   1,H  13)          108.22 -0.000006    0.01    108.23   
    29. A(C   2,C   1,C   8)          106.40  0.000069   -0.04    106.36   
    30. A(N   0,C   1,C   2)          114.82 -0.000106    0.08    114.90   
    31. A(C   1,C   2,H  15)          108.09 -0.000092    0.07    108.16   
    32. A(C   3,C   2,H  14)          108.86 -0.000017    0.00    108.86   
    33. A(C   1,C   2,H  14)          108.75 -0.000001   -0.05    108.71   
    34. A(H  14,C   2,H  15)          109.37 -0.000046    0.04    109.41   
    35. A(C   1,C   2,C   3)          111.15  0.000053   -0.07    111.08   
    36. A(C   3,C   2,H  15)          110.58  0.000100    0.01    110.59   
    37. A(C   2,C   3,C   4)          129.28 -0.000130   -0.00    129.27   
    38. A(C   2,C   3,N   7)          121.31  0.000090    0.01    121.32   
    39. A(C   4,C   3,N   7)          109.33  0.000039   -0.02    109.31   
    40. A(N   5,C   4,H  16)          122.21 -0.000016    0.04    122.25   
    41. A(C   3,C   4,H  16)          131.64  0.000021   -0.05    131.59   
    42. A(C   3,C   4,N   5)          106.15 -0.000005    0.01    106.15   
    43. A(C   4,N   5,H  17)          126.23  0.000051   -0.02    126.21   
    44. A(C   4,N   5,C   6)          106.60 -0.000074    0.01    106.61   
    45. A(C   6,N   5,H  17)          127.17  0.000023    0.01    127.18   
    46. A(N   5,C   6,H  18)          123.61 -0.000031   -0.02    123.60   
    47. A(N   7,C   6,H  18)          124.29 -0.000028    0.03    124.32   
    48. A(N   5,C   6,N   7)          112.09  0.000059   -0.01    112.08   
    49. A(C   3,N   7,C   6)          105.84 -0.000019    0.01    105.85   
    50. A(O   9,C   8,O  10)          123.53  0.000135    0.00    123.53   
    51. A(C   1,C   8,O  10)          112.51 -0.000081    0.00    112.51   
    52. A(C   1,C   8,O   9)          123.94 -0.000055    0.00    123.94   
    53. A(C   8,O  10,H  19)          113.04  0.000052    0.01    113.05   
    54. D(C   8,C   1,N   0,H  11)   -157.34  0.000062   -0.64   -157.98   
    55. D(C   2,C   1,N   0,H  11)    -37.65  0.000102   -0.65    -38.30   
    56. D(H  13,C   1,N   0,H  11)     83.87  0.000036   -0.59     83.29   
    57. D(C   8,C   1,N   0,H  12)    -38.62  0.000075   -0.58    -39.20   
    58. D(C   2,C   1,N   0,H  12)     81.07  0.000115   -0.59     80.48   
    59. D(C   3,C   2,C   1,N   0)    -67.16 -0.000050    0.33    -66.83   
    60. D(H  14,C   2,C   1,H  13)     51.10 -0.000010    0.35     51.45   
    61. D(H  14,C   2,C   1,C   8)    -65.51 -0.000038    0.41    -65.11   
    62. D(H  14,C   2,C   1,N   0)    173.01 -0.000062    0.41    173.42   
    63. D(C   3,C   2,C   1,C   8)     54.31 -0.000027    0.34     54.65   
    64. D(C   3,C   2,C   1,H  13)    170.93  0.000002    0.28    171.21   
    65. D(C   4,C   3,C   2,H  15)    -42.54 -0.000034    0.02    -42.51   
    66. D(C   4,C   3,C   2,H  14)   -162.71 -0.000027   -0.04   -162.74   
    67. D(N   7,C   3,C   2,C   1)    -98.71 -0.000016    0.08    -98.64   
    68. D(C   4,C   3,C   2,C   1)     77.53 -0.000049    0.06     77.59   
    69. D(N   7,C   3,C   2,H  14)     21.05  0.000005   -0.02     21.03   
    70. D(H  16,C   4,C   3,N   7)   -179.59 -0.000068    0.16   -179.43   
    71. D(H  16,C   4,C   3,C   2)      3.81 -0.000041    0.19      4.00   
    72. D(N   5,C   4,C   3,N   7)     -0.21 -0.000054    0.06     -0.15   
    73. D(N   5,C   4,C   3,C   2)   -176.81 -0.000027    0.08   -176.72   
    74. D(H  17,N   5,C   4,H  16)     -0.95  0.000032   -0.11     -1.06   
    75. D(H  17,N   5,C   4,C   3)    179.60  0.000019   -0.03    179.57   
    76. D(C   6,N   5,C   4,H  16)    179.69  0.000024   -0.09    179.59   
    77. D(C   6,N   5,C   4,C   3)      0.24  0.000011   -0.01      0.23   
    78. D(H  18,C   6,N   5,H  17)      0.66 -0.000001    0.02      0.68   
    79. D(H  18,C   6,N   5,C   4)   -179.99  0.000007    0.00   -179.99   
    80. D(N   7,C   6,N   5,H  17)   -179.54  0.000030   -0.02   -179.56   
    81. D(N   7,C   6,N   5,C   4)     -0.18  0.000038   -0.04     -0.23   
    82. D(C   3,N   7,C   6,N   5)      0.05 -0.000070    0.09      0.14   
    83. D(C   6,N   7,C   3,C   4)      0.10  0.000076   -0.09      0.01   
    84. D(C   6,N   7,C   3,C   2)    177.02  0.000043   -0.10    176.92   
    85. D(C   3,N   7,C   6,H  18)    179.85 -0.000039    0.03    179.89   
    86. D(O  10,C   8,C   1,C   2)     81.59  0.000001   -0.08     81.51   
    87. D(O  10,C   8,C   1,N   0)   -153.69 -0.000066   -0.02   -153.71   
    88. D(O   9,C   8,C   1,H  13)    146.97  0.000013   -0.14    146.82   
    89. D(O   9,C   8,C   1,C   2)    -96.71  0.000040   -0.16    -96.88   
    90. D(O   9,C   8,C   1,N   0)     28.01 -0.000026   -0.11     27.91   
    91. D(H  19,O  10,C   8,O   9)      1.67  0.000012    0.05      1.73   
    92. D(H  19,O  10,C   8,C   1)   -176.63  0.000056   -0.04   -176.67   
    ----------------------------------------------------------------------------

Geometry step timings:
Preparation and reading OPT file:      0.000 s ( 0.787 %)
Internal coordinates            :      0.000 s ( 1.050 %)
B/P matrices and projection     :      0.000 s (37.795 %)
Hessian update/contruction      :      0.000 s (10.324 %)
Making the step                 :      0.000 s (32.108 %)
Converting the step to Cartesian:      0.000 s ( 3.062 %)
Storing new data                :      0.000 s ( 0.962 %)
Checking convergence            :      0.000 s ( 1.050 %)
Final printing                  :      0.000 s (12.773 %)
Total time                      :      0.001 s

Time for energy+gradient        :      0.022 s
Time for complete geometry iter :      0.024 s

         *************************************************************
         *                GEOMETRY OPTIMIZATION CYCLE  13            *
         *************************************************************
---------------------------------
CARTESIAN COORDINATES (ANGSTROEM)
---------------------------------
  N    -1.327189   -0.483844    1.828292
  C    -1.573018   -0.596494    0.405689
  C    -0.434038   -1.284343   -0.404116
  C     0.799989   -0.449679   -0.408094
  C     1.736979   -0.282596    0.576958
  N     2.627190    0.639299    0.102458
  C     2.198708    0.991586   -1.127555
  N     1.108357    0.358525   -1.467492
  C    -1.747096    0.785621   -0.192134
  O    -1.238097    1.788108    0.261084
  O    -2.486895    0.774159   -1.281392
  H    -0.862901   -1.318372    2.167785
  H    -0.719754    0.312208    1.998211
  H    -2.496421   -1.164422    0.248620
  H    -0.769600   -1.421726   -1.431516
  H    -0.237013   -2.258503    0.046406
  H     1.844218   -0.736997    1.539576
  H     3.436757    0.989576    0.588374
  H     2.701470    1.704581   -1.748513
  H    -2.561647    1.653315   -1.702640

----------------------------
CARTESIAN COORDINATES (A.U.)
----------------------------
  NO LB    ZA    FRAG    MASS        X           Y           Z
   0 N   7.0000    0    14.007   -2.508023   -0.914333    3.454972
   1 C   6.0000    0    12.011   -2.972573   -1.127211    0.766641
   2 C   6.0000    0    12.011   -0.820212   -2.427057   -0.763669
   3 C   6.0000    0    12.011    1.511760   -0.849771   -0.771186
   4 C   6.0000    0    12.011    3.282415   -0.534029    1.090292
   5 N   7.0000    0    14.007    4.964670    1.208099    0.193618
   6 C   6.0000    0    12.011    4.154956    1.873827   -2.130770
   7 N   7.0000    0    14.007    2.094492    0.677513   -2.773158
   8 C   6.0000    0    12.011   -3.301533    1.484608   -0.363080
   9 O   8.0000    0    15.999   -2.339664    3.379034    0.493377
  10 O   8.0000    0    15.999   -4.699550    1.462948   -2.421480
  11 H   1.0000    0     1.008   -1.630647   -2.491362    4.096519
  12 H   1.0000    0     1.008   -1.360138    0.589988    3.776071
  13 H   1.0000    0     1.008   -4.717553   -2.200439    0.469824
  14 H   1.0000    0     1.008   -1.454334   -2.686672   -2.705173
  15 H   1.0000    0     1.008   -0.447890   -4.267953    0.087694
  16 H   1.0000    0     1.008    3.485067   -1.392722    2.909376
  17 H   1.0000    0     1.008    6.494530    1.870029    1.111865
  18 H   1.0000    0     1.008    5.105038    3.221191   -3.304212
  19 H   1.0000    0     1.008   -4.840811    3.124313   -3.217524

      -----------------------------------------------------------      
     |                   =====================                   |     
     |                           x T B                           |     
     |                   =====================                   |     
     |                         S. Grimme                         |     
     |          Mulliken Center for Theoretical Chemistry        |     
     |                    University of Bonn                     |     
      -----------------------------------------------------------      

   * xtb version 6.7.1 (edcfbbe) compiled by 'albert@albert-system' on 2024-07-22

   xtb is free software: you can redistribute it and/or modify it under
   the terms of the GNU Lesser General Public License as published by
   the Free Software Foundation, either version 3 of the License, or
   (at your option) any later version.
   
   xtb is distributed in the hope that it will be useful,
   but WITHOUT ANY WARRANTY; without even the implied warranty of
   MERCHANTABILITY or FITNESS FOR A PARTICULAR PURPOSE.  See the
   GNU Lesser General Public License for more details.
   
   Cite this work as:
   * C. Bannwarth, E. Caldeweyher, S. Ehlert, A. Hansen, P. Pracht,
     J. Seibert, S. Spicher, S. Grimme, WIREs Comput. Mol. Sci., 2020, 11,
     e01493. DOI: 10.1002/wcms.1493
   
   for GFN2-xTB:
   * C. Bannwarth, S. Ehlert and S. Grimme., J. Chem. Theory Comput., 2019,
     15, 1652-1671. DOI: 10.1021/acs.jctc.8b01176
   for GFN1-xTB:
   * S. Grimme, C. Bannwarth, P. Shushkov, J. Chem. Theory Comput., 2017,
     13, 1989-2009. DOI: 10.1021/acs.jctc.7b00118
   for GFN0-xTB:
   * P. Pracht, E. Caldeweyher, S. Ehlert, S. Grimme, ChemRxiv, 2019, preprint.
     DOI: 10.26434/chemrxiv.8326202.v1
   for GFN-FF:
   * S. Spicher and S. Grimme, Angew. Chem. Int. Ed., 2020, 59, 15665-15673.
     DOI: 10.1002/anie.202004239
   
   for ALPB and GBSA implicit solvation:
   * S. Ehlert, M. Stahn, S. Spicher, S. Grimme, J. Chem. Theory Comput.,
     2021, 17, 4250-4261. DOI: 10.1021/acs.jctc.1c00471
   
   for ddCOSMO and CPCM-X implicit solvation:
   * M. Stahn, S. Ehlert, S. Grimme, J. Phys. Chem. A,
     2023, XX, XXXX-XXXX. DOI: 10.1021/acs.jpca.3c04382
   
   for DFT-D4:
   * E. Caldeweyher, C. Bannwarth and S. Grimme, J. Chem. Phys., 2017,
     147, 034112. DOI: 10.1063/1.4993215
   * E. Caldeweyher, S. Ehlert, A. Hansen, H. Neugebauer, S. Spicher,
     C. Bannwarth and S. Grimme, J. Chem. Phys., 2019, 150, 154122.
     DOI: 10.1063/1.5090222
   * E. Caldeweyher, J.-M. Mewes, S. Ehlert and S. Grimme, Phys. Chem. Chem. Phys.
     2020, 22, 8499-8512. DOI: 10.1039/D0CP00502A
   
   for sTDA-xTB:
   * S. Grimme and C. Bannwarth, J. Chem. Phys., 2016, 145, 054103.
     DOI: 10.1063/1.4959605
   
   in the mass-spec context:
   * V. Asgeirsson, C. Bauer and S. Grimme, Chem. Sci., 2017, 8, 4879.
     DOI: 10.1039/c7sc00601b
   * J. Koopman and S. Grimme, ACS Omega 2019, 4, 12, 15120-15133.
     DOI: 10.1021/acsomega.9b02011
   
   for metadynamics refer to:
   * S. Grimme, J. Chem. Theory Comput., 2019, 155, 2847-2862
     DOI: 10.1021/acs.jctc.9b00143
   
   for SPH calculations refer to:
   * S. Spicher and S. Grimme, J. Chem. Theory Comput., 2021, 17, 1701-1714
     DOI: 10.1021/acs.jctc.0c01306
   
   for ONIOM refer to:
   * C. Plett, A. Katbashev, S. Ehlert, S. Grimme, M. Bursch,
     Phys. Chem. Chem. Phys., 2023, 25, 17860-17868. DOI: 10.1039/D3CP02178E
   
   for DIPRO refer to:
   * J. Kohn, N. Gildemeister, S. Grimme, D. Fazzi, A. Hansen,
     J. Chem. Phys., 2023, just accepted.
   
   for PTB refer to:
   * S. Grimme, M. Mueller, A. Hansen, J. Chem. Phys., 2023, 158, 124111.
     DOI: 10.1063/5.0137838
   
   with help from (in alphabetical order)
   P. Atkinson, C. Bannwarth, F. Bohle, G. Brandenburg, E. Caldeweyher
   M. Checinski, S. Dohm, S. Ehlert, S. Ehrlich, I. Gerasimov, C. Hölzer
   A. Katbashev, J. Kohn, J. Koopman, C. Lavigne, S. Lehtola, F. März, M. Müller,
   F. Musil, H. Neugebauer, J. Pisarek, C. Plett, P. Pracht, F. Pultar,
   J. Seibert, P. Shushkov, S. Spicher, M. Stahn, M. Steiner, T. Strunk,
   J. Stückrath, T. Rose, and J. Unsleber
   
 * started run on 2026/04/09 at 15:47:06.175     
   ID    Z sym.   atoms
    1    7 N      1, 6, 8
    2    6 C      2-5, 7, 9
    3    8 O      10, 11
    4    1 H      12-20

           -------------------------------------------------
          |                Calculation Setup                |
           -------------------------------------------------

          program call               : /home/analima/Programs/orca-6.1.0-f.0_linux_x86-64/bin/otool_xtb geo_opt_XTB.xyz --grad -c 0 -u 0 -P 1 --namespace geo_opt --input geo_opt_XTB.input.tmp --alpb WATER --acc 0.200000
          calculation namespace      : geo_opt
          coordinate file            : geo_opt_XTB.xyz
          omp threads                :                     1


           -------------------------------------------------
          |                 G F N 2 - x T B                 |
           -------------------------------------------------

        Reference                      10.1021/acs.jctc.8b01176
      * Hamiltonian:
        H0-scaling (s, p, d)           1.850000    2.230000    2.230000
        zeta-weighting                 0.500000
      * Dispersion:
        s8                             2.700000
        a1                             0.520000
        a2                             5.000000
        s9                             5.000000
      * Repulsion:
        kExp                           1.500000    1.000000
        rExp                           1.000000
      * Coulomb:
        alpha                          2.000000
        third order                    shell-resolved
        anisotropic                    true
        a3                             3.000000
        a5                             4.000000
        cn-shift                       1.200000
        cn-exp                         4.000000
        max-rad                        5.000000

      * Solvation model:               ALPB
        Solvent                        WATER
        Parameter file                 internal GFN2-xTB/ALPB
        Dielectric constant                8.0200E+01
        Reference state                gsolv [1 M gas/solution]
        Free energy shift                  1.0808E-03 Eh       6.7819E-01 kcal/mol
        Temperature                        2.9815E+02 K
        Density                            1.0000E+00 kg/L
        Solvent mass                       1.8000E+01 g/mol
        Interaction kernel             P16
        Born radius scaling (c1)           1.4744E+00
        Born radii integrator          GBOBC
        Born offset                        0.0000E+00 a0       0.0000E+00 AA
        H-bond correction              true
        Ion screening                  false
        Surface tension                    1.0000E-05 Eh       1.5569E+01 dyn/cm
        Grid points                               230 per atom
q/qsh data taken from xtbrestart
CAMM data taken from xtbrestart

          ...................................................
          :                      SETUP                      :
          :.................................................:
          :  # basis functions                  53          :
          :  # atomic orbitals                  53          :
          :  # shells                           31          :
          :  # electrons                        60          :
          :  max. iterations                   250          :
          :  Hamiltonian                  GFN2-xTB          :
          :  restarted?                       true          :
          :  GBSA solvation                   true          :
          :  PC potential                    false          :
          :  electronic temp.          300.0000000     K    :
          :  accuracy                    0.2000000          :
          :  -> integral cutoff          0.3198970E+02      :
          :  -> integral neglect         0.2000000E-08      :
          :  -> SCF convergence          0.2000000E-06 Eh   :
          :  -> wf. convergence          0.2000000E-04 e    :
          :  Broyden damping             0.4000000          :
          :  net charge                          0          :
          :  unpaired electrons                  0          :
          ...................................................

 iter      E             dE          RMSdq      gap      omega  full diag
   1    -34.7670702 -0.347671E+02  0.170E-02    3.60       0.0  T
   2    -34.7670703 -0.112452E-06  0.993E-03    3.60       2.3  T
   3    -34.7670703 -0.831783E-08  0.138E-03    3.60      16.2  T
   4    -34.7670703 -0.138196E-07  0.643E-04    3.60      34.8  T
   5    -34.7670703 -0.286872E-08  0.299E-04    3.60      74.7  T
   6    -34.7670703 -0.341572E-09  0.113E-04    3.60     198.6  T
   7    -34.7670703 -0.404015E-10  0.377E-05    3.60     593.4  T

   *** convergence criteria satisfied after 7 iterations ***

         #    Occupation            Energy/Eh            Energy/eV
      -------------------------------------------------------------
         1        2.0000           -0.7451182             -20.2757
       ...           ...                  ...                  ...
        24        2.0000           -0.4597520             -12.5105
        25        2.0000           -0.4515488             -12.2873
        26        2.0000           -0.4288109             -11.6685
        27        2.0000           -0.4218374             -11.4788
        28        2.0000           -0.3868121             -10.5257
        29        2.0000           -0.3824580             -10.4072
        30        2.0000           -0.3707207             -10.0878 (HOMO)
        31                         -0.2382981              -6.4844 (LUMO)
        32                         -0.2012405              -5.4760
        33                         -0.1687805              -4.5928
        34                          0.0317164               0.8630
        35                          0.0401808               1.0934
       ...                                ...                  ...
        53                          0.6302477              17.1499
      -------------------------------------------------------------
                  HL-Gap            0.1324226 Eh            3.6034 eV
             Fermi-level           -0.3045094 Eh           -8.2861 eV

 SCC (total)                   0 d,  0 h,  0 min,  0.015 sec
 SCC setup                      ...        0 min,  0.000 sec (  2.397%)
 Dispersion                     ...        0 min,  0.000 sec (  0.703%)
 classical contributions        ...        0 min,  0.000 sec (  0.132%)
 integral evaluation            ...        0 min,  0.002 sec ( 11.420%)
 iterations                     ...        0 min,  0.010 sec ( 62.850%)
 molecular gradient             ...        0 min,  0.003 sec ( 22.131%)
 printout                       ...        0 min,  0.000 sec (  0.276%)

         :::::::::::::::::::::::::::::::::::::::::::::::::::::
         ::                     SUMMARY                     ::
         :::::::::::::::::::::::::::::::::::::::::::::::::::::
         :: total energy             -34.365496461056 Eh    ::
         :: total w/o Gsasa/hb       -34.351586622918 Eh    ::
         :: gradient norm              0.000607006775 Eh/a0 ::
         :: HOMO-LUMO gap              3.603402716845 eV    ::
         ::.................................................::
         :: SCC energy               -34.766945603461 Eh    ::
         :: -> isotropic ES            0.096469547489 Eh    ::
         :: -> anisotropic ES          0.002744049206 Eh    ::
         :: -> anisotropic XC          0.015437349232 Eh    ::
         :: -> dispersion             -0.017397212427 Eh    ::
         :: -> Gsolv                  -0.029380183099 Eh    ::
         ::    -> Gelec               -0.015470344962 Eh    ::
         ::    -> Gsasa               -0.001806753588 Eh    ::
         ::    -> Ghb                 -0.013183844248 Eh    ::
         ::    -> Gshift               0.001080759698 Eh    ::
         :: repulsion energy           0.401449142405 Eh    ::
         :: add. restraining           0.000000000000 Eh    ::
         :: total charge               0.000000000000 e     ::
         :::::::::::::::::::::::::::::::::::::::::::::::::::::


Property printout bound to 'properties.out'

           -------------------------------------------------
          | TOTAL ENERGY              -34.365496461056 Eh   |
          | GRADIENT NORM               0.000607006775 Eh/α |
          | HOMO-LUMO GAP               3.603402716845 eV   |
           -------------------------------------------------

------------------------------------------------------------------------
 * finished run on 2026/04/09 at 15:47:06.196     
------------------------------------------------------------------------
 total:
 * wall-time:     0 d,  0 h,  0 min,  0.021 sec
 *  cpu-time:     0 d,  0 h,  0 min,  0.015 sec
 * ratio c/w:     0.725 speedup
 SCF:
 * wall-time:     0 d,  0 h,  0 min,  0.015 sec
 *  cpu-time:     0 d,  0 h,  0 min,  0.010 sec
 * ratio c/w:     0.634 speedup


-------------------------   --------------------
FINAL SINGLE POINT ENERGY       -34.365496461060
-------------------------   --------------------


-------------
DIPOLE MOMENT
-------------
                                X             Y             Z
Total Dipole Moment    :      1.30100      -0.40800       0.26400
                        -----------------------------------------
Magnitude (a.u.)       :      1.38880
Magnitude (Debye)      :      3.53004


------------------
CARTESIAN GRADIENT
------------------

   1   N   :   -0.000028902   -0.000188010   -0.000083351
   2   C   :    0.000210727    0.000040446    0.000116774
   3   C   :    0.000009898   -0.000082390    0.000246982
   4   C   :   -0.000121809    0.000044180   -0.000127754
   5   C   :    0.000027196   -0.000041575   -0.000016133
   6   N   :    0.000022787    0.000103012   -0.000083906
   7   C   :    0.000011255    0.000036084    0.000055730
   8   N   :   -0.000011211   -0.000035673    0.000000744
   9   C   :    0.000089849    0.000030899   -0.000188781
  10   O   :    0.000023811    0.000016040    0.000150664
  11   O   :   -0.000066052   -0.000096472    0.000053576
  12   H   :    0.000052615   -0.000006834   -0.000027830
  13   H   :   -0.000044291    0.000103394   -0.000014587
  14   H   :   -0.000069052    0.000025270   -0.000016334
  15   H   :   -0.000069691    0.000033849   -0.000025500
  16   H   :   -0.000055361   -0.000024325   -0.000032758
  17   H   :   -0.000057045   -0.000009940    0.000044543
  18   H   :    0.000037400    0.000002699    0.000023002
  19   H   :    0.000048900    0.000009883    0.000014038
  20   H   :   -0.000011024    0.000039463   -0.000089118

Difference to translation invariance:
           :   -0.0000000000   -0.0000000000   -0.0000000000

Difference to rotation invariance:
           :    0.0000935629    0.0000268335    0.0001021315

Norm of the Cartesian gradient     ...    0.0006070068
RMS gradient                       ...    0.0000783642
MAX gradient                       ...    0.0002469823
------------------------------------------------------------------------------
                         ORCA GEOMETRY RELAXATION STEP
------------------------------------------------------------------------------

Reading the OPT-File                    .... done
Getting information on internals        .... done
Copying old internal coords+grads       .... done
Making the new internal coordinates     .... (2022 redundants) done
Validating the new internal coordinates .... (2022 redundants) done
Calculating the B-matrix                .... done
Calculating the G,G- and P matrices     .... done
Transforming gradient to internals      .... done
Projecting the internal gradient        .... done
Number of atoms                         ....  20
Number of internal coordinates          ....  92
Current Energy                          ....   -34.365496461 Eh
Current gradient norm                   ....     0.000607007 Eh/bohr
Maximum allowed component of the step   ....  0.300
Current trust radius                    ....  0.700
Updating the Hessian (BFGS)             .... done
Forming the augmented Hessian           .... done
Diagonalizing the augmented Hessian     .... done
Last element of RFO vector              ....  0.999761517
Lowest eigenvalues of augmented Hessian:
 -0.000003025  0.002381223  0.003965949  0.009203364  0.015087680
Length of the computed step             ....  0.021843467
The final length of the internal step   ....  0.021843467
Converting the step to Cartesian space:
 Initial RMS(Int)=    0.0022773388
Transforming coordinates:
 Iter   0:  RMS(Cart)=    0.0033856794 RMS(Int)=    0.6550209538
done
Storing new coordinates                 .... done
The predicted energy change is          ....    -0.000001513
Previously predicted energy change      ....    -0.000003757
Actually observed energy change         ....    -0.000004701
Ratio of predicted to observed change   ....     1.251065002
New trust radius                        ....     0.700000000

                                .--------------------.
          ----------------------|Geometry convergence|-------------------------
          Item                value                   Tolerance       Converged
          ---------------------------------------------------------------------
          Energy change      -0.0000047009            0.0000050000      YES
          RMS gradient        0.0000545722            0.0001000000      YES
          MAX gradient        0.0001798428            0.0003000000      YES
          RMS step            0.0022773388            0.0020000000      NO
          MAX step            0.0088593466            0.0040000000      NO
          -------------------------------------------------------------------------
          ........................................................
          Max(Bonds)      0.0034      Max(Angles)    0.04
          Max(Dihed)        0.51      Max(Improp)    0.00
          ---------------------------------------------------------------------

The optimization has not yet converged - more geometry cycles are needed


    ---------------------------------------------------------------------------
                         Redundant Internal Coordinates
                            (Angstroem and degrees)

        Definition                    Value    dE/dq     Step     New-Value
    ----------------------------------------------------------------------------
     1. B(C   1,N   0)                1.4481 -0.000126 -0.0002    1.4479   
     2. B(C   2,C   1)                1.5576 -0.000180  0.0002    1.5578   
     3. B(C   3,C   2)                1.4898  0.000022  0.0000    1.4898   
     4. B(C   4,C   3)                1.3697  0.000026  0.0000    1.3698   
     5. B(N   5,C   4)                1.3666  0.000082 -0.0002    1.3664   
     6. B(C   6,N   5)                1.3493 -0.000049  0.0000    1.3493   
     7. B(N   7,C   3)                1.3677  0.000021 -0.0000    1.3677   
     8. B(N   7,C   6)                1.3058  0.000104 -0.0000    1.3058   
     9. B(C   8,C   1)                1.5159  0.000028 -0.0001    1.5158   
    10. B(O   9,C   8)                1.2122  0.000082 -0.0001    1.2121   
    11. B(O  10,C   8)                1.3168  0.000075  0.0001    1.3169   
    12. B(H  11,N   0)                1.0135  0.000018  0.0000    1.0136   
    13. B(H  12,N   0)                1.0157  0.000051 -0.0000    1.0156   
    14. B(H  12,O   9)                2.3376 -0.000010  0.0034    2.3411   
    15. B(H  13,C   1)                1.0954  0.000047 -0.0000    1.0954   
    16. B(H  14,C   2)                1.0895  0.000040 -0.0000    1.0895   
    17. B(H  15,C   2)                1.0912 -0.000001 -0.0000    1.0912   
    18. B(H  16,C   4)                1.0699  0.000039 -0.0000    1.0698   
    19. B(H  17,N   5)                1.0071  0.000042 -0.0000    1.0071   
    20. B(H  18,C   6)                1.0709  0.000021 -0.0000    1.0708   
    21. B(H  19,O  10)                0.9777  0.000075 -0.0001    0.9776   
    22. A(C   1,N   0,H  12)          109.08 -0.000025    0.02    109.09   
    23. A(H  11,N   0,H  12)          108.38  0.000045    0.01    108.39   
    24. A(C   1,N   0,H  11)          110.05 -0.000027   -0.02    110.02   
    25. A(N   0,C   1,C   8)          109.63  0.000095   -0.04    109.60   
    26. A(C   8,C   1,H  13)          108.62 -0.000037    0.01    108.63   
    27. A(N   0,C   1,H  13)          108.92 -0.000007    0.00    108.93   
    28. A(C   2,C   1,H  13)          108.23  0.000022    0.01    108.24   
    29. A(C   2,C   1,C   8)          106.35 -0.000053   -0.02    106.34   
    30. A(N   0,C   1,C   2)          114.90 -0.000022    0.03    114.93   
    31. A(C   1,C   2,H  15)          108.16  0.000001    0.02    108.18   
    32. A(C   3,C   2,H  14)          108.86  0.000046   -0.00    108.85   
    33. A(C   1,C   2,H  14)          108.71 -0.000036    0.00    108.71   
    34. A(H  14,C   2,H  15)          109.41 -0.000039    0.02    109.43   
    35. A(C   1,C   2,C   3)          111.08 -0.000090   -0.01    111.07   
    36. A(C   3,C   2,H  15)          110.59  0.000115   -0.02    110.57   
    37. A(C   2,C   3,C   4)          129.27 -0.000112    0.02    129.30   
    38. A(C   2,C   3,N   7)          121.32  0.000147   -0.02    121.30   
    39. A(C   4,C   3,N   7)          109.31 -0.000035   -0.00    109.31   
    40. A(N   5,C   4,H  16)          122.25  0.000029    0.01    122.26   
    41. A(C   3,C   4,H  16)          131.59 -0.000063   -0.01    131.58   
    42. A(C   3,C   4,N   5)          106.15  0.000034   -0.00    106.15   
    43. A(C   4,N   5,H  17)          126.21  0.000001   -0.01    126.20   
    44. A(C   4,N   5,C   6)          106.61 -0.000018    0.01    106.61   
    45. A(C   6,N   5,H  17)          127.18  0.000017   -0.00    127.18   
    46. A(N   5,C   6,H  18)          123.60 -0.000049    0.00    123.60   
    47. A(N   7,C   6,H  18)          124.32  0.000042    0.00    124.33   
    48. A(N   5,C   6,N   7)          112.08  0.000008   -0.01    112.07   
    49. A(C   3,N   7,C   6)          105.85  0.000011    0.00    105.85   
    50. A(O   9,C   8,O  10)          123.53  0.000163   -0.02    123.51   
    51. A(C   1,C   8,O  10)          112.51 -0.000095    0.02    112.53   
    52. A(C   1,C   8,O   9)          123.94 -0.000067    0.01    123.95   
    53. A(C   8,O  10,H  19)          113.05  0.000102   -0.02    113.03   
    54. D(C   8,C   1,N   0,H  11)   -157.98  0.000048   -0.48   -158.46   
    55. D(C   2,C   1,N   0,H  11)    -38.30  0.000034   -0.51    -38.81   
    56. D(H  13,C   1,N   0,H  11)     83.29  0.000042   -0.47     82.82   
    57. D(C   8,C   1,N   0,H  12)    -39.20  0.000072   -0.48    -39.68   
    58. D(C   2,C   1,N   0,H  12)     80.48  0.000058   -0.50     79.97   
    59. D(C   3,C   2,C   1,N   0)    -66.83 -0.000037    0.17    -66.67   
    60. D(H  14,C   2,C   1,H  13)     51.45 -0.000008    0.14     51.59   
    61. D(H  14,C   2,C   1,C   8)    -65.10  0.000052    0.14    -64.97   
    62. D(H  14,C   2,C   1,N   0)    173.41 -0.000015    0.17    173.59   
    63. D(C   3,C   2,C   1,C   8)     54.65  0.000031    0.13     54.78   
    64. D(C   3,C   2,C   1,H  13)    171.21 -0.000029    0.13    171.34   
    65. D(C   4,C   3,C   2,H  15)    -42.51 -0.000011    0.03    -42.48   
    66. D(C   4,C   3,C   2,H  14)   -162.75 -0.000063    0.02   -162.72   
    67. D(N   7,C   3,C   2,C   1)    -98.63  0.000019    0.05    -98.59   
    68. D(C   4,C   3,C   2,C   1)     77.59  0.000008    0.03     77.62   
    69. D(N   7,C   3,C   2,H  14)     21.03 -0.000051    0.04     21.07   
    70. D(H  16,C   4,C   3,N   7)   -179.43 -0.000018    0.09   -179.34   
    71. D(H  16,C   4,C   3,C   2)      3.99 -0.000014    0.11      4.09   
    72. D(N   5,C   4,C   3,N   7)     -0.15  0.000007   -0.02     -0.17   
    73. D(N   5,C   4,C   3,C   2)   -176.73  0.000011   -0.01   -176.74   
    74. D(H  17,N   5,C   4,H  16)     -1.07  0.000021   -0.11     -1.18   
    75. D(H  17,N   5,C   4,C   3)    179.57 -0.000000   -0.00    179.57   
    76. D(C   6,N   5,C   4,H  16)    179.59  0.000016   -0.09    179.50   
    77. D(C   6,N   5,C   4,C   3)      0.22 -0.000005    0.02      0.24   
    78. D(H  18,C   6,N   5,H  17)      0.68  0.000008   -0.01      0.67   
    79. D(H  18,C   6,N   5,C   4)   -179.98  0.000013   -0.03   -180.01   
    80. D(N   7,C   6,N   5,H  17)   -179.57 -0.000003    0.01   -179.56   
    81. D(N   7,C   6,N   5,C   4)     -0.23  0.000002   -0.01     -0.24   
    82. D(C   3,N   7,C   6,N   5)      0.14  0.000002   -0.01      0.13   
    83. D(C   6,N   7,C   3,C   4)      0.01 -0.000005    0.02      0.03   
    84. D(C   6,N   7,C   3,C   2)    176.91 -0.000019    0.01    176.92   
    85. D(C   3,N   7,C   6,H  18)    179.89 -0.000009    0.01    179.90   
    86. D(O  10,C   8,C   1,C   2)     81.51  0.000015    0.07     81.58   
    87. D(O  10,C   8,C   1,N   0)   -153.71  0.000011    0.08   -153.63   
    88. D(O   9,C   8,C   1,H  13)    146.83 -0.000009    0.08    146.91   
    89. D(O   9,C   8,C   1,C   2)    -96.88 -0.000030    0.09    -96.79   
    90. D(O   9,C   8,C   1,N   0)     27.91 -0.000034    0.10     28.00   
    91. D(H  19,O  10,C   8,O   9)      1.73  0.000050   -0.07      1.66   
    92. D(H  19,O  10,C   8,C   1)   -176.67  0.000009   -0.05   -176.72   
    ----------------------------------------------------------------------------

Geometry step timings:
Preparation and reading OPT file:      0.000 s ( 0.792 %)
Internal coordinates            :      0.000 s ( 1.056 %)
B/P matrices and projection     :      0.000 s (37.676 %)
Hessian update/contruction      :      0.000 s (10.211 %)
Making the step                 :      0.000 s (32.394 %)
Converting the step to Cartesian:      0.000 s ( 2.905 %)
Storing new data                :      0.000 s ( 0.880 %)
Checking convergence            :      0.000 s ( 1.144 %)
Final printing                  :      0.000 s (12.940 %)
Total time                      :      0.001 s

Time for energy+gradient        :      0.024 s
Time for complete geometry iter :      0.025 s

         *************************************************************
         *                GEOMETRY OPTIMIZATION CYCLE  14            *
         *************************************************************
---------------------------------
CARTESIAN COORDINATES (ANGSTROEM)
---------------------------------
  N    -1.326220   -0.480655    1.827883
  C    -1.572823   -0.595950    0.405820
  C    -0.433916   -1.283820   -0.404407
  C     0.800353   -0.449475   -0.407549
  C     1.737796   -0.283445    0.577291
  N     2.627911    0.638526    0.103238
  C     2.198930    0.992352   -1.126198
  N     1.108264    0.359936   -1.466153
  C    -1.748093    0.785253   -0.193467
  O    -1.238130    1.788361    0.257061
  O    -2.490031    0.772678   -1.281392
  H    -0.868262   -1.317773    2.169665
  H    -0.712858    0.311241    1.995647
  H    -2.495999   -1.164627    0.250293
  H    -0.769319   -1.420243   -1.431944
  H    -0.236797   -2.258210    0.045486
  H     1.846107   -0.739962    1.538762
  H     3.437702    0.988133    0.589222
  H     2.701357    1.706117   -1.746476
  H    -2.565971    1.651564   -1.702782

----------------------------
CARTESIAN COORDINATES (A.U.)
----------------------------
  NO LB    ZA    FRAG    MASS        X           Y           Z
   0 N   7.0000    0    14.007   -2.506193   -0.908306    3.454197
   1 C   6.0000    0    12.011   -2.972204   -1.126183    0.766889
   2 C   6.0000    0    12.011   -0.819983   -2.426069   -0.764218
   3 C   6.0000    0    12.011    1.512448   -0.849385   -0.770156
   4 C   6.0000    0    12.011    3.283959   -0.535634    1.090921
   5 N   7.0000    0    14.007    4.966032    1.206638    0.195092
   6 C   6.0000    0    12.011    4.155376    1.875274   -2.128207
   7 N   7.0000    0    14.007    2.094315    0.680181   -2.770629
   8 C   6.0000    0    12.011   -3.303418    1.483914   -0.365600
   9 O   8.0000    0    15.999   -2.339726    3.379512    0.485776
  10 O   8.0000    0    15.999   -4.705476    1.460149   -2.421479
  11 H   1.0000    0     1.008   -1.640777   -2.490231    4.100072
  12 H   1.0000    0     1.008   -1.347107    0.588161    3.771226
  13 H   1.0000    0     1.008   -4.716755   -2.200826    0.472984
  14 H   1.0000    0     1.008   -1.453803   -2.683870   -2.705981
  15 H   1.0000    0     1.008   -0.447482   -4.267398    0.085957
  16 H   1.0000    0     1.008    3.488637   -1.398325    2.907839
  17 H   1.0000    0     1.008    6.496315    1.867300    1.113469
  18 H   1.0000    0     1.008    5.104825    3.224094   -3.300360
  19 H   1.0000    0     1.008   -4.848983    3.121004   -3.217791

      -----------------------------------------------------------      
     |                   =====================                   |     
     |                           x T B                           |     
     |                   =====================                   |     
     |                         S. Grimme                         |     
     |          Mulliken Center for Theoretical Chemistry        |     
     |                    University of Bonn                     |     
      -----------------------------------------------------------      

   * xtb version 6.7.1 (edcfbbe) compiled by 'albert@albert-system' on 2024-07-22

   xtb is free software: you can redistribute it and/or modify it under
   the terms of the GNU Lesser General Public License as published by
   the Free Software Foundation, either version 3 of the License, or
   (at your option) any later version.
   
   xtb is distributed in the hope that it will be useful,
   but WITHOUT ANY WARRANTY; without even the implied warranty of
   MERCHANTABILITY or FITNESS FOR A PARTICULAR PURPOSE.  See the
   GNU Lesser General Public License for more details.
   
   Cite this work as:
   * C. Bannwarth, E. Caldeweyher, S. Ehlert, A. Hansen, P. Pracht,
     J. Seibert, S. Spicher, S. Grimme, WIREs Comput. Mol. Sci., 2020, 11,
     e01493. DOI: 10.1002/wcms.1493
   
   for GFN2-xTB:
   * C. Bannwarth, S. Ehlert and S. Grimme., J. Chem. Theory Comput., 2019,
     15, 1652-1671. DOI: 10.1021/acs.jctc.8b01176
   for GFN1-xTB:
   * S. Grimme, C. Bannwarth, P. Shushkov, J. Chem. Theory Comput., 2017,
     13, 1989-2009. DOI: 10.1021/acs.jctc.7b00118
   for GFN0-xTB:
   * P. Pracht, E. Caldeweyher, S. Ehlert, S. Grimme, ChemRxiv, 2019, preprint.
     DOI: 10.26434/chemrxiv.8326202.v1
   for GFN-FF:
   * S. Spicher and S. Grimme, Angew. Chem. Int. Ed., 2020, 59, 15665-15673.
     DOI: 10.1002/anie.202004239
   
   for ALPB and GBSA implicit solvation:
   * S. Ehlert, M. Stahn, S. Spicher, S. Grimme, J. Chem. Theory Comput.,
     2021, 17, 4250-4261. DOI: 10.1021/acs.jctc.1c00471
   
   for ddCOSMO and CPCM-X implicit solvation:
   * M. Stahn, S. Ehlert, S. Grimme, J. Phys. Chem. A,
     2023, XX, XXXX-XXXX. DOI: 10.1021/acs.jpca.3c04382
   
   for DFT-D4:
   * E. Caldeweyher, C. Bannwarth and S. Grimme, J. Chem. Phys., 2017,
     147, 034112. DOI: 10.1063/1.4993215
   * E. Caldeweyher, S. Ehlert, A. Hansen, H. Neugebauer, S. Spicher,
     C. Bannwarth and S. Grimme, J. Chem. Phys., 2019, 150, 154122.
     DOI: 10.1063/1.5090222
   * E. Caldeweyher, J.-M. Mewes, S. Ehlert and S. Grimme, Phys. Chem. Chem. Phys.
     2020, 22, 8499-8512. DOI: 10.1039/D0CP00502A
   
   for sTDA-xTB:
   * S. Grimme and C. Bannwarth, J. Chem. Phys., 2016, 145, 054103.
     DOI: 10.1063/1.4959605
   
   in the mass-spec context:
   * V. Asgeirsson, C. Bauer and S. Grimme, Chem. Sci., 2017, 8, 4879.
     DOI: 10.1039/c7sc00601b
   * J. Koopman and S. Grimme, ACS Omega 2019, 4, 12, 15120-15133.
     DOI: 10.1021/acsomega.9b02011
   
   for metadynamics refer to:
   * S. Grimme, J. Chem. Theory Comput., 2019, 155, 2847-2862
     DOI: 10.1021/acs.jctc.9b00143
   
   for SPH calculations refer to:
   * S. Spicher and S. Grimme, J. Chem. Theory Comput., 2021, 17, 1701-1714
     DOI: 10.1021/acs.jctc.0c01306
   
   for ONIOM refer to:
   * C. Plett, A. Katbashev, S. Ehlert, S. Grimme, M. Bursch,
     Phys. Chem. Chem. Phys., 2023, 25, 17860-17868. DOI: 10.1039/D3CP02178E
   
   for DIPRO refer to:
   * J. Kohn, N. Gildemeister, S. Grimme, D. Fazzi, A. Hansen,
     J. Chem. Phys., 2023, just accepted.
   
   for PTB refer to:
   * S. Grimme, M. Mueller, A. Hansen, J. Chem. Phys., 2023, 158, 124111.
     DOI: 10.1063/5.0137838
   
   with help from (in alphabetical order)
   P. Atkinson, C. Bannwarth, F. Bohle, G. Brandenburg, E. Caldeweyher
   M. Checinski, S. Dohm, S. Ehlert, S. Ehrlich, I. Gerasimov, C. Hölzer
   A. Katbashev, J. Kohn, J. Koopman, C. Lavigne, S. Lehtola, F. März, M. Müller,
   F. Musil, H. Neugebauer, J. Pisarek, C. Plett, P. Pracht, F. Pultar,
   J. Seibert, P. Shushkov, S. Spicher, M. Stahn, M. Steiner, T. Strunk,
   J. Stückrath, T. Rose, and J. Unsleber
   
 * started run on 2026/04/09 at 15:47:06.200     
   ID    Z sym.   atoms
    1    7 N      1, 6, 8
    2    6 C      2-5, 7, 9
    3    8 O      10, 11
    4    1 H      12-20

           -------------------------------------------------
          |                Calculation Setup                |
           -------------------------------------------------

          program call               : /home/analima/Programs/orca-6.1.0-f.0_linux_x86-64/bin/otool_xtb geo_opt_XTB.xyz --grad -c 0 -u 0 -P 1 --namespace geo_opt --input geo_opt_XTB.input.tmp --alpb WATER --acc 0.200000
          calculation namespace      : geo_opt
          coordinate file            : geo_opt_XTB.xyz
          omp threads                :                     1


           -------------------------------------------------
          |                 G F N 2 - x T B                 |
           -------------------------------------------------

        Reference                      10.1021/acs.jctc.8b01176
      * Hamiltonian:
        H0-scaling (s, p, d)           1.850000    2.230000    2.230000
        zeta-weighting                 0.500000
      * Dispersion:
        s8                             2.700000
        a1                             0.520000
        a2                             5.000000
        s9                             5.000000
      * Repulsion:
        kExp                           1.500000    1.000000
        rExp                           1.000000
      * Coulomb:
        alpha                          2.000000
        third order                    shell-resolved
        anisotropic                    true
        a3                             3.000000
        a5                             4.000000
        cn-shift                       1.200000
        cn-exp                         4.000000
        max-rad                        5.000000

      * Solvation model:               ALPB
        Solvent                        WATER
        Parameter file                 internal GFN2-xTB/ALPB
        Dielectric constant                8.0200E+01
        Reference state                gsolv [1 M gas/solution]
        Free energy shift                  1.0808E-03 Eh       6.7819E-01 kcal/mol
        Temperature                        2.9815E+02 K
        Density                            1.0000E+00 kg/L
        Solvent mass                       1.8000E+01 g/mol
        Interaction kernel             P16
        Born radius scaling (c1)           1.4744E+00
        Born radii integrator          GBOBC
        Born offset                        0.0000E+00 a0       0.0000E+00 AA
        H-bond correction              true
        Ion screening                  false
        Surface tension                    1.0000E-05 Eh       1.5569E+01 dyn/cm
        Grid points                               230 per atom
q/qsh data taken from xtbrestart
CAMM data taken from xtbrestart

          ...................................................
          :                      SETUP                      :
          :.................................................:
          :  # basis functions                  53          :
          :  # atomic orbitals                  53          :
          :  # shells                           31          :
          :  # electrons                        60          :
          :  max. iterations                   250          :
          :  Hamiltonian                  GFN2-xTB          :
          :  restarted?                       true          :
          :  GBSA solvation                   true          :
          :  PC potential                    false          :
          :  electronic temp.          300.0000000     K    :
          :  accuracy                    0.2000000          :
          :  -> integral cutoff          0.3198970E+02      :
          :  -> integral neglect         0.2000000E-08      :
          :  -> SCF convergence          0.2000000E-06 Eh   :
          :  -> wf. convergence          0.2000000E-04 e    :
          :  Broyden damping             0.4000000          :
          :  net charge                          0          :
          :  unpaired electrons                  0          :
          ...................................................

 iter      E             dE          RMSdq      gap      omega  full diag
   1    -34.7671572 -0.347672E+02  0.976E-03    3.60       0.0  T
   2    -34.7671572 -0.272757E-07  0.573E-03    3.60       3.9  T
   3    -34.7671572 -0.205011E-08  0.760E-04    3.61      29.4  T
   4    -34.7671572 -0.479184E-08  0.380E-04    3.61      58.8  T
   5    -34.7671572 -0.960490E-09  0.161E-04    3.61     138.5  T
   6    -34.7671572 -0.637002E-10  0.579E-05    3.61     386.5  T

   *** convergence criteria satisfied after 6 iterations ***

         #    Occupation            Energy/Eh            Energy/eV
      -------------------------------------------------------------
         1        2.0000           -0.7450641             -20.2742
       ...           ...                  ...                  ...
        24        2.0000           -0.4597233             -12.5097
        25        2.0000           -0.4515613             -12.2876
        26        2.0000           -0.4287789             -11.6677
        27        2.0000           -0.4217877             -11.4774
        28        2.0000           -0.3868261             -10.5261
        29        2.0000           -0.3824344             -10.4066
        30        2.0000           -0.3707369             -10.0883 (HOMO)
        31                         -0.2382355              -6.4827 (LUMO)
        32                         -0.2012113              -5.4752
        33                         -0.1687566              -4.5921
        34                          0.0317913               0.8651
        35                          0.0403193               1.0971
       ...                                ...                  ...
        53                          0.6303030              17.1514
      -------------------------------------------------------------
                  HL-Gap            0.1325014 Eh            3.6055 eV
             Fermi-level           -0.3044862 Eh           -8.2855 eV

 SCC (total)                   0 d,  0 h,  0 min,  0.016 sec
 SCC setup                      ...        0 min,  0.000 sec (  2.399%)
 Dispersion                     ...        0 min,  0.000 sec (  0.677%)
 classical contributions        ...        0 min,  0.000 sec (  0.129%)
 integral evaluation            ...        0 min,  0.002 sec ( 12.347%)
 iterations                     ...        0 min,  0.009 sec ( 56.141%)
 molecular gradient             ...        0 min,  0.004 sec ( 27.771%)
 printout                       ...        0 min,  0.000 sec (  0.426%)

         :::::::::::::::::::::::::::::::::::::::::::::::::::::
         ::                     SUMMARY                     ::
         :::::::::::::::::::::::::::::::::::::::::::::::::::::
         :: total energy             -34.365498695885 Eh    ::
         :: total w/o Gsasa/hb       -34.351591138986 Eh    ::
         :: gradient norm              0.000518628964 Eh/a0 ::
         :: HOMO-LUMO gap              3.605547657443 eV    ::
         ::.................................................::
         :: SCC energy               -34.767032679882 Eh    ::
         :: -> isotropic ES            0.096475334238 Eh    ::
         :: -> anisotropic ES          0.002757101258 Eh    ::
         :: -> anisotropic XC          0.015433157174 Eh    ::
         :: -> dispersion             -0.017396898717 Eh    ::
         :: -> Gsolv                  -0.029388736273 Eh    ::
         ::    -> Gelec               -0.015481179374 Eh    ::
         ::    -> Gsasa               -0.001803458522 Eh    ::
         ::    -> Ghb                 -0.013184858075 Eh    ::
         ::    -> Gshift               0.001080759698 Eh    ::
         :: repulsion energy           0.401533983997 Eh    ::
         :: add. restraining           0.000000000000 Eh    ::
         :: total charge              -0.000000000000 e     ::
         :::::::::::::::::::::::::::::::::::::::::::::::::::::


Property printout bound to 'properties.out'

           -------------------------------------------------
          | TOTAL ENERGY              -34.365498695885 Eh   |
          | GRADIENT NORM               0.000518628964 Eh/α |
          | HOMO-LUMO GAP               3.605547657443 eV   |
           -------------------------------------------------

------------------------------------------------------------------------
 * finished run on 2026/04/09 at 15:47:06.223     
------------------------------------------------------------------------
 total:
 * wall-time:     0 d,  0 h,  0 min,  0.022 sec
 *  cpu-time:     0 d,  0 h,  0 min,  0.017 sec
 * ratio c/w:     0.776 speedup
 SCF:
 * wall-time:     0 d,  0 h,  0 min,  0.016 sec
 *  cpu-time:     0 d,  0 h,  0 min,  0.011 sec
 * ratio c/w:     0.688 speedup


-------------------------   --------------------
FINAL SINGLE POINT ENERGY       -34.365498695890
-------------------------   --------------------


-------------
DIPOLE MOMENT
-------------
                                X             Y             Z
Total Dipole Moment    :      1.30000      -0.41500       0.26800
                        -----------------------------------------
Magnitude (a.u.)       :      1.39070
Magnitude (Debye)      :      3.53488


------------------
CARTESIAN GRADIENT
------------------

   1   N   :   -0.000062307   -0.000044206   -0.000137765
   2   C   :    0.000225896    0.000015209    0.000208507
   3   C   :   -0.000042763   -0.000118909    0.000141491
   4   C   :   -0.000080250    0.000011909   -0.000073447
   5   C   :    0.000102142    0.000108516    0.000017787
   6   N   :   -0.000072838   -0.000003952   -0.000057873
   7   C   :    0.000018398    0.000036104   -0.000006507
   8   N   :    0.000004070   -0.000017262    0.000038705
   9   C   :    0.000121374   -0.000018832   -0.000083075
  10   O   :   -0.000016957   -0.000054865    0.000073538
  11   O   :   -0.000039276    0.000001543    0.000000935
  12   H   :    0.000039725   -0.000019154   -0.000046191
  13   H   :   -0.000028381    0.000070508   -0.000000536
  14   H   :   -0.000083229    0.000023827   -0.000017788
  15   H   :   -0.000053264    0.000055381   -0.000023913
  16   H   :   -0.000017976    0.000005379   -0.000048119
  17   H   :   -0.000039563   -0.000035050    0.000008639
  18   H   :    0.000016084   -0.000008104    0.000020443
  19   H   :    0.000032044    0.000001217    0.000026926
  20   H   :   -0.000022931   -0.000009258   -0.000041756

Difference to translation invariance:
           :    0.0000000000   -0.0000000000   -0.0000000000

Difference to rotation invariance:
           :    0.0001069347    0.0000307208    0.0000937948

Norm of the Cartesian gradient     ...    0.0005186290
RMS gradient                       ...    0.0000669547
MAX gradient                       ...    0.0002258964
------------------------------------------------------------------------------
                         ORCA GEOMETRY RELAXATION STEP
------------------------------------------------------------------------------

Reading the OPT-File                    .... done
Getting information on internals        .... done
Copying old internal coords+grads       .... done
Making the new internal coordinates     .... (2022 redundants) done
Validating the new internal coordinates .... (2022 redundants) done
Calculating the B-matrix                .... done
Calculating the G,G- and P matrices     .... done
Transforming gradient to internals      .... done
Projecting the internal gradient        .... done
Number of atoms                         ....  20
Number of internal coordinates          ....  92
Current Energy                          ....   -34.365498696 Eh
Current gradient norm                   ....     0.000518629 Eh/bohr
Maximum allowed component of the step   ....  0.300
Current trust radius                    ....  0.700
Updating the Hessian (BFGS)             .... done
Forming the augmented Hessian           .... done
Diagonalizing the augmented Hessian     .... done
Last element of RFO vector              ....  0.999652616
Lowest eigenvalues of augmented Hessian:
 -0.000002714  0.002007281  0.003260471  0.007887351  0.014777248
Length of the computed step             ....  0.026365334
The final length of the internal step   ....  0.026365334
Converting the step to Cartesian space:
 Initial RMS(Int)=    0.0027487761
Transforming coordinates:
 Iter   0:  RMS(Cart)=    0.0034256921 RMS(Int)=    0.0027491500
done
Storing new coordinates                 .... done
The predicted energy change is          ....    -0.000001358
Previously predicted energy change      ....    -0.000001513
Actually observed energy change         ....    -0.000002235
Ratio of predicted to observed change   ....     1.476761602
New trust radius                        ....     0.700000000

                                .--------------------.
          ----------------------|Geometry convergence|-------------------------
          Item                value                   Tolerance       Converged
          ---------------------------------------------------------------------
          Energy change      -0.0000022348            0.0000050000      YES
          RMS gradient        0.0000453235            0.0001000000      YES
          MAX gradient        0.0001700228            0.0003000000      YES
          RMS step            0.0027487761            0.0020000000      NO
          MAX step            0.0107307479            0.0040000000      NO
          -------------------------------------------------------------------------
          ........................................................
          Max(Bonds)      0.0048      Max(Angles)    0.04
          Max(Dihed)        0.61      Max(Improp)    0.00
          ---------------------------------------------------------------------

The optimization has not yet converged - more geometry cycles are needed


    ---------------------------------------------------------------------------
                         Redundant Internal Coordinates
                            (Angstroem and degrees)

        Definition                    Value    dE/dq     Step     New-Value
    ----------------------------------------------------------------------------
     1. B(C   1,N   0)                1.4479 -0.000170  0.0000    1.4479   
     2. B(C   2,C   1)                1.5578 -0.000134  0.0003    1.5581   
     3. B(C   3,C   2)                1.4898  0.000032 -0.0000    1.4898   
     4. B(C   4,C   3)                1.3698  0.000035 -0.0000    1.3698   
     5. B(N   5,C   4)                1.3664 -0.000044 -0.0001    1.3663   
     6. B(C   6,N   5)                1.3493 -0.000037  0.0001    1.3494   
     7. B(N   7,C   3)                1.3677  0.000005 -0.0000    1.3677   
     8. B(N   7,C   6)                1.3058  0.000050 -0.0001    1.3057   
     9. B(C   8,C   1)                1.5158 -0.000034 -0.0001    1.5157   
    10. B(O   9,C   8)                1.2121 -0.000021 -0.0000    1.2121   
    11. B(O  10,C   8)                1.3169  0.000071  0.0001    1.3169   
    12. B(H  11,N   0)                1.0136  0.000016  0.0000    1.0136   
    13. B(H  12,N   0)                1.0156  0.000034 -0.0001    1.0155   
    14. B(H  12,O   9)                2.3410 -0.000025  0.0048    2.3458   
    15. B(H  13,C   1)                1.0954  0.000060 -0.0002    1.0952   
    16. B(H  14,C   2)                1.0895  0.000031 -0.0001    1.0894   
    17. B(H  15,C   2)                1.0912 -0.000027  0.0000    1.0912   
    18. B(H  16,C   4)                1.0698  0.000019 -0.0000    1.0698   
    19. B(H  17,N   5)                1.0071  0.000020 -0.0000    1.0070   
    20. B(H  18,C   6)                1.0708 -0.000001 -0.0000    1.0708   
    21. B(H  19,O  10)                0.9776  0.000012 -0.0001    0.9776   
    22. A(C   1,N   0,H  12)          109.10  0.000031    0.01    109.11   
    23. A(H  11,N   0,H  12)          108.39  0.000033   -0.01    108.38   
    24. A(C   1,N   0,H  11)          110.02 -0.000074   -0.01    110.01   
    25. A(N   0,C   1,C   8)          109.60  0.000068   -0.04    109.56   
    26. A(C   8,C   1,H  13)          108.63 -0.000032    0.03    108.66   
    27. A(N   0,C   1,H  13)          108.93 -0.000013   -0.00    108.92   
    28. A(C   2,C   1,H  13)          108.24  0.000028    0.00    108.25   
    29. A(C   2,C   1,C   8)          106.34 -0.000095    0.01    106.34   
    30. A(N   0,C   1,C   2)          114.93  0.000038    0.01    114.94   
    31. A(C   1,C   2,H  15)          108.18  0.000052   -0.01    108.17   
    32. A(C   3,C   2,H  14)          108.86  0.000055   -0.01    108.85   
    33. A(C   1,C   2,H  14)          108.71 -0.000022    0.02    108.73   
    34. A(H  14,C   2,H  15)          109.43 -0.000021    0.01    109.44   
    35. A(C   1,C   2,C   3)          111.07 -0.000132    0.02    111.09   
    36. A(C   3,C   2,H  15)          110.57  0.000066   -0.04    110.53   
    37. A(C   2,C   3,C   4)          129.30 -0.000054    0.03    129.33   
    38. A(C   2,C   3,N   7)          121.30  0.000092   -0.03    121.27   
    39. A(C   4,C   3,N   7)          109.31 -0.000039    0.00    109.31   
    40. A(N   5,C   4,H  16)          122.26  0.000040   -0.00    122.26   
    41. A(C   3,C   4,H  16)          131.58 -0.000062    0.01    131.59   
    42. A(C   3,C   4,N   5)          106.15  0.000022   -0.00    106.15   
    43. A(C   4,N   5,H  17)          126.20 -0.000027   -0.00    126.20   
    44. A(C   4,N   5,C   6)          106.61  0.000021    0.00    106.62   
    45. A(C   6,N   5,H  17)          127.18  0.000006   -0.00    127.18   
    46. A(N   5,C   6,H  18)          123.60 -0.000033    0.01    123.61   
    47. A(N   7,C   6,H  18)          124.33  0.000050   -0.01    124.32   
    48. A(N   5,C   6,N   7)          112.07 -0.000018   -0.00    112.07   
    49. A(C   3,N   7,C   6)          105.85  0.000013    0.00    105.85   
    50. A(O   9,C   8,O  10)          123.50  0.000078   -0.03    123.47   
    51. A(C   1,C   8,O  10)          112.52 -0.000039    0.02    112.54   
    52. A(C   1,C   8,O   9)          123.95 -0.000037    0.01    123.97   
    53. A(C   8,O  10,H  19)          113.03  0.000089   -0.03    113.00   
    54. D(C   8,C   1,N   0,H  11)   -158.46  0.000044   -0.59   -159.05   
    55. D(C   2,C   1,N   0,H  11)    -38.81 -0.000003   -0.61    -39.42   
    56. D(H  13,C   1,N   0,H  11)     82.82  0.000051   -0.60     82.21   
    57. D(C   8,C   1,N   0,H  12)    -39.68  0.000059   -0.60    -40.28   
    58. D(C   2,C   1,N   0,H  12)     79.97  0.000012   -0.61     79.36   
    59. D(C   3,C   2,C   1,N   0)    -66.67 -0.000005    0.08    -66.59   
    60. D(H  14,C   2,C   1,H  13)     51.60 -0.000009    0.05     51.65   
    61. D(H  14,C   2,C   1,C   8)    -64.97  0.000063    0.02    -64.95   
    62. D(H  14,C   2,C   1,N   0)    173.59  0.000022    0.06    173.65   
    63. D(C   3,C   2,C   1,C   8)     54.78  0.000037    0.04     54.82   
    64. D(C   3,C   2,C   1,H  13)    171.34 -0.000036    0.08    171.42   
    65. D(C   4,C   3,C   2,H  15)    -42.48 -0.000008    0.06    -42.43   
    66. D(C   4,C   3,C   2,H  14)   -162.72 -0.000058    0.08   -162.65   
    67. D(N   7,C   3,C   2,C   1)    -98.59  0.000028    0.02    -98.57   
    68. D(C   4,C   3,C   2,C   1)     77.62  0.000015    0.04     77.66   
    69. D(N   7,C   3,C   2,H  14)     21.07 -0.000045    0.06     21.13   
    70. D(H  16,C   4,C   3,N   7)   -179.33 -0.000003    0.09   -179.24   
    71. D(H  16,C   4,C   3,C   2)      4.10  0.000005    0.08      4.18   
    72. D(N   5,C   4,C   3,N   7)     -0.17 -0.000004   -0.00     -0.17   
    73. D(N   5,C   4,C   3,C   2)   -176.74  0.000003   -0.01   -176.75   
    74. D(H  17,N   5,C   4,H  16)     -1.17  0.000004   -0.10     -1.27   
    75. D(H  17,N   5,C   4,C   3)    179.57  0.000007   -0.02    179.54   
    76. D(C   6,N   5,C   4,H  16)    179.50 -0.000000   -0.07    179.43   
    77. D(C   6,N   5,C   4,C   3)      0.24  0.000002    0.00      0.24   
    78. D(H  18,C   6,N   5,H  17)      0.67  0.000002   -0.00      0.67   
    79. D(H  18,C   6,N   5,C   4)    179.99  0.000006   -0.03    179.96   
    80. D(N   7,C   6,N   5,H  17)   -179.56 -0.000003    0.02   -179.53   
    81. D(N   7,C   6,N   5,C   4)     -0.24  0.000001   -0.00     -0.24   
    82. D(C   3,N   7,C   6,N   5)      0.13 -0.000004    0.00      0.13   
    83. D(C   6,N   7,C   3,C   4)      0.03  0.000005   -0.00      0.03   
    84. D(C   6,N   7,C   3,C   2)    176.92 -0.000007    0.02    176.94   
    85. D(C   3,N   7,C   6,H  18)    179.90 -0.000009    0.03    179.93   
    86. D(O  10,C   8,C   1,C   2)     81.58  0.000002    0.12     81.70   
    87. D(O  10,C   8,C   1,N   0)   -153.62  0.000029    0.11   -153.52   
    88. D(O   9,C   8,C   1,H  13)    146.91 -0.000005    0.15    147.06   
    89. D(O   9,C   8,C   1,C   2)    -96.79 -0.000037    0.17    -96.62   
    90. D(O   9,C   8,C   1,N   0)     28.00 -0.000010    0.16     28.16   
    91. D(H  19,O  10,C   8,O   9)      1.66  0.000026   -0.08      1.58   
    92. D(H  19,O  10,C   8,C   1)   -176.72 -0.000011   -0.03   -176.75   
    ----------------------------------------------------------------------------

Geometry step timings:
Preparation and reading OPT file:      0.000 s ( 0.683 %)
Internal coordinates            :      0.000 s ( 0.774 %)
B/P matrices and projection     :      0.001 s (39.481 %)
Hessian update/contruction      :      0.000 s (11.157 %)
Making the step                 :      0.001 s (31.831 %)
Converting the step to Cartesian:      0.000 s ( 3.461 %)
Storing new data                :      0.000 s ( 0.911 %)
Checking convergence            :      0.000 s ( 0.956 %)
Final printing                  :      0.000 s (10.747 %)
Total time                      :      0.002 s

Time for energy+gradient        :      0.027 s
Time for complete geometry iter :      0.029 s

         *************************************************************
         *                GEOMETRY OPTIMIZATION CYCLE  15            *
         *************************************************************
---------------------------------
CARTESIAN COORDINATES (ANGSTROEM)
---------------------------------
  N    -1.326832   -0.478638    1.827553
  C    -1.573148   -0.595539    0.405520
  C    -0.433382   -1.283249   -0.404243
  C     0.801009   -0.449121   -0.406891
  C     1.738802   -0.283273    0.577626
  N     2.628804    0.638553    0.103267
  C     2.199423    0.992557   -1.126045
  N     1.108622    0.360281   -1.465588
  C    -1.749074    0.785329   -0.194259
  O    -1.237640    1.788625    0.254085
  O    -2.492746    0.772658   -1.281059
  H    -0.877207   -1.319185    2.171985
  H    -0.706102    0.307683    1.993932
  H    -2.495715   -1.165060    0.250525
  H    -0.767882   -1.420144   -1.431926
  H    -0.235952   -2.257360    0.046216
  H     1.848166   -0.740663    1.538524
  H     3.438609    0.988266    0.589084
  H     2.701346    1.706594   -1.746377
  H    -2.569102    1.651687   -1.701929

----------------------------
CARTESIAN COORDINATES (A.U.)
----------------------------
  NO LB    ZA    FRAG    MASS        X           Y           Z
   0 N   7.0000    0    14.007   -2.507349   -0.904496    3.453575
   1 C   6.0000    0    12.011   -2.972818   -1.125406    0.766322
   2 C   6.0000    0    12.011   -0.818974   -2.424989   -0.763909
   3 C   6.0000    0    12.011    1.513687   -0.848716   -0.768912
   4 C   6.0000    0    12.011    3.285860   -0.535308    1.091556
   5 N   7.0000    0    14.007    4.967719    1.206690    0.195147
   6 C   6.0000    0    12.011    4.156308    1.875661   -2.127917
   7 N   7.0000    0    14.007    2.094993    0.680832   -2.769559
   8 C   6.0000    0    12.011   -3.305270    1.484056   -0.367097
   9 O   8.0000    0    15.999   -2.338800    3.380011    0.480150
  10 O   8.0000    0    15.999   -4.710606    1.460112   -2.420850
  11 H   1.0000    0     1.008   -1.657681   -2.492899    4.104456
  12 H   1.0000    0     1.008   -1.334340    0.581437    3.767986
  13 H   1.0000    0     1.008   -4.716218   -2.201645    0.473423
  14 H   1.0000    0     1.008   -1.451086   -2.683682   -2.705947
  15 H   1.0000    0     1.008   -0.445885   -4.265792    0.087336
  16 H   1.0000    0     1.008    3.492527   -1.399650    2.907388
  17 H   1.0000    0     1.008    6.498030    1.867553    1.113207
  18 H   1.0000    0     1.008    5.104804    3.224996   -3.300175
  19 H   1.0000    0     1.008   -4.854900    3.121237   -3.216179

      -----------------------------------------------------------      
     |                   =====================                   |     
     |                           x T B                           |     
     |                   =====================                   |     
     |                         S. Grimme                         |     
     |          Mulliken Center for Theoretical Chemistry        |     
     |                    University of Bonn                     |     
      -----------------------------------------------------------      

   * xtb version 6.7.1 (edcfbbe) compiled by 'albert@albert-system' on 2024-07-22

   xtb is free software: you can redistribute it and/or modify it under
   the terms of the GNU Lesser General Public License as published by
   the Free Software Foundation, either version 3 of the License, or
   (at your option) any later version.
   
   xtb is distributed in the hope that it will be useful,
   but WITHOUT ANY WARRANTY; without even the implied warranty of
   MERCHANTABILITY or FITNESS FOR A PARTICULAR PURPOSE.  See the
   GNU Lesser General Public License for more details.
   
   Cite this work as:
   * C. Bannwarth, E. Caldeweyher, S. Ehlert, A. Hansen, P. Pracht,
     J. Seibert, S. Spicher, S. Grimme, WIREs Comput. Mol. Sci., 2020, 11,
     e01493. DOI: 10.1002/wcms.1493
   
   for GFN2-xTB:
   * C. Bannwarth, S. Ehlert and S. Grimme., J. Chem. Theory Comput., 2019,
     15, 1652-1671. DOI: 10.1021/acs.jctc.8b01176
   for GFN1-xTB:
   * S. Grimme, C. Bannwarth, P. Shushkov, J. Chem. Theory Comput., 2017,
     13, 1989-2009. DOI: 10.1021/acs.jctc.7b00118
   for GFN0-xTB:
   * P. Pracht, E. Caldeweyher, S. Ehlert, S. Grimme, ChemRxiv, 2019, preprint.
     DOI: 10.26434/chemrxiv.8326202.v1
   for GFN-FF:
   * S. Spicher and S. Grimme, Angew. Chem. Int. Ed., 2020, 59, 15665-15673.
     DOI: 10.1002/anie.202004239
   
   for ALPB and GBSA implicit solvation:
   * S. Ehlert, M. Stahn, S. Spicher, S. Grimme, J. Chem. Theory Comput.,
     2021, 17, 4250-4261. DOI: 10.1021/acs.jctc.1c00471
   
   for ddCOSMO and CPCM-X implicit solvation:
   * M. Stahn, S. Ehlert, S. Grimme, J. Phys. Chem. A,
     2023, XX, XXXX-XXXX. DOI: 10.1021/acs.jpca.3c04382
   
   for DFT-D4:
   * E. Caldeweyher, C. Bannwarth and S. Grimme, J. Chem. Phys., 2017,
     147, 034112. DOI: 10.1063/1.4993215
   * E. Caldeweyher, S. Ehlert, A. Hansen, H. Neugebauer, S. Spicher,
     C. Bannwarth and S. Grimme, J. Chem. Phys., 2019, 150, 154122.
     DOI: 10.1063/1.5090222
   * E. Caldeweyher, J.-M. Mewes, S. Ehlert and S. Grimme, Phys. Chem. Chem. Phys.
     2020, 22, 8499-8512. DOI: 10.1039/D0CP00502A
   
   for sTDA-xTB:
   * S. Grimme and C. Bannwarth, J. Chem. Phys., 2016, 145, 054103.
     DOI: 10.1063/1.4959605
   
   in the mass-spec context:
   * V. Asgeirsson, C. Bauer and S. Grimme, Chem. Sci., 2017, 8, 4879.
     DOI: 10.1039/c7sc00601b
   * J. Koopman and S. Grimme, ACS Omega 2019, 4, 12, 15120-15133.
     DOI: 10.1021/acsomega.9b02011
   
   for metadynamics refer to:
   * S. Grimme, J. Chem. Theory Comput., 2019, 155, 2847-2862
     DOI: 10.1021/acs.jctc.9b00143
   
   for SPH calculations refer to:
   * S. Spicher and S. Grimme, J. Chem. Theory Comput., 2021, 17, 1701-1714
     DOI: 10.1021/acs.jctc.0c01306
   
   for ONIOM refer to:
   * C. Plett, A. Katbashev, S. Ehlert, S. Grimme, M. Bursch,
     Phys. Chem. Chem. Phys., 2023, 25, 17860-17868. DOI: 10.1039/D3CP02178E
   
   for DIPRO refer to:
   * J. Kohn, N. Gildemeister, S. Grimme, D. Fazzi, A. Hansen,
     J. Chem. Phys., 2023, just accepted.
   
   for PTB refer to:
   * S. Grimme, M. Mueller, A. Hansen, J. Chem. Phys., 2023, 158, 124111.
     DOI: 10.1063/5.0137838
   
   with help from (in alphabetical order)
   P. Atkinson, C. Bannwarth, F. Bohle, G. Brandenburg, E. Caldeweyher
   M. Checinski, S. Dohm, S. Ehlert, S. Ehrlich, I. Gerasimov, C. Hölzer
   A. Katbashev, J. Kohn, J. Koopman, C. Lavigne, S. Lehtola, F. März, M. Müller,
   F. Musil, H. Neugebauer, J. Pisarek, C. Plett, P. Pracht, F. Pultar,
   J. Seibert, P. Shushkov, S. Spicher, M. Stahn, M. Steiner, T. Strunk,
   J. Stückrath, T. Rose, and J. Unsleber
   
 * started run on 2026/04/09 at 15:47:06.230     
   ID    Z sym.   atoms
    1    7 N      1, 6, 8
    2    6 C      2-5, 7, 9
    3    8 O      10, 11
    4    1 H      12-20

           -------------------------------------------------
          |                Calculation Setup                |
           -------------------------------------------------

          program call               : /home/analima/Programs/orca-6.1.0-f.0_linux_x86-64/bin/otool_xtb geo_opt_XTB.xyz --grad -c 0 -u 0 -P 1 --namespace geo_opt --input geo_opt_XTB.input.tmp --alpb WATER --acc 0.200000
          calculation namespace      : geo_opt
          coordinate file            : geo_opt_XTB.xyz
          omp threads                :                     1


           -------------------------------------------------
          |                 G F N 2 - x T B                 |
           -------------------------------------------------

        Reference                      10.1021/acs.jctc.8b01176
      * Hamiltonian:
        H0-scaling (s, p, d)           1.850000    2.230000    2.230000
        zeta-weighting                 0.500000
      * Dispersion:
        s8                             2.700000
        a1                             0.520000
        a2                             5.000000
        s9                             5.000000
      * Repulsion:
        kExp                           1.500000    1.000000
        rExp                           1.000000
      * Coulomb:
        alpha                          2.000000
        third order                    shell-resolved
        anisotropic                    true
        a3                             3.000000
        a5                             4.000000
        cn-shift                       1.200000
        cn-exp                         4.000000
        max-rad                        5.000000

      * Solvation model:               ALPB
        Solvent                        WATER
        Parameter file                 internal GFN2-xTB/ALPB
        Dielectric constant                8.0200E+01
        Reference state                gsolv [1 M gas/solution]
        Free energy shift                  1.0808E-03 Eh       6.7819E-01 kcal/mol
        Temperature                        2.9815E+02 K
        Density                            1.0000E+00 kg/L
        Solvent mass                       1.8000E+01 g/mol
        Interaction kernel             P16
        Born radius scaling (c1)           1.4744E+00
        Born radii integrator          GBOBC
        Born offset                        0.0000E+00 a0       0.0000E+00 AA
        H-bond correction              true
        Ion screening                  false
        Surface tension                    1.0000E-05 Eh       1.5569E+01 dyn/cm
        Grid points                               230 per atom
q/qsh data taken from xtbrestart
CAMM data taken from xtbrestart

          ...................................................
          :                      SETUP                      :
          :.................................................:
          :  # basis functions                  53          :
          :  # atomic orbitals                  53          :
          :  # shells                           31          :
          :  # electrons                        60          :
          :  max. iterations                   250          :
          :  Hamiltonian                  GFN2-xTB          :
          :  restarted?                       true          :
          :  GBSA solvation                   true          :
          :  PC potential                    false          :
          :  electronic temp.          300.0000000     K    :
          :  accuracy                    0.2000000          :
          :  -> integral cutoff          0.3198970E+02      :
          :  -> integral neglect         0.2000000E-08      :
          :  -> SCF convergence          0.2000000E-06 Eh   :
          :  -> wf. convergence          0.2000000E-04 e    :
          :  Broyden damping             0.4000000          :
          :  net charge                          0          :
          :  unpaired electrons                  0          :
          ...................................................

 iter      E             dE          RMSdq      gap      omega  full diag
   1    -34.7672167 -0.347672E+02  0.101E-02    3.61       0.0  T
   2    -34.7672167 -0.200824E-07  0.599E-03    3.61       3.7  T
   3    -34.7672167 -0.620352E-08  0.524E-04    3.61      42.7  T
   4    -34.7672167 -0.815682E-09  0.298E-04    3.61      75.0  T
   5    -34.7672167 -0.186382E-09  0.135E-04    3.61     165.7  T
   6    -34.7672167 -0.126917E-09  0.468E-05    3.61     478.3  T

   *** convergence criteria satisfied after 6 iterations ***

         #    Occupation            Energy/Eh            Energy/eV
      -------------------------------------------------------------
         1        2.0000           -0.7450219             -20.2731
       ...           ...                  ...                  ...
        24        2.0000           -0.4596870             -12.5087
        25        2.0000           -0.4515683             -12.2878
        26        2.0000           -0.4287422             -11.6667
        27        2.0000           -0.4217475             -11.4763
        28        2.0000           -0.3868605             -10.5270
        29        2.0000           -0.3824186             -10.4061
        30        2.0000           -0.3707517             -10.0887 (HOMO)
        31                         -0.2381891              -6.4815 (LUMO)
        32                         -0.2011942              -5.4748
        33                         -0.1687336              -4.5915
        34                          0.0318355               0.8663
        35                          0.0403237               1.0973
       ...                                ...                  ...
        53                          0.6304497              17.1554
      -------------------------------------------------------------
                  HL-Gap            0.1325626 Eh            3.6072 eV
             Fermi-level           -0.3044704 Eh           -8.2851 eV

 SCC (total)                   0 d,  0 h,  0 min,  0.014 sec
 SCC setup                      ...        0 min,  0.000 sec (  1.658%)
 Dispersion                     ...        0 min,  0.000 sec (  0.382%)
 classical contributions        ...        0 min,  0.000 sec (  0.078%)
 integral evaluation            ...        0 min,  0.001 sec (  6.452%)
 iterations                     ...        0 min,  0.009 sec ( 61.206%)
 molecular gradient             ...        0 min,  0.004 sec ( 29.697%)
 printout                       ...        0 min,  0.000 sec (  0.471%)

         :::::::::::::::::::::::::::::::::::::::::::::::::::::
         ::                     SUMMARY                     ::
         :::::::::::::::::::::::::::::::::::::::::::::::::::::
         :: total energy             -34.365500432276 Eh    ::
         :: total w/o Gsasa/hb       -34.351595454124 Eh    ::
         :: gradient norm              0.000395674719 Eh/a0 ::
         :: HOMO-LUMO gap              3.607212950332 eV    ::
         ::.................................................::
         :: SCC energy               -34.767092259908 Eh    ::
         :: -> isotropic ES            0.096482338506 Eh    ::
         :: -> anisotropic ES          0.002777598695 Eh    ::
         :: -> anisotropic XC          0.015427361387 Eh    ::
         :: -> dispersion             -0.017393846478 Eh    ::
         :: -> Gsolv                  -0.029396545936 Eh    ::
         ::    -> Gelec               -0.015491567784 Eh    ::
         ::    -> Gsasa               -0.001799241932 Eh    ::
         ::    -> Ghb                 -0.013186495918 Eh    ::
         ::    -> Gshift               0.001080759698 Eh    ::
         :: repulsion energy           0.401591827632 Eh    ::
         :: add. restraining           0.000000000000 Eh    ::
         :: total charge               0.000000000000 e     ::
         :::::::::::::::::::::::::::::::::::::::::::::::::::::


Property printout bound to 'properties.out'

           -------------------------------------------------
          | TOTAL ENERGY              -34.365500432276 Eh   |
          | GRADIENT NORM               0.000395674719 Eh/α |
          | HOMO-LUMO GAP               3.607212950332 eV   |
           -------------------------------------------------

------------------------------------------------------------------------
 * finished run on 2026/04/09 at 15:47:06.250     
------------------------------------------------------------------------
 total:
 * wall-time:     0 d,  0 h,  0 min,  0.020 sec
 *  cpu-time:     0 d,  0 h,  0 min,  0.015 sec
 * ratio c/w:     0.724 speedup
 SCF:
 * wall-time:     0 d,  0 h,  0 min,  0.015 sec
 *  cpu-time:     0 d,  0 h,  0 min,  0.009 sec
 * ratio c/w:     0.624 speedup


-------------------------   --------------------
FINAL SINGLE POINT ENERGY       -34.365500432280
-------------------------   --------------------


-------------
DIPOLE MOMENT
-------------
                                X             Y             Z
Total Dipole Moment    :      1.29800      -0.42200       0.27200
                        -----------------------------------------
Magnitude (a.u.)       :      1.39172
Magnitude (Debye)      :      3.53746


------------------
CARTESIAN GRADIENT
------------------

   1   N   :   -0.000047281    0.000065556   -0.000069649
   2   C   :    0.000081333   -0.000039008    0.000166140
   3   C   :   -0.000069312   -0.000083240   -0.000033094
   4   C   :   -0.000003279   -0.000008364    0.000005163
   5   C   :    0.000121637    0.000159722    0.000043924
   6   N   :   -0.000103496   -0.000065621    0.000001130
   7   C   :    0.000003008    0.000017947   -0.000064460
   8   N   :    0.000023260   -0.000024664    0.000040702
   9   C   :    0.000050283   -0.000048934    0.000004967
  10   O   :   -0.000029115   -0.000049323   -0.000011787
  11   O   :    0.000017996    0.000081791   -0.000025484
  12   H   :    0.000026169   -0.000000411   -0.000033682
  13   H   :   -0.000015942    0.000002011    0.000007511
  14   H   :   -0.000042377    0.000021613   -0.000005799
  15   H   :   -0.000008663    0.000049086   -0.000005663
  16   H   :    0.000032299    0.000016525   -0.000039719
  17   H   :   -0.000008830   -0.000044073   -0.000030413
  18   H   :   -0.000011171   -0.000013191    0.000011117
  19   H   :    0.000002913    0.000000882    0.000026446
  20   H   :   -0.000019432   -0.000038304    0.000012650

Difference to translation invariance:
           :   -0.0000000000    0.0000000000   -0.0000000000

Difference to rotation invariance:
           :    0.0001240412    0.0000357386    0.0000883981

Norm of the Cartesian gradient     ...    0.0003956747
RMS gradient                       ...    0.0000510814
MAX gradient                       ...    0.0001661395
------------------------------------------------------------------------------
                         ORCA GEOMETRY RELAXATION STEP
------------------------------------------------------------------------------

Reading the OPT-File                    .... done
Getting information on internals        .... done
Copying old internal coords+grads       .... done
Making the new internal coordinates     .... (2022 redundants) done
Validating the new internal coordinates .... (2022 redundants) done
Calculating the B-matrix                .... done
Calculating the G,G- and P matrices     .... done
Transforming gradient to internals      .... done
Projecting the internal gradient        .... done
Number of atoms                         ....  20
Number of internal coordinates          ....  92
Current Energy                          ....   -34.365500432 Eh
Current gradient norm                   ....     0.000395675 Eh/bohr
Maximum allowed component of the step   ....  0.300
Current trust radius                    ....  0.700
Updating the Hessian (BFGS)             .... done
Forming the augmented Hessian           .... done
Diagonalizing the augmented Hessian     .... done
Last element of RFO vector              ....  0.999916814
Lowest eigenvalues of augmented Hessian:
 -0.000000836  0.001784983  0.003182416  0.007230341  0.013852563
Length of the computed step             ....  0.012899324
The final length of the internal step   ....  0.012899324
Converting the step to Cartesian space:
 Initial RMS(Int)=    0.0013448475
Transforming coordinates:
 Iter   0:  RMS(Cart)=    0.0021166709 RMS(Int)=    0.0013449446
done
Storing new coordinates                 .... done
The predicted energy change is          ....    -0.000000418
Previously predicted energy change      ....    -0.000001358
Actually observed energy change         ....    -0.000001736
Ratio of predicted to observed change   ....     1.278782688
New trust radius                        ....     0.700000000

                                .--------------------.
          ----------------------|Geometry convergence|-------------------------
          Item                value                   Tolerance       Converged
          ---------------------------------------------------------------------
          Energy change      -0.0000017364            0.0000050000      YES
          RMS gradient        0.0000292241            0.0001000000      YES
          MAX gradient        0.0001101224            0.0003000000      YES
          RMS step            0.0013448475            0.0020000000      YES
          MAX step            0.0051144824            0.0040000000      NO
          -------------------------------------------------------------------------
          ........................................................
          Max(Bonds)      0.0025      Max(Angles)    0.02
          Max(Dihed)        0.29      Max(Improp)    0.00
          ---------------------------------------------------------------------

The optimization has not yet converged - more geometry cycles are needed


    ---------------------------------------------------------------------------
                         Redundant Internal Coordinates
                            (Angstroem and degrees)

        Definition                    Value    dE/dq     Step     New-Value
    ----------------------------------------------------------------------------
     1. B(C   1,N   0)                1.4479 -0.000079  0.0001    1.4480   
     2. B(C   2,C   1)                1.5581  0.000007  0.0001    1.5582   
     3. B(C   3,C   2)                1.4898  0.000029 -0.0000    1.4898   
     4. B(C   4,C   3)                1.3698  0.000030 -0.0000    1.3697   
     5. B(N   5,C   4)                1.3663 -0.000110  0.0001    1.3664   
     6. B(C   6,N   5)                1.3494  0.000005  0.0000    1.3494   
     7. B(N   7,C   3)                1.3677 -0.000019  0.0000    1.3677   
     8. B(N   7,C   6)                1.3057 -0.000016 -0.0000    1.3057   
     9. B(C   8,C   1)                1.5157 -0.000024 -0.0000    1.5157   
    10. B(O   9,C   8)                1.2121 -0.000054  0.0000    1.2121   
    11. B(O  10,C   8)                1.3169  0.000013  0.0000    1.3169   
    12. B(H  11,N   0)                1.0136 -0.000002  0.0000    1.0136   
    13. B(H  12,N   0)                1.0155 -0.000010 -0.0000    1.0155   
    14. B(H  12,O   9)                2.3458 -0.000020  0.0025    2.3483   
    15. B(H  13,C   1)                1.0952  0.000025 -0.0001    1.0951   
    16. B(H  14,C   2)                1.0894  0.000001 -0.0000    1.0894   
    17. B(H  15,C   2)                1.0912 -0.000025  0.0001    1.0913   
    18. B(H  16,C   4)                1.0698 -0.000009 -0.0000    1.0698   
    19. B(H  17,N   5)                1.0070 -0.000008 -0.0000    1.0070   
    20. B(H  18,C   6)                1.0708 -0.000014  0.0000    1.0708   
    21. B(H  19,O  10)                0.9776 -0.000038  0.0000    0.9776   
    22. A(C   1,N   0,H  12)          109.11  0.000046   -0.00    109.11   
    23. A(H  11,N   0,H  12)          108.38  0.000002   -0.00    108.38   
    24. A(C   1,N   0,H  11)          110.01 -0.000053    0.01    110.02   
    25. A(N   0,C   1,C   8)          109.56  0.000003   -0.01    109.55   
    26. A(C   8,C   1,H  13)          108.66 -0.000010    0.02    108.68   
    27. A(N   0,C   1,H  13)          108.92 -0.000009   -0.01    108.91   
    28. A(C   2,C   1,H  13)          108.25  0.000018   -0.01    108.24   
    29. A(C   2,C   1,C   8)          106.34 -0.000073    0.02    106.36   
    30. A(N   0,C   1,C   2)          114.94  0.000067   -0.02    114.92   
    31. A(C   1,C   2,H  15)          108.17  0.000068   -0.02    108.15   
    32. A(C   3,C   2,H  14)          108.85  0.000023   -0.00    108.85   
    33. A(C   1,C   2,H  14)          108.73 -0.000003    0.02    108.75   
    34. A(H  14,C   2,H  15)          109.44  0.000003   -0.00    109.44   
    35. A(C   1,C   2,C   3)          111.09 -0.000069    0.02    111.12   
    36. A(C   3,C   2,H  15)          110.53 -0.000021   -0.01    110.51   
    37. A(C   2,C   3,C   4)          129.33  0.000022    0.01    129.34   
    38. A(C   2,C   3,N   7)          121.27 -0.000007   -0.01    121.26   
    39. A(C   4,C   3,N   7)          109.31 -0.000015    0.00    109.32   
    40. A(N   5,C   4,H  16)          122.26  0.000037   -0.01    122.24   
    41. A(C   3,C   4,H  16)          131.59 -0.000035    0.01    131.60   
    42. A(C   3,C   4,N   5)          106.15 -0.000001   -0.00    106.15   
    43. A(C   4,N   5,H  17)          126.20 -0.000036    0.01    126.21   
    44. A(C   4,N   5,C   6)          106.62  0.000036   -0.00    106.62   
    45. A(C   6,N   5,H  17)          127.18  0.000000   -0.00    127.17   
    46. A(N   5,C   6,H  18)          123.61 -0.000007    0.01    123.62   
    47. A(N   7,C   6,H  18)          124.32  0.000034   -0.01    124.31   
    48. A(N   5,C   6,N   7)          112.07 -0.000028    0.00    112.07   
    49. A(C   3,N   7,C   6)          105.85  0.000009   -0.00    105.85   
    50. A(O   9,C   8,O  10)          123.47 -0.000037   -0.01    123.46   
    51. A(C   1,C   8,O  10)          112.54  0.000037   -0.00    112.54   
    52. A(C   1,C   8,O   9)          123.97 -0.000000    0.01    123.98   
    53. A(C   8,O  10,H  19)          113.00  0.000035   -0.02    112.98   
    54. D(C   8,C   1,N   0,H  11)   -159.05  0.000029   -0.28   -159.33   
    55. D(C   2,C   1,N   0,H  11)    -39.42 -0.000018   -0.27    -39.69   
    56. D(H  13,C   1,N   0,H  11)     82.21  0.000044   -0.29     81.92   
    57. D(C   8,C   1,N   0,H  12)    -40.28  0.000028   -0.28    -40.56   
    58. D(C   2,C   1,N   0,H  12)     79.36 -0.000018   -0.27     79.09   
    59. D(C   3,C   2,C   1,N   0)    -66.59  0.000026   -0.05    -66.64   
    60. D(H  14,C   2,C   1,H  13)     51.65 -0.000005   -0.05     51.60   
    61. D(H  14,C   2,C   1,C   8)    -64.95  0.000036   -0.09    -65.03   
    62. D(H  14,C   2,C   1,N   0)    173.64  0.000042   -0.08    173.57   
    63. D(C   3,C   2,C   1,C   8)     54.82  0.000020   -0.06     54.75   
    64. D(C   3,C   2,C   1,H  13)    171.42 -0.000021   -0.03    171.39   
    65. D(C   4,C   3,C   2,H  15)    -42.43 -0.000016    0.05    -42.38   
    66. D(C   4,C   3,C   2,H  14)   -162.65 -0.000022    0.06   -162.59   
    67. D(N   7,C   3,C   2,C   1)    -98.57  0.000010    0.01    -98.55   
    68. D(C   4,C   3,C   2,C   1)     77.66  0.000010    0.03     77.68   
    69. D(N   7,C   3,C   2,H  14)     21.13 -0.000022    0.05     21.18   
    70. D(H  16,C   4,C   3,N   7)   -179.25  0.000017   -0.00   -179.25   
    71. D(H  16,C   4,C   3,C   2)      4.17  0.000017   -0.01      4.16   
    72. D(N   5,C   4,C   3,N   7)     -0.17  0.000003   -0.01     -0.18   
    73. D(N   5,C   4,C   3,C   2)   -176.75  0.000003   -0.02   -176.77   
    74. D(H  17,N   5,C   4,H  16)     -1.28 -0.000011   -0.01     -1.29   
    75. D(H  17,N   5,C   4,C   3)    179.54  0.000002   -0.01    179.53   
    76. D(C   6,N   5,C   4,H  16)    179.42 -0.000016    0.01    179.43   
    77. D(C   6,N   5,C   4,C   3)      0.24 -0.000003    0.01      0.25   
    78. D(H  18,C   6,N   5,H  17)      0.66 -0.000006    0.01      0.68   
    79. D(H  18,C   6,N   5,C   4)    179.96 -0.000001   -0.01    179.95   
    80. D(N   7,C   6,N   5,H  17)   -179.53 -0.000003    0.01   -179.52   
    81. D(N   7,C   6,N   5,C   4)     -0.24  0.000002   -0.01     -0.25   
    82. D(C   3,N   7,C   6,N   5)      0.13  0.000000    0.00      0.14   
    83. D(C   6,N   7,C   3,C   4)      0.03 -0.000002    0.00      0.03   
    84. D(C   6,N   7,C   3,C   2)    176.94 -0.000001    0.01    176.95   
    85. D(C   3,N   7,C   6,H  18)    179.93  0.000003    0.00    179.94   
    86. D(O  10,C   8,C   1,C   2)     81.70 -0.000018    0.09     81.79   
    87. D(O  10,C   8,C   1,N   0)   -153.52  0.000019    0.08   -153.44   
    88. D(O   9,C   8,C   1,H  13)    147.06 -0.000003    0.10    147.16   
    89. D(O   9,C   8,C   1,C   2)    -96.62 -0.000025    0.11    -96.50   
    90. D(O   9,C   8,C   1,N   0)     28.16  0.000012    0.10     28.26   
    91. D(H  19,O  10,C   8,O   9)      1.58 -0.000007   -0.01      1.57   
    92. D(H  19,O  10,C   8,C   1)   -176.75 -0.000015    0.01   -176.74   
    ----------------------------------------------------------------------------

Geometry step timings:
Preparation and reading OPT file:      0.000 s ( 0.860 %)
Internal coordinates            :      0.000 s ( 0.922 %)
B/P matrices and projection     :      0.001 s (51.321 %)
Hessian update/contruction      :      0.000 s (10.940 %)
Making the step                 :      0.000 s (23.356 %)
Converting the step to Cartesian:      0.000 s ( 2.274 %)
Storing new data                :      0.000 s ( 0.676 %)
Checking convergence            :      0.000 s ( 0.799 %)
Final printing                  :      0.000 s ( 8.851 %)
Total time                      :      0.002 s

Time for energy+gradient        :      0.025 s
Time for complete geometry iter :      0.027 s

         *************************************************************
         *                GEOMETRY OPTIMIZATION CYCLE  16            *
         *************************************************************
---------------------------------
CARTESIAN COORDINATES (ANGSTROEM)
---------------------------------
  N    -1.328102   -0.478883    1.827430
  C    -1.573485   -0.595443    0.405098
  C    -0.432929   -1.283146   -0.403753
  C     0.801324   -0.448890   -0.406611
  C     1.739148   -0.282442    0.577715
  N     2.629181    0.639111    0.102679
  C     2.199552    0.992443   -1.126750
  N     1.108755    0.359940   -1.465822
  C    -1.749002    0.785668   -0.194236
  O    -1.236529    1.788621    0.253700
  O    -2.493311    0.773637   -1.280608
  H    -0.882804   -1.321296    2.172922
  H    -0.703863    0.304591    1.994003
  H    -2.495708   -1.165164    0.249482
  H    -0.766721   -1.421269   -1.431472
  H    -0.235361   -2.256752    0.047859
  H     1.848783   -0.739137    1.538909
  H     3.438944    0.989306    0.588202
  H     2.701218    1.706196   -1.747631
  H    -2.569088    1.652907   -1.701116

----------------------------
CARTESIAN COORDINATES (A.U.)
----------------------------
  NO LB    ZA    FRAG    MASS        X           Y           Z
   0 N   7.0000    0    14.007   -2.509749   -0.904957    3.453343
   1 C   6.0000    0    12.011   -2.973455   -1.125224    0.765524
   2 C   6.0000    0    12.011   -0.818117   -2.424794   -0.762983
   3 C   6.0000    0    12.011    1.514283   -0.848279   -0.768384
   4 C   6.0000    0    12.011    3.286514   -0.533739    1.091723
   5 N   7.0000    0    14.007    4.968433    1.207745    0.194035
   6 C   6.0000    0    12.011    4.156550    1.875446   -2.129249
   7 N   7.0000    0    14.007    2.095243    0.680188   -2.770001
   8 C   6.0000    0    12.011   -3.305135    1.484698   -0.367053
   9 O   8.0000    0    15.999   -2.336702    3.380004    0.479424
  10 O   8.0000    0    15.999   -4.711676    1.461961   -2.419998
  11 H   1.0000    0     1.008   -1.668258   -2.496887    4.106227
  12 H   1.0000    0     1.008   -1.330108    0.575594    3.768119
  13 H   1.0000    0     1.008   -4.716205   -2.201842    0.471453
  14 H   1.0000    0     1.008   -1.448894   -2.685810   -2.705091
  15 H   1.0000    0     1.008   -0.444768   -4.264643    0.090441
  16 H   1.0000    0     1.008    3.493693   -1.396766    2.908116
  17 H   1.0000    0     1.008    6.498661    1.869517    1.111542
  18 H   1.0000    0     1.008    5.104562    3.224243   -3.302544
  19 H   1.0000    0     1.008   -4.854874    3.123542   -3.214643

      -----------------------------------------------------------      
     |                   =====================                   |     
     |                           x T B                           |     
     |                   =====================                   |     
     |                         S. Grimme                         |     
     |          Mulliken Center for Theoretical Chemistry        |     
     |                    University of Bonn                     |     
      -----------------------------------------------------------      

   * xtb version 6.7.1 (edcfbbe) compiled by 'albert@albert-system' on 2024-07-22

   xtb is free software: you can redistribute it and/or modify it under
   the terms of the GNU Lesser General Public License as published by
   the Free Software Foundation, either version 3 of the License, or
   (at your option) any later version.
   
   xtb is distributed in the hope that it will be useful,
   but WITHOUT ANY WARRANTY; without even the implied warranty of
   MERCHANTABILITY or FITNESS FOR A PARTICULAR PURPOSE.  See the
   GNU Lesser General Public License for more details.
   
   Cite this work as:
   * C. Bannwarth, E. Caldeweyher, S. Ehlert, A. Hansen, P. Pracht,
     J. Seibert, S. Spicher, S. Grimme, WIREs Comput. Mol. Sci., 2020, 11,
     e01493. DOI: 10.1002/wcms.1493
   
   for GFN2-xTB:
   * C. Bannwarth, S. Ehlert and S. Grimme., J. Chem. Theory Comput., 2019,
     15, 1652-1671. DOI: 10.1021/acs.jctc.8b01176
   for GFN1-xTB:
   * S. Grimme, C. Bannwarth, P. Shushkov, J. Chem. Theory Comput., 2017,
     13, 1989-2009. DOI: 10.1021/acs.jctc.7b00118
   for GFN0-xTB:
   * P. Pracht, E. Caldeweyher, S. Ehlert, S. Grimme, ChemRxiv, 2019, preprint.
     DOI: 10.26434/chemrxiv.8326202.v1
   for GFN-FF:
   * S. Spicher and S. Grimme, Angew. Chem. Int. Ed., 2020, 59, 15665-15673.
     DOI: 10.1002/anie.202004239
   
   for ALPB and GBSA implicit solvation:
   * S. Ehlert, M. Stahn, S. Spicher, S. Grimme, J. Chem. Theory Comput.,
     2021, 17, 4250-4261. DOI: 10.1021/acs.jctc.1c00471
   
   for ddCOSMO and CPCM-X implicit solvation:
   * M. Stahn, S. Ehlert, S. Grimme, J. Phys. Chem. A,
     2023, XX, XXXX-XXXX. DOI: 10.1021/acs.jpca.3c04382
   
   for DFT-D4:
   * E. Caldeweyher, C. Bannwarth and S. Grimme, J. Chem. Phys., 2017,
     147, 034112. DOI: 10.1063/1.4993215
   * E. Caldeweyher, S. Ehlert, A. Hansen, H. Neugebauer, S. Spicher,
     C. Bannwarth and S. Grimme, J. Chem. Phys., 2019, 150, 154122.
     DOI: 10.1063/1.5090222
   * E. Caldeweyher, J.-M. Mewes, S. Ehlert and S. Grimme, Phys. Chem. Chem. Phys.
     2020, 22, 8499-8512. DOI: 10.1039/D0CP00502A
   
   for sTDA-xTB:
   * S. Grimme and C. Bannwarth, J. Chem. Phys., 2016, 145, 054103.
     DOI: 10.1063/1.4959605
   
   in the mass-spec context:
   * V. Asgeirsson, C. Bauer and S. Grimme, Chem. Sci., 2017, 8, 4879.
     DOI: 10.1039/c7sc00601b
   * J. Koopman and S. Grimme, ACS Omega 2019, 4, 12, 15120-15133.
     DOI: 10.1021/acsomega.9b02011
   
   for metadynamics refer to:
   * S. Grimme, J. Chem. Theory Comput., 2019, 155, 2847-2862
     DOI: 10.1021/acs.jctc.9b00143
   
   for SPH calculations refer to:
   * S. Spicher and S. Grimme, J. Chem. Theory Comput., 2021, 17, 1701-1714
     DOI: 10.1021/acs.jctc.0c01306
   
   for ONIOM refer to:
   * C. Plett, A. Katbashev, S. Ehlert, S. Grimme, M. Bursch,
     Phys. Chem. Chem. Phys., 2023, 25, 17860-17868. DOI: 10.1039/D3CP02178E
   
   for DIPRO refer to:
   * J. Kohn, N. Gildemeister, S. Grimme, D. Fazzi, A. Hansen,
     J. Chem. Phys., 2023, just accepted.
   
   for PTB refer to:
   * S. Grimme, M. Mueller, A. Hansen, J. Chem. Phys., 2023, 158, 124111.
     DOI: 10.1063/5.0137838
   
   with help from (in alphabetical order)
   P. Atkinson, C. Bannwarth, F. Bohle, G. Brandenburg, E. Caldeweyher
   M. Checinski, S. Dohm, S. Ehlert, S. Ehrlich, I. Gerasimov, C. Hölzer
   A. Katbashev, J. Kohn, J. Koopman, C. Lavigne, S. Lehtola, F. März, M. Müller,
   F. Musil, H. Neugebauer, J. Pisarek, C. Plett, P. Pracht, F. Pultar,
   J. Seibert, P. Shushkov, S. Spicher, M. Stahn, M. Steiner, T. Strunk,
   J. Stückrath, T. Rose, and J. Unsleber
   
 * started run on 2026/04/09 at 15:47:06.256     
   ID    Z sym.   atoms
    1    7 N      1, 6, 8
    2    6 C      2-5, 7, 9
    3    8 O      10, 11
    4    1 H      12-20

           -------------------------------------------------
          |                Calculation Setup                |
           -------------------------------------------------

          program call               : /home/analima/Programs/orca-6.1.0-f.0_linux_x86-64/bin/otool_xtb geo_opt_XTB.xyz --grad -c 0 -u 0 -P 1 --namespace geo_opt --input geo_opt_XTB.input.tmp --alpb WATER --acc 0.200000
          calculation namespace      : geo_opt
          coordinate file            : geo_opt_XTB.xyz
          omp threads                :                     1


           -------------------------------------------------
          |                 G F N 2 - x T B                 |
           -------------------------------------------------

        Reference                      10.1021/acs.jctc.8b01176
      * Hamiltonian:
        H0-scaling (s, p, d)           1.850000    2.230000    2.230000
        zeta-weighting                 0.500000
      * Dispersion:
        s8                             2.700000
        a1                             0.520000
        a2                             5.000000
        s9                             5.000000
      * Repulsion:
        kExp                           1.500000    1.000000
        rExp                           1.000000
      * Coulomb:
        alpha                          2.000000
        third order                    shell-resolved
        anisotropic                    true
        a3                             3.000000
        a5                             4.000000
        cn-shift                       1.200000
        cn-exp                         4.000000
        max-rad                        5.000000

      * Solvation model:               ALPB
        Solvent                        WATER
        Parameter file                 internal GFN2-xTB/ALPB
        Dielectric constant                8.0200E+01
        Reference state                gsolv [1 M gas/solution]
        Free energy shift                  1.0808E-03 Eh       6.7819E-01 kcal/mol
        Temperature                        2.9815E+02 K
        Density                            1.0000E+00 kg/L
        Solvent mass                       1.8000E+01 g/mol
        Interaction kernel             P16
        Born radius scaling (c1)           1.4744E+00
        Born radii integrator          GBOBC
        Born offset                        0.0000E+00 a0       0.0000E+00 AA
        H-bond correction              true
        Ion screening                  false
        Surface tension                    1.0000E-05 Eh       1.5569E+01 dyn/cm
        Grid points                               230 per atom
q/qsh data taken from xtbrestart
CAMM data taken from xtbrestart

          ...................................................
          :                      SETUP                      :
          :.................................................:
          :  # basis functions                  53          :
          :  # atomic orbitals                  53          :
          :  # shells                           31          :
          :  # electrons                        60          :
          :  max. iterations                   250          :
          :  Hamiltonian                  GFN2-xTB          :
          :  restarted?                       true          :
          :  GBSA solvation                   true          :
          :  PC potential                    false          :
          :  electronic temp.          300.0000000     K    :
          :  accuracy                    0.2000000          :
          :  -> integral cutoff          0.3198970E+02      :
          :  -> integral neglect         0.2000000E-08      :
          :  -> SCF convergence          0.2000000E-06 Eh   :
          :  -> wf. convergence          0.2000000E-04 e    :
          :  Broyden damping             0.4000000          :
          :  net charge                          0          :
          :  unpaired electrons                  0          :
          ...................................................

 iter      E             dE          RMSdq      gap      omega  full diag
   1    -34.7672133 -0.347672E+02  0.507E-03    3.61       0.0  T
   2    -34.7672133 -0.507260E-08  0.301E-03    3.61       7.4  T
   3    -34.7672133  0.626528E-09  0.457E-04    3.61      48.9  T
   4    -34.7672133 -0.262303E-08  0.177E-04    3.61     126.5  T
   5    -34.7672133 -0.111363E-09  0.856E-05    3.61     261.3  T

   *** convergence criteria satisfied after 5 iterations ***

         #    Occupation            Energy/Eh            Energy/eV
      -------------------------------------------------------------
         1        2.0000           -0.7450095             -20.2727
       ...           ...                  ...                  ...
        24        2.0000           -0.4596793             -12.5085
        25        2.0000           -0.4515596             -12.2876
        26        2.0000           -0.4287198             -11.6661
        27        2.0000           -0.4217349             -11.4760
        28        2.0000           -0.3868885             -10.5278
        29        2.0000           -0.3824177             -10.4061
        30        2.0000           -0.3707468             -10.0885 (HOMO)
        31                         -0.2381804              -6.4812 (LUMO)
        32                         -0.2011950              -5.4748
        33                         -0.1687258              -4.5913
        34                          0.0318191               0.8658
        35                          0.0402591               1.0955
       ...                                ...                  ...
        53                          0.6305504              17.1582
      -------------------------------------------------------------
                  HL-Gap            0.1325664 Eh            3.6073 eV
             Fermi-level           -0.3044636 Eh           -8.2849 eV

 SCC (total)                   0 d,  0 h,  0 min,  0.018 sec
 SCC setup                      ...        0 min,  0.000 sec (  1.979%)
 Dispersion                     ...        0 min,  0.000 sec (  0.514%)
 classical contributions        ...        0 min,  0.000 sec (  0.111%)
 integral evaluation            ...        0 min,  0.002 sec ( 10.061%)
 iterations                     ...        0 min,  0.012 sec ( 66.393%)
 molecular gradient             ...        0 min,  0.004 sec ( 20.535%)
 printout                       ...        0 min,  0.000 sec (  0.299%)

         :::::::::::::::::::::::::::::::::::::::::::::::::::::
         ::                     SUMMARY                     ::
         :::::::::::::::::::::::::::::::::::::::::::::::::::::
         :: total energy             -34.365501006311 Eh    ::
         :: total w/o Gsasa/hb       -34.351597334021 Eh    ::
         :: gradient norm              0.000265658649 Eh/a0 ::
         :: HOMO-LUMO gap              3.607315867168 eV    ::
         ::.................................................::
         :: SCC energy               -34.767088898937 Eh    ::
         :: -> isotropic ES            0.096483918803 Eh    ::
         :: -> anisotropic ES          0.002788792005 Eh    ::
         :: -> anisotropic XC          0.015425773008 Eh    ::
         :: -> dispersion             -0.017392220107 Eh    ::
         :: -> Gsolv                  -0.029398177137 Eh    ::
         ::    -> Gelec               -0.015494504847 Eh    ::
         ::    -> Gsasa               -0.001797251655 Eh    ::
         ::    -> Ghb                 -0.013187180333 Eh    ::
         ::    -> Gshift               0.001080759698 Eh    ::
         :: repulsion energy           0.401587892626 Eh    ::
         :: add. restraining           0.000000000000 Eh    ::
         :: total charge               0.000000000000 e     ::
         :::::::::::::::::::::::::::::::::::::::::::::::::::::


Property printout bound to 'properties.out'

           -------------------------------------------------
          | TOTAL ENERGY              -34.365501006311 Eh   |
          | GRADIENT NORM               0.000265658649 Eh/α |
          | HOMO-LUMO GAP               3.607315867168 eV   |
           -------------------------------------------------

------------------------------------------------------------------------
 * finished run on 2026/04/09 at 15:47:06.280     
------------------------------------------------------------------------
 total:
 * wall-time:     0 d,  0 h,  0 min,  0.023 sec
 *  cpu-time:     0 d,  0 h,  0 min,  0.014 sec
 * ratio c/w:     0.626 speedup
 SCF:
 * wall-time:     0 d,  0 h,  0 min,  0.018 sec
 *  cpu-time:     0 d,  0 h,  0 min,  0.010 sec
 * ratio c/w:     0.539 speedup


-------------------------   --------------------
FINAL SINGLE POINT ENERGY       -34.365501006310
-------------------------   --------------------


-------------
DIPOLE MOMENT
-------------
                                X             Y             Z
Total Dipole Moment    :      1.29700      -0.42400       0.27400
                        -----------------------------------------
Magnitude (a.u.)       :      1.39178
Magnitude (Debye)      :      3.53763


------------------
CARTESIAN GRADIENT
------------------

   1   N   :   -0.000028764    0.000052319   -0.000012463
   2   C   :   -0.000016325   -0.000040004    0.000072366
   3   C   :   -0.000060174   -0.000032815   -0.000084926
   4   C   :    0.000037485   -0.000029588    0.000033592
   5   C   :    0.000055320    0.000120362    0.000040462
   6   N   :   -0.000049087   -0.000057063    0.000011218
   7   C   :   -0.000006810    0.000009524   -0.000054284
   8   N   :    0.000011826   -0.000018620    0.000021859
   9   C   :    0.000002093   -0.000037243    0.000014404
  10   O   :   -0.000016399   -0.000017353   -0.000025475
  11   O   :    0.000026556    0.000061218   -0.000016127
  12   H   :    0.000020055    0.000008808   -0.000009707
  13   H   :   -0.000002253   -0.000015909    0.000005651
  14   H   :   -0.000001244    0.000011821    0.000003558
  15   H   :    0.000011719    0.000033258    0.000001642
  16   H   :    0.000038611    0.000010742   -0.000017571
  17   H   :    0.000004512   -0.000030591   -0.000029871
  18   H   :   -0.000013788   -0.000009350    0.000004511
  19   H   :   -0.000008431    0.000003892    0.000015780
  20   H   :   -0.000004901   -0.000023408    0.000025379

Difference to translation invariance:
           :    0.0000000000   -0.0000000000   -0.0000000000

Difference to rotation invariance:
           :    0.0001319916    0.0000385832    0.0000890014

Norm of the Cartesian gradient     ...    0.0002656586
RMS gradient                       ...    0.0000342964
MAX gradient                       ...    0.0001203619
------------------------------------------------------------------------------
                         ORCA GEOMETRY RELAXATION STEP
------------------------------------------------------------------------------

Reading the OPT-File                    .... done
Getting information on internals        .... done
Copying old internal coords+grads       .... done
Making the new internal coordinates     .... (2022 redundants) done
Validating the new internal coordinates .... (2022 redundants) done
Calculating the B-matrix                .... done
Calculating the G,G- and P matrices     .... done
Transforming gradient to internals      .... done
Projecting the internal gradient        .... done
Number of atoms                         ....  20
Number of internal coordinates          ....  92
Current Energy                          ....   -34.365501006 Eh
Current gradient norm                   ....     0.000265659 Eh/bohr
Maximum allowed component of the step   ....  0.300
Current trust radius                    ....  0.700
Updating the Hessian (BFGS)             .... done
Forming the augmented Hessian           .... done
Diagonalizing the augmented Hessian     .... done
Last element of RFO vector              ....  0.999968842
Lowest eigenvalues of augmented Hessian:
 -0.000000407  0.001756159  0.003076435  0.006377298  0.011810333
Length of the computed step             ....  0.007894276
The final length of the internal step   ....  0.007894276
Converting the step to Cartesian space:
 Initial RMS(Int)=    0.0008230352
Transforming coordinates:
 Iter   0:  RMS(Cart)=    0.0015273079 RMS(Int)=    0.0008230902
done
Storing new coordinates                 .... done
The predicted energy change is          ....    -0.000000204
Previously predicted energy change      ....    -0.000000418
Actually observed energy change         ....    -0.000000574
Ratio of predicted to observed change   ....     1.373186336
New trust radius                        ....     0.700000000

                                .--------------------.
          ----------------------|Geometry convergence|-------------------------
          Item                value                   Tolerance       Converged
          ---------------------------------------------------------------------
          Energy change      -0.0000005740            0.0000050000      YES
          RMS gradient        0.0000205052            0.0001000000      YES
          MAX gradient        0.0000703157            0.0003000000      YES
          RMS step            0.0008230352            0.0020000000      YES
          MAX step            0.0028115610            0.0040000000      YES
          -------------------------------------------------------------------------
          ........................................................
          Max(Bonds)      0.0015      Max(Angles)    0.02
          Max(Dihed)        0.16      Max(Improp)    0.00
          ---------------------------------------------------------------------

                    ***********************HURRAY********************
                    ***        THE OPTIMIZATION HAS CONVERGED     ***
                    *************************************************


    ---------------------------------------------------------------------------
                         Redundant Internal Coordinates

                          --- Optimized Parameters ---  
                            (Angstroem and degrees)

        Definition                    OldVal   dE/dq     Step     FinalVal
    ----------------------------------------------------------------------------
     1. B(C   1,N   0)                1.4480 -0.000006  0.0001    1.4481   
     2. B(C   2,C   1)                1.5582  0.000048 -0.0000    1.5582   
     3. B(C   3,C   2)                1.4898  0.000015 -0.0000    1.4897   
     4. B(C   4,C   3)                1.3697  0.000014 -0.0000    1.3697   
     5. B(N   5,C   4)                1.3664 -0.000070  0.0001    1.3665   
     6. B(C   6,N   5)                1.3494  0.000019 -0.0000    1.3494   
     7. B(N   7,C   3)                1.3677 -0.000019  0.0000    1.3677   
     8. B(N   7,C   6)                1.3057 -0.000027  0.0000    1.3057   
     9. B(C   8,C   1)                1.5157 -0.000003  0.0000    1.5157   
    10. B(O   9,C   8)                1.2121 -0.000029  0.0000    1.2121   
    11. B(O  10,C   8)                1.3169 -0.000018  0.0000    1.3170   
    12. B(H  11,N   0)                1.0136 -0.000005 -0.0000    1.0136   
    13. B(H  12,N   0)                1.0155 -0.000013 -0.0000    1.0155   
    14. B(H  12,O   9)                2.3483 -0.000010  0.0015    2.3498   
    15. B(H  13,C   1)                1.0951 -0.000006 -0.0000    1.0951   
    16. B(H  14,C   2)                1.0894 -0.000011  0.0000    1.0894   
    17. B(H  15,C   2)                1.0913 -0.000009  0.0000    1.0913   
    18. B(H  16,C   4)                1.0698 -0.000013  0.0000    1.0698   
    19. B(H  17,N   5)                1.0070 -0.000012  0.0000    1.0070   
    20. B(H  18,C   6)                1.0708 -0.000011  0.0000    1.0708   
    21. B(H  19,O  10)                0.9776 -0.000031  0.0000    0.9776   
    22. A(C   1,N   0,H  12)          109.11  0.000024   -0.00    109.11   
    23. A(H  11,N   0,H  12)          108.38 -0.000013    0.00    108.38   
    24. A(C   1,N   0,H  11)          110.02 -0.000011    0.01    110.03   
    25. A(N   0,C   1,C   8)          109.55 -0.000016    0.00    109.56   
    26. A(C   8,C   1,H  13)          108.68  0.000006    0.01    108.69   
    27. A(N   0,C   1,H  13)          108.91 -0.000005   -0.01    108.91   
    28. A(C   2,C   1,H  13)          108.24  0.000005   -0.01    108.24   
    29. A(C   2,C   1,C   8)          106.36 -0.000037    0.02    106.38   
    30. A(N   0,C   1,C   2)          114.92  0.000046   -0.02    114.90   
    31. A(C   1,C   2,H  15)          108.15  0.000042   -0.02    108.13   
    32. A(C   3,C   2,H  14)          108.85 -0.000002    0.00    108.85   
    33. A(C   1,C   2,H  14)          108.75  0.000006    0.01    108.76   
    34. A(H  14,C   2,H  15)          109.44  0.000015   -0.01    109.43   
    35. A(C   1,C   2,C   3)          111.12 -0.000014    0.01    111.13   
    36. A(C   3,C   2,H  15)          110.51 -0.000046    0.00    110.51   
    37. A(C   2,C   3,C   4)          129.34  0.000048   -0.00    129.34   
    38. A(C   2,C   3,N   7)          121.26 -0.000048    0.00    121.26   
    39. A(C   4,C   3,N   7)          109.32 -0.000000    0.00    109.32   
    40. A(N   5,C   4,H  16)          122.24  0.000021   -0.01    122.23   
    41. A(C   3,C   4,H  16)          131.60 -0.000014    0.01    131.61   
    42. A(C   3,C   4,N   5)          106.15 -0.000008    0.00    106.15   
    43. A(C   4,N   5,H  17)          126.21 -0.000022    0.01    126.21   
    44. A(C   4,N   5,C   6)          106.62  0.000021   -0.00    106.61   
    45. A(C   6,N   5,H  17)          127.17  0.000001   -0.00    127.17   
    46. A(N   5,C   6,H  18)          123.62  0.000004    0.00    123.62   
    47. A(N   7,C   6,H  18)          124.31  0.000015   -0.01    124.30   
    48. A(N   5,C   6,N   7)          112.07 -0.000019    0.00    112.07   
    49. A(C   3,N   7,C   6)          105.85  0.000005   -0.00    105.85   
    50. A(O   9,C   8,O  10)          123.46 -0.000056    0.00    123.47   
    51. A(C   1,C   8,O  10)          112.54  0.000047   -0.01    112.53   
    52. A(C   1,C   8,O   9)          123.98  0.000009    0.00    123.98   
    53. A(C   8,O  10,H  19)          112.98 -0.000008   -0.01    112.97   
    54. D(C   8,C   1,N   0,H  11)   -159.33  0.000018   -0.15   -159.48   
    55. D(C   2,C   1,N   0,H  11)    -39.69 -0.000011   -0.13    -39.82   
    56. D(H  13,C   1,N   0,H  11)     81.92  0.000023   -0.16     81.76   
    57. D(C   8,C   1,N   0,H  12)    -40.56  0.000010   -0.14    -40.69   
    58. D(C   2,C   1,N   0,H  12)     79.09 -0.000019   -0.12     78.97   
    59. D(C   3,C   2,C   1,N   0)    -66.64  0.000023   -0.09    -66.73   
    60. D(H  14,C   2,C   1,H  13)     51.60  0.000002   -0.07     51.52   
    61. D(H  14,C   2,C   1,C   8)    -65.03  0.000011   -0.09    -65.13   
    62. D(H  14,C   2,C   1,N   0)    173.57  0.000030   -0.10    173.47   
    63. D(C   3,C   2,C   1,C   8)     54.75  0.000004   -0.08     54.68   
    64. D(C   3,C   2,C   1,H  13)    171.39 -0.000006   -0.06    171.33   
    65. D(C   4,C   3,C   2,H  15)    -42.38 -0.000014    0.07    -42.31   
    66. D(C   4,C   3,C   2,H  14)   -162.59 -0.000004    0.08   -162.51   
    67. D(N   7,C   3,C   2,C   1)    -98.55 -0.000003    0.04    -98.51   
    68. D(C   4,C   3,C   2,C   1)     77.68 -0.000001    0.06     77.74   
    69. D(N   7,C   3,C   2,H  14)     21.18 -0.000006    0.06     21.24   
    70. D(H  16,C   4,C   3,N   7)   -179.25  0.000015   -0.03   -179.28   
    71. D(H  16,C   4,C   3,C   2)      4.16  0.000015   -0.05      4.11   
    72. D(N   5,C   4,C   3,N   7)     -0.18 -0.000002    0.01     -0.17   
    73. D(N   5,C   4,C   3,C   2)   -176.77 -0.000002   -0.00   -176.77   
    74. D(H  17,N   5,C   4,H  16)     -1.29 -0.000013    0.03     -1.26   
    75. D(H  17,N   5,C   4,C   3)    179.53  0.000003   -0.01    179.52   
    76. D(C   6,N   5,C   4,H  16)    179.43 -0.000012    0.03    179.46   
    77. D(C   6,N   5,C   4,C   3)      0.25  0.000004   -0.01      0.24   
    78. D(H  18,C   6,N   5,H  17)      0.68 -0.000005    0.02      0.69   
    79. D(H  18,C   6,N   5,C   4)    179.95 -0.000007    0.01    179.96   
    80. D(N   7,C   6,N   5,H  17)   -179.52 -0.000003    0.01   -179.51   
    81. D(N   7,C   6,N   5,C   4)     -0.25 -0.000004    0.01     -0.24   
    82. D(C   3,N   7,C   6,N   5)      0.14  0.000003   -0.00      0.13   
    83. D(C   6,N   7,C   3,C   4)      0.03 -0.000000   -0.00      0.03   
    84. D(C   6,N   7,C   3,C   2)    176.95  0.000003    0.01    176.95   
    85. D(C   3,N   7,C   6,H  18)    179.94  0.000005   -0.01    179.93   
    86. D(O  10,C   8,C   1,C   2)     81.79 -0.000018    0.05     81.85   
    87. D(O  10,C   8,C   1,N   0)   -153.44  0.000004    0.05   -153.39   
    88. D(O   9,C   8,C   1,H  13)    147.16  0.000000    0.05    147.20   
    89. D(O   9,C   8,C   1,C   2)    -96.50 -0.000010    0.05    -96.45   
    90. D(O   9,C   8,C   1,N   0)     28.26  0.000012    0.05     28.31   
    91. D(H  19,O  10,C   8,O   9)      1.57 -0.000012    0.02      1.58   
    92. D(H  19,O  10,C   8,C   1)   -176.74 -0.000006    0.02   -176.72   
    ----------------------------------------------------------------------------

Geometry step timings:
Preparation and reading OPT file:      0.000 s ( 0.686 %)
Internal coordinates            :      0.000 s ( 0.857 %)
B/P matrices and projection     :      0.000 s (37.961 %)
Hessian update/contruction      :      0.000 s (10.711 %)
Making the step                 :      0.000 s (32.219 %)
Converting the step to Cartesian:      0.000 s ( 2.742 %)
Storing new data                :      0.000 s ( 0.857 %)
Checking convergence            :      0.000 s ( 1.200 %)
Final printing                  :      0.000 s (12.682 %)
Total time                      :      0.001 s
                 *******************************************************
                 *** FINAL ENERGY EVALUATION AT THE STATIONARY POINT ***
                 ***               (AFTER   16 CYCLES)               ***
                 *******************************************************
---------------------------------
CARTESIAN COORDINATES (ANGSTROEM)
---------------------------------
  N    -1.329179   -0.479425    1.827367
  C    -1.573664   -0.595311    0.404759
  C    -0.432597   -1.283223   -0.403166
  C     0.801458   -0.448751   -0.406524
  C     1.739510   -0.282083    0.577494
  N     2.629359    0.639599    0.102094
  C     2.199382    0.992537   -1.127310
  N     1.108555    0.359877   -1.466017
  C    -1.748648    0.786055   -0.194138
  O    -1.235742    1.788709    0.253994
  O    -2.493072    0.774463   -1.280444
  H    -0.886398   -1.322968    2.173329
  H    -0.703134    0.302495    1.994463
  H    -2.495754   -1.164999    0.248430
  H    -0.765992   -1.422664   -1.430842
  H    -0.235027   -2.256315    0.049636
  H     1.849282   -0.738123    1.538996
  H     3.439132    0.990154    0.587347
  H     2.700831    1.706111   -1.748601
  H    -2.568300    1.653862   -1.700868

----------------------------
CARTESIAN COORDINATES (A.U.)
----------------------------
  NO LB    ZA    FRAG    MASS        X           Y           Z
   0 N   7.0000    0    14.007   -2.511784   -0.905982    3.453224
   1 C   6.0000    0    12.011   -2.973795   -1.124975    0.764883
   2 C   6.0000    0    12.011   -0.817491   -2.424940   -0.761873
   3 C   6.0000    0    12.011    1.514535   -0.848016   -0.768218
   4 C   6.0000    0    12.011    3.287197   -0.533060    1.091306
   5 N   7.0000    0    14.007    4.968768    1.208667    0.192930
   6 C   6.0000    0    12.011    4.156230    1.875622   -2.130307
   7 N   7.0000    0    14.007    2.094865    0.680069   -2.770371
   8 C   6.0000    0    12.011   -3.304466    1.485429   -0.366868
   9 O   8.0000    0    15.999   -2.335214    3.380169    0.479980
  10 O   8.0000    0    15.999   -4.711223    1.463523   -2.419688
  11 H   1.0000    0     1.008   -1.675049   -2.500047    4.106998
  12 H   1.0000    0     1.008   -1.328731    0.571632    3.768989
  13 H   1.0000    0     1.008   -4.716292   -2.201530    0.469465
  14 H   1.0000    0     1.008   -1.447515   -2.688445   -2.703900
  15 H   1.0000    0     1.008   -0.444137   -4.263817    0.093798
  16 H   1.0000    0     1.008    3.494636   -1.394850    2.908281
  17 H   1.0000    0     1.008    6.499019    1.871120    1.109926
  18 H   1.0000    0     1.008    5.103831    3.224083   -3.304378
  19 H   1.0000    0     1.008   -4.853385    3.125347   -3.214175

      -----------------------------------------------------------      
     |                   =====================                   |     
     |                           x T B                           |     
     |                   =====================                   |     
     |                         S. Grimme                         |     
     |          Mulliken Center for Theoretical Chemistry        |     
     |                    University of Bonn                     |     
      -----------------------------------------------------------      

   * xtb version 6.7.1 (edcfbbe) compiled by 'albert@albert-system' on 2024-07-22

   xtb is free software: you can redistribute it and/or modify it under
   the terms of the GNU Lesser General Public License as published by
   the Free Software Foundation, either version 3 of the License, or
   (at your option) any later version.
   
   xtb is distributed in the hope that it will be useful,
   but WITHOUT ANY WARRANTY; without even the implied warranty of
   MERCHANTABILITY or FITNESS FOR A PARTICULAR PURPOSE.  See the
   GNU Lesser General Public License for more details.
   
   Cite this work as:
   * C. Bannwarth, E. Caldeweyher, S. Ehlert, A. Hansen, P. Pracht,
     J. Seibert, S. Spicher, S. Grimme, WIREs Comput. Mol. Sci., 2020, 11,
     e01493. DOI: 10.1002/wcms.1493
   
   for GFN2-xTB:
   * C. Bannwarth, S. Ehlert and S. Grimme., J. Chem. Theory Comput., 2019,
     15, 1652-1671. DOI: 10.1021/acs.jctc.8b01176
   for GFN1-xTB:
   * S. Grimme, C. Bannwarth, P. Shushkov, J. Chem. Theory Comput., 2017,
     13, 1989-2009. DOI: 10.1021/acs.jctc.7b00118
   for GFN0-xTB:
   * P. Pracht, E. Caldeweyher, S. Ehlert, S. Grimme, ChemRxiv, 2019, preprint.
     DOI: 10.26434/chemrxiv.8326202.v1
   for GFN-FF:
   * S. Spicher and S. Grimme, Angew. Chem. Int. Ed., 2020, 59, 15665-15673.
     DOI: 10.1002/anie.202004239
   
   for ALPB and GBSA implicit solvation:
   * S. Ehlert, M. Stahn, S. Spicher, S. Grimme, J. Chem. Theory Comput.,
     2021, 17, 4250-4261. DOI: 10.1021/acs.jctc.1c00471
   
   for ddCOSMO and CPCM-X implicit solvation:
   * M. Stahn, S. Ehlert, S. Grimme, J. Phys. Chem. A,
     2023, XX, XXXX-XXXX. DOI: 10.1021/acs.jpca.3c04382
   
   for DFT-D4:
   * E. Caldeweyher, C. Bannwarth and S. Grimme, J. Chem. Phys., 2017,
     147, 034112. DOI: 10.1063/1.4993215
   * E. Caldeweyher, S. Ehlert, A. Hansen, H. Neugebauer, S. Spicher,
     C. Bannwarth and S. Grimme, J. Chem. Phys., 2019, 150, 154122.
     DOI: 10.1063/1.5090222
   * E. Caldeweyher, J.-M. Mewes, S. Ehlert and S. Grimme, Phys. Chem. Chem. Phys.
     2020, 22, 8499-8512. DOI: 10.1039/D0CP00502A
   
   for sTDA-xTB:
   * S. Grimme and C. Bannwarth, J. Chem. Phys., 2016, 145, 054103.
     DOI: 10.1063/1.4959605
   
   in the mass-spec context:
   * V. Asgeirsson, C. Bauer and S. Grimme, Chem. Sci., 2017, 8, 4879.
     DOI: 10.1039/c7sc00601b
   * J. Koopman and S. Grimme, ACS Omega 2019, 4, 12, 15120-15133.
     DOI: 10.1021/acsomega.9b02011
   
   for metadynamics refer to:
   * S. Grimme, J. Chem. Theory Comput., 2019, 155, 2847-2862
     DOI: 10.1021/acs.jctc.9b00143
   
   for SPH calculations refer to:
   * S. Spicher and S. Grimme, J. Chem. Theory Comput., 2021, 17, 1701-1714
     DOI: 10.1021/acs.jctc.0c01306
   
   for ONIOM refer to:
   * C. Plett, A. Katbashev, S. Ehlert, S. Grimme, M. Bursch,
     Phys. Chem. Chem. Phys., 2023, 25, 17860-17868. DOI: 10.1039/D3CP02178E
   
   for DIPRO refer to:
   * J. Kohn, N. Gildemeister, S. Grimme, D. Fazzi, A. Hansen,
     J. Chem. Phys., 2023, just accepted.
   
   for PTB refer to:
   * S. Grimme, M. Mueller, A. Hansen, J. Chem. Phys., 2023, 158, 124111.
     DOI: 10.1063/5.0137838
   
   with help from (in alphabetical order)
   P. Atkinson, C. Bannwarth, F. Bohle, G. Brandenburg, E. Caldeweyher
   M. Checinski, S. Dohm, S. Ehlert, S. Ehrlich, I. Gerasimov, C. Hölzer
   A. Katbashev, J. Kohn, J. Koopman, C. Lavigne, S. Lehtola, F. März, M. Müller,
   F. Musil, H. Neugebauer, J. Pisarek, C. Plett, P. Pracht, F. Pultar,
   J. Seibert, P. Shushkov, S. Spicher, M. Stahn, M. Steiner, T. Strunk,
   J. Stückrath, T. Rose, and J. Unsleber
   
 * started run on 2026/04/09 at 15:47:06.285     
   ID    Z sym.   atoms
    1    7 N      1, 6, 8
    2    6 C      2-5, 7, 9
    3    8 O      10, 11
    4    1 H      12-20

           -------------------------------------------------
          |                Calculation Setup                |
           -------------------------------------------------

          program call               : /home/analima/Programs/orca-6.1.0-f.0_linux_x86-64/bin/otool_xtb geo_opt_XTB.xyz --grad -c 0 -u 0 -P 1 --namespace geo_opt --input geo_opt_XTB.input.tmp --alpb WATER --acc 0.200000
          calculation namespace      : geo_opt
          coordinate file            : geo_opt_XTB.xyz
          omp threads                :                     1


           -------------------------------------------------
          |                 G F N 2 - x T B                 |
           -------------------------------------------------

        Reference                      10.1021/acs.jctc.8b01176
      * Hamiltonian:
        H0-scaling (s, p, d)           1.850000    2.230000    2.230000
        zeta-weighting                 0.500000
      * Dispersion:
        s8                             2.700000
        a1                             0.520000
        a2                             5.000000
        s9                             5.000000
      * Repulsion:
        kExp                           1.500000    1.000000
        rExp                           1.000000
      * Coulomb:
        alpha                          2.000000
        third order                    shell-resolved
        anisotropic                    true
        a3                             3.000000
        a5                             4.000000
        cn-shift                       1.200000
        cn-exp                         4.000000
        max-rad                        5.000000

      * Solvation model:               ALPB
        Solvent                        WATER
        Parameter file                 internal GFN2-xTB/ALPB
        Dielectric constant                8.0200E+01
        Reference state                gsolv [1 M gas/solution]
        Free energy shift                  1.0808E-03 Eh       6.7819E-01 kcal/mol
        Temperature                        2.9815E+02 K
        Density                            1.0000E+00 kg/L
        Solvent mass                       1.8000E+01 g/mol
        Interaction kernel             P16
        Born radius scaling (c1)           1.4744E+00
        Born radii integrator          GBOBC
        Born offset                        0.0000E+00 a0       0.0000E+00 AA
        H-bond correction              true
        Ion screening                  false
        Surface tension                    1.0000E-05 Eh       1.5569E+01 dyn/cm
        Grid points                               230 per atom
q/qsh data taken from xtbrestart
CAMM data taken from xtbrestart

          ...................................................
          :                      SETUP                      :
          :.................................................:
          :  # basis functions                  53          :
          :  # atomic orbitals                  53          :
          :  # shells                           31          :
          :  # electrons                        60          :
          :  max. iterations                   250          :
          :  Hamiltonian                  GFN2-xTB          :
          :  restarted?                       true          :
          :  GBSA solvation                   true          :
          :  PC potential                    false          :
          :  electronic temp.          300.0000000     K    :
          :  accuracy                    0.2000000          :
          :  -> integral cutoff          0.3198970E+02      :
          :  -> integral neglect         0.2000000E-08      :
          :  -> SCF convergence          0.2000000E-06 Eh   :
          :  -> wf. convergence          0.2000000E-04 e    :
          :  Broyden damping             0.4000000          :
          :  net charge                          0          :
          :  unpaired electrons                  0          :
          ...................................................

 iter      E             dE          RMSdq      gap      omega  full diag
   1    -34.7671924 -0.347672E+02  0.298E-03    3.61       0.0  T
   2    -34.7671924 -0.282974E-08  0.176E-03    3.61      12.7  T
   3    -34.7671924  0.248959E-08  0.509E-04    3.61      43.9  T
   4    -34.7671924 -0.363958E-08  0.109E-04    3.61     204.4  T
   5    -34.7671924 -0.380069E-10  0.559E-05    3.61     399.8  T

   *** convergence criteria satisfied after 5 iterations ***

         #    Occupation            Energy/Eh            Energy/eV
      -------------------------------------------------------------
         1        2.0000           -0.7450001             -20.2725
       ...           ...                  ...                  ...
        24        2.0000           -0.4596855             -12.5087
        25        2.0000           -0.4515439             -12.2871
        26        2.0000           -0.4287036             -11.6656
        27        2.0000           -0.4217299             -11.4759
        28        2.0000           -0.3869107             -10.5284
        29        2.0000           -0.3824193             -10.4062
        30        2.0000           -0.3707314             -10.0881 (HOMO)
        31                         -0.2381825              -6.4813 (LUMO)
        32                         -0.2012000              -5.4749
        33                         -0.1687255              -4.5913
        34                          0.0317890               0.8650
        35                          0.0401971               1.0938
       ...                                ...                  ...
        53                          0.6305957              17.1594
      -------------------------------------------------------------
                  HL-Gap            0.1325489 Eh            3.6068 eV
             Fermi-level           -0.3044570 Eh           -8.2847 eV

 SCC (total)                   0 d,  0 h,  0 min,  0.010 sec
 SCC setup                      ...        0 min,  0.000 sec (  3.445%)
 Dispersion                     ...        0 min,  0.000 sec (  0.887%)
 classical contributions        ...        0 min,  0.000 sec (  0.196%)
 integral evaluation            ...        0 min,  0.001 sec ( 11.089%)
 iterations                     ...        0 min,  0.004 sec ( 42.720%)
 molecular gradient             ...        0 min,  0.004 sec ( 41.091%)
 printout                       ...        0 min,  0.000 sec (  0.449%)

         :::::::::::::::::::::::::::::::::::::::::::::::::::::
         ::                     SUMMARY                     ::
         :::::::::::::::::::::::::::::::::::::::::::::::::::::
         :: total energy             -34.365501263963 Eh    ::
         :: total w/o Gsasa/hb       -34.351598280135 Eh    ::
         :: gradient norm              0.000135766004 Eh/a0 ::
         :: HOMO-LUMO gap              3.606837939056 eV    ::
         ::.................................................::
         :: SCC energy               -34.767067939247 Eh    ::
         :: -> isotropic ES            0.096485244943 Eh    ::
         :: -> anisotropic ES          0.002796472931 Eh    ::
         :: -> anisotropic XC          0.015426116136 Eh    ::
         :: -> dispersion             -0.017391408029 Eh    ::
         :: -> Gsolv                  -0.029398983810 Eh    ::
         ::    -> Gelec               -0.015495999982 Eh    ::
         ::    -> Gsasa               -0.001795928100 Eh    ::
         ::    -> Ghb                 -0.013187815426 Eh    ::
         ::    -> Gshift               0.001080759698 Eh    ::
         :: repulsion energy           0.401566675284 Eh    ::
         :: add. restraining           0.000000000000 Eh    ::
         :: total charge               0.000000000000 e     ::
         :::::::::::::::::::::::::::::::::::::::::::::::::::::


Property printout bound to 'properties.out'

           -------------------------------------------------
          | TOTAL ENERGY              -34.365501263963 Eh   |
          | GRADIENT NORM               0.000135766004 Eh/α |
          | HOMO-LUMO GAP               3.606837939056 eV   |
           -------------------------------------------------

------------------------------------------------------------------------
 * finished run on 2026/04/09 at 15:47:06.301     
------------------------------------------------------------------------
 total:
 * wall-time:     0 d,  0 h,  0 min,  0.016 sec
 *  cpu-time:     0 d,  0 h,  0 min,  0.014 sec
 * ratio c/w:     0.914 speedup
 SCF:
 * wall-time:     0 d,  0 h,  0 min,  0.010 sec
 *  cpu-time:     0 d,  0 h,  0 min,  0.009 sec
 * ratio c/w:     0.876 speedup


-------------------------   --------------------
FINAL SINGLE POINT ENERGY       -34.365501263960
-------------------------   --------------------


-------------
DIPOLE MOMENT
-------------
                                X             Y             Z
Total Dipole Moment    :      1.29700      -0.42400       0.27400
                        -----------------------------------------
Magnitude (a.u.)       :      1.39178
Magnitude (Debye)      :      3.53763

                                *** OPTIMIZATION RUN DONE ***


--------------------------------
SUGGESTED CITATIONS FOR THIS RUN
--------------------------------

Below you find a list of papers that are relevant to this ORCA run
We neither can nor want to force you to cite these papers, but we appreciate if you do
You receive ORCA, which is the product of decades of hard work by many enthusiastic individuals, for free
The only thing we kindly ask in return is that you cite our papers,
We deeply appreciate it, if you show your appreciation for ORCA by not just citing the generic ORCA reference.

Please note that relegating all ORCA citations to the supporting information does *not* help us.
SI sections are not indexed - citations you put there will not count into any citation statistics
But we need these citations in order to attract the funding resources that allow us to do what we are doing

Therefore, if you are a happy ORCA user, please consider citing a few of the papers listed below in the main body of your paper

In addition to the list printed below, the program has created the file geo_opt.bibtex that contains the list in bibtex format
You can import this file easily into all common literature databanks and citation aid programs


List of essential papers. We consider these as the minimum necessary citations

  1. Bannwarth, C.; Ehlert, S.; Grimme, S.
     GFN2-xTB—An Accurate and Broadly Parametrized Self-Consistent Tight-Binding Quantum Chemical Method with Multipole Electrostatics and Density-Dependent Dispersion Contributions
     J. Chem. Theory Comput. 2019 15(3), 1652-1671
     doi.org/10.1021/acs.jctc.8b01176
  2. Neese, F.
     Software update: the ORCA program system, version 6.0
     WIRES Comput. Molec. Sci. 2025 15(1), e70019
     doi.org/10.1002/wcms.7019

List of papers to cite with high priority. The work reported in these papers was absolutely
necessary for this run to complete.
Our perspective: the developers of density functionals and basis sets usually get cited in chemistry papers
Good! But without the algorithms to do something with them, the functionals or basis sets would not do anything.
Hence, in our opinion, the algorithm design and method developments papers are equally worthy of getting cited

  1. Bannwarth, C.; Caldeweyher, E.; Ehlert, S.; Hansen, A.; Pracht, P.; Seibert, J.; Spicher, S.; Grimme, S.
     Extended tight-binding quantum chemistry methods
     WIRES Comput. Molec. Sci. 2020 11(2), e1493
     doi.org/10.1002/wcms.1493

List of suggested additional citations. These are papers that are important in the 'surrounding' of 
of this run, or papers that preceded the highly important papers. If you like your results we are grateful for a citation.

  1. Neese, F.
     The ORCA program system
     WIRES Comput. Molec. Sci. 2012 2(1), 73-78
     doi.org/10.1002/wcms.81
  2. Neese, F.
     Software update: the ORCA program system, version 4.0
     WIRES Comput. Molec. Sci. 2018 8(1), 1-6
     doi.org/10.1002/wcms.1327
  3. Neese, F.; Wennmohs, F.; Becker, U.; Riplinger, C.
     The ORCA quantum chemistry program package
     J. Chem. Phys. 2020 152(22), 224108
     doi.org/10.1063/5.0004608
  4. Neese, F.
     Software update: The ORCA program system—Version 5.0
     WIRES Comput. Molec. Sci. 2022 12(1), e1606
     doi.org/10.1002/wcms.1606

List of optional additional citations

  1. Neese, F.
     Approximate second-order SCF convergence for spin unrestricted wavefunctions
     Chem. Phys. Lett. 2000 325(1-3), 93-98
     doi.org/10.1016/s0009-2614(00)00662-x

Timings for individual modules:

Sum of individual times          ...        0.420 sec (=   0.007 min)
Geometry relaxation              ...        0.028 sec (=   0.000 min)   6.6 %
XTB module                       ...        0.393 sec (=   0.007 min)  93.4 %
                             ****ORCA TERMINATED NORMALLY****
TOTAL RUN TIME: 0 days 0 hours 0 minutes 0 seconds 472 msec
