24
Coordinates from ORCA-job geo_opt_tzvp E -700.809437430718
  N          -2.18274282540327      1.08735902437194      0.92855632214290
  C          -2.50953243311642     -0.37617560356858      0.89974243845028
  C          -1.76775914483665     -1.23954294495714     -0.12457004502193
  O          -2.15859153910248     -2.40647101697138     -0.27534651537229
  N          -0.72822652054157     -0.67969147199795     -0.77885432475907
  C           0.26957620766596     -1.46009970291289     -1.52355655874847
  C           1.58147427944702     -1.18632913285356     -0.77502576233812
  O           2.02782679189079     -1.96214206710498      0.08098623026638
  N           2.09992971467665      0.04982618391603     -1.02313388431174
  C           2.74701364101058      0.82616866173693      0.02438528530363
  C           1.73557717647005      1.58624241979601      0.93607125745409
  O           0.49352432864402      1.50784169544844      0.62795908549758
  O           2.22511720584399      2.22725730585086      1.89225616094389
  H          -2.67567053889815      1.53605259997203      1.71211443940329
  H          -1.14705672249106      1.29442047872876      1.04004572545590
  H          -2.49844930729861      1.55909414149383      0.07003089298030
  H          -3.58588780998308     -0.47704058124600      0.72156762537266
  H          -2.28304333866131     -0.78014916753360      1.89501590637560
  H          -0.35960224747461      0.22846376130712     -0.44233028944326
  H           0.31541148851001     -1.12909589468479     -2.57188583404829
  H           0.01046252067667     -2.52257620050874     -1.48107344809040
  H           1.61618327993222      0.60150822361696     -1.72940739309208
  H           3.42903531296893      1.56048098630965     -0.42556033144508
  H           3.34543046007031      0.15459832179105      0.65212760702424
