24
Coordinates from ORCA-job geo_opt_tzvp E -700.809403544176
  N      -2.184388      1.091002      0.928079
  C      -2.500474     -0.376769      0.906564
  C      -1.757922     -1.238444     -0.119080
  O      -2.140543     -2.410223     -0.260652
  N      -0.730106     -0.672067     -0.787652
  C       0.268587     -1.457189     -1.529222
  C       1.580636     -1.188040     -0.779146
  O       2.024722     -1.967263      0.076115
  N       2.106507      0.046275     -1.027373
  C       2.744556      0.819802      0.030335
  C       1.725837      1.584262      0.929635
  O       0.487863      1.528561      0.595283
  O       2.205832      2.209455      1.902075
  H      -2.676637      1.538770      1.712619
  H      -1.150088      1.305761      1.033628
  H      -2.508612      1.556856      0.069604
  H      -3.576835     -0.485595      0.734348
  H      -2.265218     -0.774748      1.901982
  H      -0.359268      0.235895     -0.451443
  H       0.316801     -1.126591     -2.577322
  H       0.005455     -2.518420     -1.485810
  H       1.616373      0.603241     -1.725196
  H       3.435208      1.551237     -0.411050
  H       3.331714      0.144231      0.663794
24
Coordinates from ORCA-job geo_opt_tzvp E -700.809343067269
  N      -2.196819      1.097119      0.911293
  C      -2.501531     -0.372062      0.906512
  C      -1.755389     -1.238514     -0.111904
  O      -2.133300     -2.412061     -0.244750
  N      -0.729241     -0.673660     -0.783827
  C       0.268643     -1.457083     -1.527321
  C       1.582696     -1.184727     -0.782547
  O       2.034638     -1.965006      0.066583
  N       2.100747      0.052985     -1.027713
  C       2.749005      0.822422      0.025780
  C       1.738044      1.567937      0.948590
  O       0.494370      1.485720      0.645491
  O       2.226902      2.188654      1.918552
  H      -2.689573      1.549477      1.692840
  H      -1.163584      1.320839      1.010065
  H      -2.527635      1.551034      0.048939
  H      -3.577651     -0.490784      0.738506
  H      -2.260573     -0.757759      1.905572
  H      -0.362642      0.239352     -0.455871
  H       0.312557     -1.127659     -2.576095
  H       0.007936     -2.518970     -1.482292
  H       1.603811      0.611479     -1.719608
  H       3.425516      1.564364     -0.420137
  H       3.353073      0.146901      0.643458
24
Coordinates from ORCA-job geo_opt_tzvp E -700.809414487279
  N      -2.183112      1.088760      0.925226
  C      -2.508801     -0.374508      0.899803
  C      -1.763315     -1.239455     -0.119825
  O      -2.148392     -2.408758     -0.262528
  N      -0.729544     -0.677527     -0.781857
  C       0.269107     -1.459696     -1.524155
  C       1.581060     -1.185739     -0.776943
  O       2.029857     -1.962665      0.075917
  N       2.099216      0.051113     -1.024394
  C       2.746903      0.825401      0.024899
  C       1.735590      1.576212      0.942696
  O       0.493797      1.498712      0.634545
  O       2.225415      2.222822      1.894215
  H      -2.679653      1.539685      1.705146
  H      -1.147737      1.295072      1.040845
  H      -2.495006      1.556949      0.063431
  H      -3.584630     -0.476369      0.718624
  H      -2.284511     -0.775027      1.897093
  H      -0.362148      0.233330     -0.449214
  H       0.315161     -1.129760     -2.572800
  H       0.009054     -2.521889     -1.480027
  H       1.607365      0.605905     -1.722959
  H       3.424212      1.564610     -0.424497
  H       3.350113      0.152820      0.646874
24
Coordinates from ORCA-job geo_opt_tzvp E -700.809112426644
  N      -2.156631      1.073676      0.954836
  C      -2.515828     -0.380749      0.892487
  C      -1.776927     -1.240177     -0.136828
  O      -2.174948     -2.402778     -0.298499
  N      -0.731590     -0.681485     -0.782852
  C       0.269926     -1.462850     -1.520607
  C       1.575607     -1.186484     -0.763082
  O       2.010946     -1.954275      0.105055
  N       2.103573      0.043725     -1.022760
  C       2.741026      0.833491      0.021044
  C       1.724337      1.622897      0.901355
  O       0.485173      1.542801      0.583355
  O       2.201622      2.243959      1.876209
  H      -2.653452      1.519271      1.737576
  H      -1.117907      1.252205      1.089759
  H      -2.444857      1.568134      0.099449
  H      -3.591333     -0.454637      0.696498
  H      -2.313069     -0.808208      1.883141
  H      -0.359300      0.220952     -0.436280
  H       0.323343     -1.132520     -2.568836
  H       0.010274     -2.525190     -1.478264
  H       1.629374      0.587968     -1.741321
  H       3.437564      1.552202     -0.431819
  H       3.323077      0.168074      0.670496
24
Coordinates from ORCA-job geo_opt_tzvp E -700.809437298204
  N      -2.183685      1.087551      0.926901
  C      -2.507843     -0.376741      0.901516
  C      -1.765715     -1.239752     -0.122631
  O      -2.152216     -2.408702     -0.268731
  N      -0.730119     -0.677410     -0.781428
  C       0.268608     -1.458134     -1.525086
  C       1.580167     -1.186214     -0.775517
  O       2.024984     -1.962863      0.080409
  N       2.101893      0.049000     -1.023850
  C       2.747249      0.824577      0.025949
  C       1.734990      1.585836      0.935359
  O       0.493644      1.512034      0.622724
  O       2.222828      2.223217      1.894828
  H      -2.675553      1.536959      1.710623
  H      -1.147844      1.295894      1.035182
  H      -2.502287      1.556803      0.068105
  H      -3.584280     -0.479811      0.725070
  H      -2.278874     -0.778465      1.897093
  H      -0.361315      0.230433     -0.444141
  H       0.315758     -1.126258     -2.573065
  H       0.008342     -2.520306     -1.483390
  H       1.616627      0.602528     -1.727696
  H       3.431170      1.558022     -0.422536
  H       3.343472      0.151801      0.654429
24
Coordinates from ORCA-job geo_opt_tzvp E -700.809437815359
  N      -2.182033      1.088027      0.928329
  C      -2.509896     -0.375240      0.899407
  C      -1.765335     -1.240109     -0.121574
  O      -2.154586     -2.407742     -0.269861
  N      -0.728497     -0.679331     -0.779667
  C       0.269609     -1.460280     -1.523611
  C       1.581770     -1.186040     -0.776070
  O       2.029178     -1.961703      0.079295
  N       2.099704      0.050491     -1.024382
  C       2.746740      0.826619      0.023554
  C       1.735266      1.583284      0.937567
  O       0.492963      1.502896      0.631143
  O       2.224701      2.223863      1.893950
  H      -2.678579      1.537969      1.708842
  H      -1.146828      1.293914      1.045181
  H      -2.492866      1.558978      0.067607
  H      -3.585703     -0.475263      0.717393
  H      -2.287341     -0.778585      1.895828
  H      -0.360559      0.229887     -0.445214
  H       0.315101     -1.129850     -2.572121
  H       0.010368     -2.522691     -1.480242
  H       1.612728      0.602979     -1.727903
  H       3.426685      1.562822     -0.426533
  H       3.347409      0.155104      0.649196
24
Coordinates from ORCA-job geo_opt_tzvp E -700.809440964658
  N      -2.182350      1.087525      0.928518
  C      -2.509434     -0.375925      0.899712
  C      -1.766847     -1.239695     -0.123637
  O      -2.156077     -2.407338     -0.272361
  N      -0.728751     -0.679229     -0.779875
  C       0.269448     -1.459908     -1.523838
  C       1.581132     -1.186175     -0.775128
  O       2.027512     -1.962047      0.080682
  N       2.100069      0.049848     -1.023500
  C       2.746891      0.826127      0.024361
  C       1.735294      1.585239      0.936403
  O       0.493280      1.506534      0.628314
  O       2.224544      2.226135      1.892734
  H      -2.676350      1.536635      1.711154
  H      -1.146794      1.294111      1.041551
  H      -2.496619      1.558952      0.069299
  H      -3.585635     -0.476552      0.720420
  H      -2.284068     -0.779663      1.895343
  H      -0.360407      0.229317     -0.444024
  H       0.315655     -1.129004     -2.572173
  H       0.010101     -2.522323     -1.481198
  H       1.615152      0.602001     -1.728661
  H       3.428441      1.560934     -0.425541
  H       3.345814      0.154501      0.651561
24
Coordinates from ORCA-job geo_opt_tzvp E -700.809437430718
  N      -2.182743      1.087359      0.928556
  C      -2.509532     -0.376176      0.899742
  C      -1.767759     -1.239543     -0.124570
  O      -2.158592     -2.406471     -0.275347
  N      -0.728227     -0.679691     -0.778854
  C       0.269576     -1.460100     -1.523557
  C       1.581474     -1.186329     -0.775026
  O       2.027827     -1.962142      0.080986
  N       2.099930      0.049826     -1.023134
  C       2.747014      0.826169      0.024385
  C       1.735577      1.586242      0.936071
  O       0.493524      1.507842      0.627959
  O       2.225117      2.227257      1.892256
  H      -2.675671      1.536053      1.712114
  H      -1.147057      1.294420      1.040046
  H      -2.498449      1.559094      0.070031
  H      -3.585888     -0.477041      0.721568
  H      -2.283043     -0.780149      1.895016
  H      -0.359602      0.228464     -0.442330
  H       0.315411     -1.129096     -2.571886
  H       0.010463     -2.522576     -1.481073
  H       1.616183      0.601508     -1.729407
  H       3.429035      1.560481     -0.425560
  H       3.345430      0.154598      0.652128
