24
zwitterion conformer 3
N      -2.18438775     1.09100171     0.92807922
C      -2.50047400    -0.37676885     0.90656448
C      -1.75792217    -1.23844373    -0.11908005
O      -2.14054250    -2.41022306    -0.26065181
N      -0.73010599    -0.67206654    -0.78765183
C       0.26858659    -1.45718889    -1.52922197
C       1.58063635    -1.18804039    -0.77914631
O       2.02472154    -1.96726326     0.07611455
N       2.10650729     0.04627482    -1.02737318
C       2.74455554     0.81980202     0.03033493
C       1.72583706     1.58426202     0.92963542
O       0.48786340     1.52856073     0.59528307
O       2.20583160     2.20945530     1.90207533
H      -2.67663708     1.53877025     1.71261919
H      -1.15008845     1.30576092     1.03362808
H      -2.50861222     1.55685593     0.06960446
H      -3.57683508    -0.48559474     0.73434778
H      -2.26521756    -0.77474847     1.90198174
H      -0.35926836     0.23589549    -0.45144336
H       0.31680142    -1.12659057    -2.57732240
H       0.00545450    -2.51841974    -1.48580997
H       1.61637333     0.60324077    -1.72519613
H       3.43520848     1.55123723    -0.41105024
H       3.33171404     0.14423107     0.66379359
