24
Coordinates from ORCA-job geo_opt E -700.797219723053
  N           3.19591461980706      0.83694277949120      1.46537096017363
  C           2.41783064070209     -0.41800127496196      1.24007363228750
  C           1.48367143330935     -0.16195720043855      0.05210194659448
  O           1.30870837296706      1.00284474717711     -0.35736102963941
  N           0.88511243104062     -1.24360127912370     -0.46619320268227
  C          -0.05191967131858     -1.17462386722476     -1.58733052060376
  C          -1.49892072580641     -0.87318393178526     -1.14716365979820
  O          -2.38767943205773     -1.74173419735759     -1.21280032684990
  N          -1.70022581361789      0.39019309116036     -0.71440003953134
  C          -2.95362019512238      0.85914256119759     -0.14805742493987
  C          -3.04969825171310      0.84117513958068      1.40882810849567
  O          -2.08100501031342      0.37546453603127      2.07417569109903
  O          -4.13385488833001      1.31369688665827      1.86502670345869
  H           2.67956883791466      1.59773152011236      0.97452626640628
  H           4.13946608950541      0.78502759610484      1.06134977295381
  H           3.28592238519774      1.07088198321445      2.46117384919011
  H           3.10362983305875     -1.25203115796758      1.06151945395602
  H           1.82157916641048     -0.62515057482188      2.13679303021049
  H           1.05937877356440     -2.15389859177711     -0.04560741053494
  H           0.29739255217581     -0.40126154667651     -2.28527814762792
  H          -0.04666475713573     -2.14507209787571     -2.09321068697422
  H          -0.88000045927109      0.99455325519662     -0.64748752692560
  H          -3.13118602385595      1.88908856799788     -0.48861322004885
  H          -3.76339989711116      0.23377303608801     -0.54659430866943
