24
Coordinates from ORCA-job geo_opt E -700.785936417645
  N       2.619247      0.968332      1.608022
  C       2.015028     -0.339971      1.296343
  C       1.306211     -0.187925     -0.049442
  O       1.297602      0.915170     -0.592999
  N       0.808897     -1.303074     -0.582242
  C      -0.072372     -1.263406     -1.736936
  C      -1.474551     -0.885233     -1.245395
  O      -2.354050     -1.726433     -1.086258
  N      -1.620489      0.423251     -0.987761
  C      -2.613211      0.877903     -0.047121
  C      -2.081307      0.725168      1.424095
  O      -0.952150      0.217395      1.555640
  O      -2.830196      1.129643      2.327717
  H       2.331753      1.570198      0.797985
  H       3.640835      0.935649      1.669137
  H       2.230108      1.376006      2.462079
  H       2.758363     -1.133245      1.249319
  H       1.238060     -0.597791      2.017846
  H       0.712956     -2.112996      0.013363
  H       0.300594     -0.513966     -2.436523
  H      -0.099567     -2.247687     -2.201408
  H      -0.781709      0.992596     -1.028259
  H      -2.871492      1.920663     -0.229798
  H      -3.508557      0.259754     -0.136561
24
Coordinates from ORCA-job geo_opt E -700.793776544804
  N       2.842050      0.929601      1.553739
  C       2.238317     -0.389584      1.244128
  C       1.429317     -0.205042     -0.047081
  O       1.354198      0.925593     -0.558605
  N       0.892286     -1.314635     -0.574389
  C      -0.057121     -1.246019     -1.686234
  C      -1.471678     -0.888932     -1.179530
  O      -2.360660     -1.746180     -1.077080
  N      -1.643423      0.424567     -0.897354
  C      -2.756868      0.903095     -0.086750
  C      -2.549211      0.789474      1.474938
  O      -1.490835      0.243930      1.884959
  O      -3.498072      1.228350      2.175665
  H       2.489315      1.556681      0.785516
  H       3.867712      0.915958      1.541307
  H       2.516949      1.305245      2.451483
  H       3.004552     -1.160316      1.121162
  H       1.534878     -0.684036      2.029633
  H       0.851556     -2.150961      0.005418
  H       0.296444     -0.478622     -2.384919
  H      -0.089519     -2.219129     -2.184139
  H      -0.791729      0.991624     -0.864792
  H      -2.959390      1.952735     -0.330193
  H      -3.649068      0.316604     -0.336042
24
Coordinates from ORCA-job geo_opt E -700.793723772688
  N       2.919617      0.903179      1.564570
  C       2.341955     -0.425449      1.214595
  C       1.472584     -0.208646     -0.035528
  O       1.328123      0.947344     -0.485820
  N       0.916086     -1.308812     -0.572437
  C      -0.064041     -1.230031     -1.664237
  C      -1.485209     -0.900979     -1.155203
  O      -2.359016     -1.780312     -1.051789
  N      -1.683111      0.411130     -0.865393
  C      -2.835021      0.884008     -0.106306
  C      -2.720529      0.805821      1.458498
  O      -1.643278      0.366770      1.957991
  O      -3.667084      1.382558      2.071875
  H       2.518831      1.563352      0.851113
  H       3.944533      0.921173      1.505989
  H       2.636529      1.221724      2.498697
  H       3.137675     -1.153437      1.024454
  H       1.706478     -0.783796      2.033613
  H       0.935191     -2.171998     -0.027912
  H       0.272672     -0.453627     -2.364313
  H      -0.090348     -2.198275     -2.175008
  H      -0.840408      0.991855     -0.832987
  H      -3.033090      1.929325     -0.383404
  H      -3.709140      0.287122     -0.400218
24
Coordinates from ORCA-job geo_opt E -700.795204943568
  N       3.046752      0.874529      1.557289
  C       2.474362     -0.458344      1.174967
  C       1.520657     -0.207563     -0.008966
  O       1.310008      0.968962     -0.389990
  N       0.921921     -1.295163     -0.534645
  C      -0.087340     -1.212283     -1.606354
  C      -1.510938     -0.893440     -1.106564
  O      -2.375524     -1.786376     -0.989498
  N      -1.721920      0.420208     -0.823072
  C      -2.911878      0.907304     -0.144492
  C      -2.903477      0.891744      1.408692
  O      -1.908095      0.395362      2.027586
  O      -3.987077      1.340228      1.911727
  H       2.592738      1.572569      0.921382
  H       4.065389      0.917043      1.427807
  H       2.843191      1.131973      2.530542
  H       3.289570     -1.136967      0.899692
  H       1.943825     -0.879347      2.040236
  H       1.015090     -2.181659     -0.035420
  H       0.239998     -0.444565     -2.322664
  H      -0.116050     -2.184520     -2.111452
  H      -0.885293      1.006108     -0.804532
  H      -3.085556      1.944518     -0.473347
  H      -3.770353      0.309680     -0.488083
24
Coordinates from ORCA-job geo_opt E -700.796479044106
  N       3.061319      0.874631      1.531612
  C       2.456997     -0.447057      1.182385
  C       1.491560     -0.197618      0.015165
  O       1.340952      0.962697     -0.418374
  N       0.902742     -1.284935     -0.507399
  C      -0.076602     -1.206572     -1.595056
  C      -1.499098     -0.884865     -1.099132
  O      -2.376282     -1.763558     -1.032101
  N      -1.705403      0.421331     -0.804272
  C      -2.910940      0.904970     -0.151365
  C      -2.924678      0.850040      1.405842
  O      -1.937464      0.342047      2.012023
  O      -3.983506      1.319426      1.923025
  H       2.605751      1.568829      0.894698
  H       4.076543      0.896242      1.379756
  H       2.877296      1.148108      2.503806
  H       3.247030     -1.152278      0.905183
  H       1.916274     -0.838321      2.051201
  H       0.982446     -2.166877     -0.004797
  H       0.261323     -0.438220     -2.302369
  H      -0.099374     -2.178133     -2.098590
  H      -0.869620      1.005627     -0.754273
  H      -3.074653      1.947412     -0.457444
  H      -3.762614      0.317075     -0.518684
24
Coordinates from ORCA-job geo_opt E -700.796767977673
  N       3.078005      0.872018      1.526365
  C       2.471333     -0.447702      1.174307
  C       1.502962     -0.196102      0.011316
  O       1.343072      0.963993     -0.416775
  N       0.897457     -1.280373     -0.494799
  C      -0.075572     -1.205510     -1.585701
  C      -1.501139     -0.880825     -1.099748
  O      -2.379462     -1.758566     -1.039439
  N      -1.703671      0.420046     -0.785239
  C      -2.920395      0.904178     -0.152639
  C      -2.966107      0.841771      1.404293
  O      -1.987716      0.340454      2.027066
  O      -4.023581      1.329256      1.905748
  H       2.621808      1.570958      0.896269
  H       4.092016      0.892674      1.366817
  H       2.902809      1.139274      2.502090
  H       3.261530     -1.149709      0.889419
  H       1.936603     -0.844535      2.044110
  H       0.991371     -2.166046     -0.001406
  H       0.267114     -0.442439     -2.296590
  H      -0.097525     -2.180124     -2.083487
  H      -0.869949      1.007606     -0.734251
  H      -3.074963      1.948568     -0.456504
  H      -3.766000      0.321137     -0.540381
24
Coordinates from ORCA-job geo_opt E -700.796983886461
  N       3.119474      0.863114      1.517320
  C       2.506434     -0.453186      1.161246
  C       1.512847     -0.192136      0.022947
  O       1.340727      0.969459     -0.394858
  N       0.887856     -1.271981     -0.465884
  C      -0.076151     -1.200726     -1.562665
  C      -1.506552     -0.876009     -1.090027
  O      -2.389692     -1.751076     -1.057832
  N      -1.707607      0.417427     -0.752495
  C      -2.943820      0.903820     -0.161211
  C      -3.040599      0.846916      1.393511
  O      -2.077162      0.360878      2.049064
  O      -4.117157      1.327717      1.859338
  H       2.649455      1.573816      0.912661
  H       4.128403      0.886881      1.327688
  H       2.975655      1.112246      2.503070
  H       3.293876     -1.146079      0.846795
  H       1.997358     -0.865761      2.039153
  H       1.015780     -2.167880      0.000642
  H       0.271054     -0.441507     -2.276189
  H      -0.095904     -2.177614     -2.056575
  H      -0.880017      1.013724     -0.705892
  H      -3.087910      1.947658     -0.472964
  H      -3.776347      0.320299     -0.576001
24
Coordinates from ORCA-job geo_opt E -700.797079938022
  N       3.119777      0.867580      1.513266
  C       2.504322     -0.448233      1.160943
  C       1.512757     -0.191111      0.020409
  O       1.350216      0.966374     -0.412020
  N       0.873164     -1.270194     -0.450247
  C      -0.076744     -1.206446     -1.559301
  C      -1.510928     -0.871198     -1.103305
  O      -2.403545     -1.737811     -1.092823
  N      -1.698611      0.415032     -0.736984
  C      -2.937360      0.907167     -0.156459
  C      -3.045921      0.839794      1.398778
  O      -2.084810      0.350720      2.055408
  O      -4.128645      1.308023      1.862186
  H       2.652406      1.579167      0.907984
  H       4.128369      0.888650      1.320903
  H       2.978501      1.118128      2.498979
  H       3.290178     -1.144062      0.848493
  H       1.992405     -0.857382      2.038761
  H       1.014864     -2.168607      0.007085
  H       0.279777     -0.455223     -2.277119
  H      -0.097054     -2.187665     -2.044437
  H      -0.871370      1.011874     -0.696398
  H      -3.071859      1.954342     -0.461666
  H      -3.769889      0.331085     -0.581594
24
Coordinates from ORCA-job geo_opt E -700.797109052936
  N       3.119906      0.869787      1.512352
  C       2.504550     -0.446488      1.161995
  C       1.512062     -0.191392      0.021098
  O       1.350179      0.965735     -0.413972
  N       0.868703     -1.270637     -0.445437
  C      -0.077922     -1.209542     -1.558545
  C      -1.513061     -0.872595     -1.105995
  O      -2.412291     -1.732940     -1.117300
  N      -1.695741      0.410852     -0.728520
  C      -2.934937      0.907505     -0.153880
  C      -3.046214      0.840945      1.401721
  O      -2.085790      0.350612      2.060137
  O      -4.131102      1.307046      1.862615
  H       2.654012      1.580493      0.904926
  H       4.128749      0.890473      1.321093
  H       2.976872      1.122610      2.497149
  H       3.289822     -1.143362      0.850423
  H       1.991766     -0.854186      2.040044
  H       1.021103     -2.171488      0.003393
  H       0.279212     -0.458884     -2.276846
  H      -0.097687     -2.191006     -2.042851
  H      -0.869090      1.008356     -0.693179
  H      -3.065123      1.955170     -0.459489
  H      -3.767976      0.332936     -0.580090
24
Coordinates from ORCA-job geo_opt E -700.797117518595
  N       3.118395      0.872774      1.508761
  C       2.498758     -0.443329      1.165853
  C       1.508793     -0.190839      0.021746
  O       1.352069      0.965144     -0.419204
  N       0.865540     -1.270460     -0.444358
  C      -0.078120     -1.211445     -1.560820
  C      -1.514317     -0.872274     -1.113682
  O      -2.416692     -1.729265     -1.133329
  N      -1.692400      0.408913     -0.726003
  C      -2.929742      0.908217     -0.150080
  C      -3.041880      0.834859      1.405094
  O      -2.084969      0.334772      2.062260
  O      -4.124624      1.305237      1.866963
  H       2.657322      1.580474      0.893938
  H       4.128153      0.888227      1.321999
  H       2.971418      1.134222      2.490702
  H       3.281417     -1.145893      0.860685
  H       1.981827     -0.842740      2.045281
  H       1.018169     -2.170995      0.004965
  H       0.280848     -0.461955     -2.279404
  H      -0.096460     -2.193646     -2.043446
  H      -0.863444      1.003064     -0.687665
  H      -3.054941      1.957927     -0.450535
  H      -3.765121      0.339010     -0.578880
24
Coordinates from ORCA-job geo_opt E -700.797122591513
  N       3.117290      0.875047      1.504715
  C       2.493282     -0.440668      1.169281
  C       1.507261     -0.190688      0.021076
  O       1.352073      0.964879     -0.421861
  N       0.864714     -1.270287     -0.445217
  C      -0.077820     -1.212731     -1.562818
  C      -1.514361     -0.872111     -1.118485
  O      -2.419796     -1.725338     -1.147590
  N      -1.689041      0.407171     -0.722868
  C      -2.925215      0.908575     -0.146522
  C      -3.038956      0.829720      1.408162
  O      -2.086372      0.320224      2.064529
  O      -4.119036      1.305259      1.870660
  H       2.661495      1.579136      0.881461
  H       4.128140      0.884779      1.323861
  H       2.965148      1.146005      2.483251
  H       3.273254     -1.149182      0.871395
  H       1.971106     -0.831403      2.049480
  H       1.016578     -2.170347      0.005208
  H       0.281709     -0.463883     -2.281767
  H      -0.094892     -2.195458     -2.044209
  H      -0.857855      0.998105     -0.680395
  H      -3.046561      1.959757     -0.442945
  H      -3.762146      0.343439     -0.577560
24
Coordinates from ORCA-job geo_opt E -700.797125306226
  N       3.120685      0.874952      1.501495
  C       2.492996     -0.440121      1.170630
  C       1.506786     -0.190172      0.022545
  O       1.350102      0.966012     -0.418547
  N       0.865352     -1.269490     -0.445052
  C      -0.077363     -1.212419     -1.562377
  C      -1.514307     -0.871500     -1.119798
  O      -2.421030     -1.722989     -1.154918
  N      -1.688247      0.406595     -0.719893
  C      -2.925262      0.908289     -0.145642
  C      -3.043089      0.827905      1.408501
  O      -2.093981      0.314896      2.066933
  O      -4.122886      1.306290      1.868758
  H       2.665504      1.577660      0.875899
  H       4.131572      0.881435      1.320869
  H       2.969024      1.150255      2.478888
  H       3.270768     -1.151743      0.874454
  H       1.970090     -0.826615      2.052301
  H       1.017742     -2.169716      0.004948
  H       0.282132     -0.463932     -2.281806
  H      -0.093576     -2.195490     -2.043125
  H      -0.856090      0.996073     -0.673778
  H      -3.045364      1.959823     -0.441341
  H      -3.761559      0.344003     -0.579102
24
Coordinates from ORCA-job geo_opt E -700.797126871439
  N       3.123769      0.874986      1.498761
  C       2.492916     -0.439481      1.171508
  C       1.506699     -0.189643      0.023435
  O       1.349201      0.966847     -0.416749
  N       0.865502     -1.268744     -0.444350
  C      -0.076958     -1.212419     -1.561699
  C      -1.514282     -0.870338     -1.121182
  O      -2.422516     -1.719914     -1.162385
  N      -1.687009      0.406382     -0.716491
  C      -2.925259      0.908137     -0.144957
  C      -3.047381      0.826193      1.408759
  O      -2.101065      0.310718      2.068947
  O      -4.127406      1.306048      1.867012
  H       2.667760      1.577023      0.872775
  H       4.134339      0.879121      1.316414
  H       2.974385      1.152777      2.475804
  H       3.268850     -1.153661      0.876668
  H       1.969393     -0.822533      2.054346
  H       1.018241     -2.169003      0.005539
  H       0.283104     -0.465145     -2.282225
  H      -0.093169     -2.196164     -2.041104
  H      -0.854064      0.994559     -0.666670
  H      -3.044560      1.959934     -0.440168
  H      -3.760489      0.344320     -0.581146
24
Coordinates from ORCA-job geo_opt E -700.797128189269
  N       3.126723      0.875087      1.496411
  C       2.492536     -0.438659      1.172493
  C       1.506567     -0.188967      0.024207
  O       1.348779      0.967667     -0.415672
  N       0.865510     -1.268031     -0.443615
  C      -0.076581     -1.212543     -1.561187
  C      -1.514297     -0.868983     -1.122865
  O      -2.424098     -1.716606     -1.170434
  N      -1.685711      0.406291     -0.713195
  C      -2.925303      0.907840     -0.144362
  C      -3.051102      0.824687      1.409029
  O      -2.106883      0.307378      2.070586
  O      -4.131536      1.305320      1.865641
  H       2.669109      1.577045      0.871389
  H       4.136662      0.877183      1.310621
  H       2.981259      1.154175      2.473683
  H       3.266626     -1.155470      0.879181
  H       1.968230     -0.818214      2.056404
  H       1.018286     -2.168189      0.006523
  H       0.284285     -0.466891     -2.283088
  H      -0.093330     -2.197070     -2.038993
  H      -0.852091      0.993223     -0.659481
  H      -3.044392      1.959743     -0.439441
  H      -3.759248      0.343983     -0.582995
24
Coordinates from ORCA-job geo_opt E -700.797129828176
  N       3.130295      0.875367      1.493363
  C       2.490579     -0.437029      1.174571
  C       1.506049     -0.187804      0.024993
  O       1.348678      0.968762     -0.415376
  N       0.865359     -1.267028     -0.442948
  C      -0.075957     -1.212726     -1.561168
  C      -1.514254     -0.867133     -1.125997
  O      -2.426155     -1.712036     -1.182658
  N      -1.683857      0.406012     -0.709175
  C      -2.925029      0.907067     -0.143285
  C      -3.054422      0.822444      1.409783
  O      -2.112306      0.302750      2.072408
  O      -4.135131      1.303897      1.864999
  H       2.670809      1.577665      0.870072
  H       4.139137      0.874134      1.301686
  H       2.991404      1.155967      2.471154
  H       3.261695     -1.158469      0.884805
  H       1.964057     -0.810412      2.059821
  H       1.017523     -2.166834      0.008138
  H       0.286189     -0.469354     -2.284862
  H      -0.093622     -2.198288     -2.036795
  H      -0.849360      0.991195     -0.649911
  H      -3.044343      1.959024     -0.438234
  H      -3.757338      0.342829     -0.584543
24
Coordinates from ORCA-job geo_opt E -700.797132130471
  N       3.136412      0.875775      1.487829
  C       2.485302     -0.433571      1.179321
  C       1.504703     -0.185477      0.026205
  O       1.348921      0.970684     -0.415947
  N       0.864892     -1.265103     -0.442133
  C      -0.074635     -1.212684     -1.561908
  C      -1.514062     -0.864240     -1.132306
  O      -2.429238     -1.704488     -1.204913
  N      -1.680924      0.405008     -0.702920
  C      -2.924339      0.905139     -0.141032
  C      -3.058424      0.818041      1.411524
  O      -2.119489      0.293932      2.075307
  O      -4.139073      1.301225      1.865094
  H       2.674956      1.579092      0.867242
  H       4.143121      0.867421      1.285219
  H       3.009872      1.159579      2.466345
  H       3.250245     -1.164826      0.897989
  H       1.953327     -0.793668      2.066859
  H       1.015440     -2.164170      0.010975
  H       0.289741     -0.472608     -2.287954
  H      -0.093361     -2.199723     -2.034381
  H      -0.845008      0.987167     -0.634073
  H      -3.044146      1.957228     -0.435489
  H      -3.754234      0.340268     -0.586010
24
Coordinates from ORCA-job geo_opt E -700.797134985093
  N       3.140532      0.875324      1.484902
  C       2.480459     -0.431227      1.183311
  C       1.503777     -0.183611      0.026826
  O       1.349059      0.972310     -0.416227
  N       0.865208     -1.263643     -0.442652
  C      -0.073408     -1.211969     -1.563261
  C      -1.513648     -0.862876     -1.136578
  O      -2.429967     -1.701100     -1.218171
  N      -1.680036      0.404074     -0.700343
  C      -2.924690      0.902786     -0.139804
  C      -3.059106      0.816391      1.412702
  O      -2.120559      0.291457      2.076601
  O      -4.139465      1.300282      1.866102
  H       2.677134      1.580779      0.868494
  H       4.145088      0.862271      1.271811
  H       3.025350      1.159434      2.464703
  H       3.240512     -1.170299      0.909351
  H       1.943384     -0.780727      2.072050
  H       1.014243     -2.162220      0.011912
  H       0.291928     -0.473115     -2.290071
  H      -0.092443     -2.199518     -2.034624
  H      -0.843806      0.985060     -0.625905
  H      -3.046579      1.954369     -0.435269
  H      -3.752966      0.335767     -0.585018
24
Coordinates from ORCA-job geo_opt E -700.797141871985
  N       3.164153      0.870967      1.466263
  C       2.450668     -0.416859      1.207712
  C       1.497580     -0.172870      0.031264
  O       1.349456      0.981690     -0.417050
  N       0.866501     -1.254850     -0.445193
  C      -0.065642     -1.206479     -1.571317
  C      -1.510597     -0.856020     -1.160986
  O      -2.431828     -1.682712     -1.291650
  N      -1.675530      0.397110     -0.686344
  C      -2.926198      0.888584     -0.132349
  C      -3.062171      0.805776      1.419799
  O      -2.126637      0.275254      2.084600
  O      -4.140232      1.295089      1.872180
  H       2.692762      1.588915      0.872140
  H       4.154155      0.828467      1.195156
  H       3.113522      1.158396      2.450401
  H       3.179289     -1.201581      0.979906
  H       1.884237     -0.700084      2.102038
  H       1.008122     -2.151301      0.015793
  H       0.304640     -0.471672     -2.299794
  H      -0.083639     -2.195773     -2.038855
  H      -0.837863      0.971413     -0.582039
  H      -3.058269      1.937699     -0.432467
  H      -3.746479      0.310841     -0.578365
24
Coordinates from ORCA-job geo_opt E -700.797150894876
  N       3.160657      0.869027      1.473159
  C       2.454990     -0.421008      1.204222
  C       1.499449     -0.174428      0.030186
  O       1.348378      0.981149     -0.414049
  N       0.868783     -1.256092     -0.447994
  C      -0.066322     -1.205193     -1.571694
  C      -1.510631     -0.859935     -1.154652
  O      -2.427482     -1.693841     -1.268562
  N      -1.680580      0.397730     -0.693686
  C      -2.929856      0.888082     -0.135585
  C      -3.057781      0.814274      1.417591
  O      -2.116030      0.293973      2.081676
  O      -4.136491      1.300582      1.871602
  H       2.685879      1.589586      0.885339
  H       4.150796      0.835320      1.201520
  H       3.108664      1.147612      2.459885
  H       3.188465     -1.199389      0.970347
  H       1.890966     -0.714302      2.096812
  H       1.013111     -2.153791      0.009658
  H       0.300375     -0.465661     -2.297069
  H      -0.082639     -2.192390     -2.043782
  H      -0.845648      0.977416     -0.599571
  H      -3.065877      1.935275     -0.440525
  H      -3.751177      0.306003     -0.573985
24
Coordinates from ORCA-job geo_opt E -700.797171903999
  N       3.168471      0.858331      1.477258
  C       2.444951     -0.422778      1.213172
  C       1.498027     -0.170865      0.033311
  O       1.342066      0.987407     -0.400731
  N       0.875733     -1.252447     -0.457100
  C      -0.061945     -1.195645     -1.578397
  C      -1.507639     -0.866459     -1.153212
  O      -2.413704     -1.714029     -1.249549
  N      -1.691718      0.394166     -0.705359
  C      -2.941052      0.876064     -0.139916
  C      -3.048061      0.830516      1.415584
  O      -2.090437      0.337854      2.078241
  O      -4.127948      1.310337      1.873264
  H       2.679791      1.593945      0.921917
  H       4.146624      0.826043      1.164938
  H       3.158471      1.116712      2.471012
  H       3.167175     -1.215875      0.994951
  H       1.868651     -0.694640      2.104920
  H       1.024526     -2.153275     -0.007184
  H       0.297429     -0.443331     -2.294070
  H      -0.070579     -2.177026     -2.062712
  H      -0.863748      0.984899     -0.621178
  H      -3.095654      1.915674     -0.461510
  H      -3.759429      0.274423     -0.556807
24
Coordinates from ORCA-job geo_opt E -700.797194230069
  N       3.183217      0.844252      1.475359
  C       2.431634     -0.423162      1.226688
  C       1.493699     -0.165532      0.041070
  O       1.330775      0.996394     -0.379572
  N       0.882314     -1.246275     -0.464773
  C      -0.055893     -1.182486     -1.584859
  C      -1.503380     -0.873089     -1.151937
  O      -2.397277     -1.735004     -1.231621
  N      -1.702243      0.388729     -0.713593
  C      -2.953083      0.861868     -0.144433
  C      -3.044618      0.845249      1.412412
  O      -2.073994      0.380727      2.076194
  O      -4.127141      1.318824      1.870374
  H       2.679019      1.596120      0.958194
  H       4.143685      0.807048      1.112691
  H       3.227837      1.083944      2.473039
  H       3.135332     -1.237922      1.029696
  H       1.841937     -0.661216      2.119689
  H       1.040635     -2.151933     -0.028099
  H       0.295239     -0.414591     -2.287959
  H      -0.053553     -2.156419     -2.084057
  H      -0.881518      0.990827     -0.639042
  H      -3.126064      1.893159     -0.483184
  H      -3.766559      0.240487     -0.541435
24
Coordinates from ORCA-job geo_opt E -700.797207752287
  N       3.189670      0.838706      1.473335
  C       2.431896     -0.425362      1.229474
  C       1.490588     -0.165319      0.047005
  O       1.320405      0.998913     -0.364914
  N       0.883484     -1.244907     -0.465106
  C      -0.054593     -1.176553     -1.584672
  C      -1.501636     -0.876637     -1.144922
  O      -2.389515     -1.746128     -1.207579
  N      -1.705349      0.387551     -0.715789
  C      -2.957045      0.859769     -0.148427
  C      -3.049969      0.849977      1.408591
  O      -2.078358      0.393614      2.075742
  O      -4.135224      1.321184      1.863212
  H       2.677590      1.593511      0.968234
  H       4.144913      0.800048      1.096973
  H       3.249152      1.075147      2.470931
  H       3.131598     -1.243581      1.032741
  H       1.843176     -0.658103      2.124714
  H       1.052398     -2.154300     -0.040289
  H       0.292250     -0.400331     -2.280830
  H      -0.046639     -2.146177     -2.092143
  H      -0.887098      0.994631     -0.651480
  H      -3.132183      1.889277     -0.491620
  H      -3.769510      0.235070     -0.542339
24
Coordinates from ORCA-job geo_opt E -700.797213733571
  N       3.202632      0.833361      1.462683
  C       2.420844     -0.419919      1.241093
  C       1.487411     -0.161283      0.052790
  O       1.314240      1.004278     -0.354645
  N       0.885991     -1.241132     -0.465513
  C      -0.050428     -1.171726     -1.586589
  C      -1.498994     -0.874367     -1.149245
  O      -2.387533     -1.742255     -1.225070
  N      -1.702966      0.385792     -0.708597
  C      -2.958869      0.854402     -0.147735
  C      -3.057795      0.846650      1.408887
  O      -2.089565      0.388353      2.079566
  O      -4.144000      1.319835      1.859588
  H       2.683536      1.595299      0.976088
  H       4.143976      0.782415      1.053664
  H       3.298748      1.066683      2.458079
  H       3.103653     -1.256757      1.064670
  H       1.823369     -0.621089      2.138339
  H       1.059295     -2.151915     -0.045538
  H       0.296700     -0.394551     -2.281539
  H      -0.040953     -2.140522     -2.095632
  H      -0.884704      0.991939     -0.636406
  H      -3.138334      1.882081     -0.494386
  H      -3.766254      0.224428     -0.543709
24
Coordinates from ORCA-job geo_opt E -700.797217077036
  N       3.198511      0.837028      1.464211
  C       2.422898     -0.419349      1.237894
  C       1.486700     -0.162490      0.051256
  O       1.314384      1.002172     -0.359654
  N       0.883654     -1.242945     -0.463798
  C      -0.052338     -1.174632     -1.585537
  C      -1.500003     -0.872851     -1.147974
  O      -2.390364     -1.739206     -1.220503
  N      -1.700519      0.388677     -0.709658
  C      -2.955257      0.858910     -0.147444
  C      -3.056179      0.841511      1.409240
  O      -2.089589      0.376517      2.077681
  O      -4.141795      1.314121      1.862059
  H       2.684729      1.594542      0.964960
  H       4.146293      0.784498      1.070327
  H       3.278256      1.077077      2.459442
  H       3.110506     -1.251036      1.055370
  H       1.828700     -0.630147      2.135034
  H       1.055811     -2.152961     -0.041653
  H       0.296943     -0.400827     -2.283114
  H      -0.045708     -2.145045     -2.091534
  H      -0.880490      0.992796     -0.639191
  H      -3.130534      1.889184     -0.488360
  H      -3.764609      0.234455     -0.548212
24
Coordinates from ORCA-job geo_opt E -700.797218710074
  N       3.196470      0.836418      1.465923
  C       2.420196     -0.419335      1.238912
  C       1.485032     -0.162378      0.051696
  O       1.310905      1.002571     -0.357625
  N       0.884716     -1.243334     -0.465785
  C      -0.052004     -1.174003     -1.587003
  C      -1.499192     -0.873663     -1.146813
  O      -2.387615     -1.742564     -1.212431
  N      -1.701121      0.389455     -0.713605
  C      -2.954929      0.858439     -0.148183
  C      -3.051182      0.843107      1.408865
  O      -2.081631      0.380815      2.075072
  O      -4.136273      1.314414      1.864234
  H       2.681029      1.595770      0.971536
  H       4.142173      0.784919      1.066877
  H       3.281232      1.072566      2.461672
  H       3.107270     -1.251780      1.057819
  H       1.824831     -0.629277      2.135527
  H       1.058144     -2.153735     -0.045012
  H       0.296636     -0.399298     -2.283829
  H      -0.045640     -2.143822     -2.094122
  H      -0.881633      0.994842     -0.646986
  H      -3.133005      1.887837     -0.490223
  H      -3.764409      0.232034     -0.545674
24
Coordinates from ORCA-job geo_opt E -700.797219723053
  N       3.195915      0.836943      1.465371
  C       2.417831     -0.418001      1.240074
  C       1.483671     -0.161957      0.052102
  O       1.308708      1.002845     -0.357361
  N       0.885112     -1.243601     -0.466193
  C      -0.051920     -1.174624     -1.587331
  C      -1.498921     -0.873184     -1.147164
  O      -2.387679     -1.741734     -1.212800
  N      -1.700226      0.390193     -0.714400
  C      -2.953620      0.859143     -0.148057
  C      -3.049698      0.841175      1.408828
  O      -2.081005      0.375465      2.074176
  O      -4.133855      1.313697      1.865027
  H       2.679569      1.597732      0.974526
  H       4.139466      0.785028      1.061350
  H       3.285922      1.070882      2.461174
  H       3.103630     -1.252031      1.061519
  H       1.821579     -0.625151      2.136793
  H       1.059379     -2.153899     -0.045607
  H       0.297393     -0.401262     -2.285278
  H      -0.046665     -2.145072     -2.093211
  H      -0.880000      0.994553     -0.647488
  H      -3.131186      1.889089     -0.488613
  H      -3.763400      0.233773     -0.546594
