24
zwitterion conformer 3
N       2.61924651     0.96833212     1.60802196
C       2.01502844    -0.33997122     1.29634331
C       1.30621063    -0.18792465    -0.04944185
O       1.29760191     0.91516981    -0.59299940
N       0.80889652    -1.30307432    -0.58224178
C      -0.07237194    -1.26340598    -1.73693582
C      -1.47455126    -0.88523304    -1.24539472
O      -2.35405008    -1.72643328    -1.08625798
N      -1.62048929     0.42325098    -0.98776145
C      -2.61321076     0.87790344    -0.04712139
C      -2.08130700     0.72516763     1.42409501
O      -0.95215048     0.21739470     1.55563967
O      -2.83019643     1.12964326     2.32771723
H       2.33175320     1.57019816     0.79798457
H       3.64083470     0.93564900     1.66913709
H       2.23010797     1.37600568     2.46207867
H       2.75836270    -1.13324452     1.24931894
H       1.23805990    -0.59779147     2.01784569
H       0.71295613    -2.11299581     0.01336268
H       0.30059416    -0.51396590    -2.43652342
H      -0.09956711    -2.24768745    -2.20140787
H      -0.78170892     0.99259629    -1.02825880
H      -2.87149232     1.92066278    -0.22979758
H      -3.50855717     0.25975377    -0.13656085
