24
Coordinates from ORCA-job geo_opt E -43.532524811350
  N           3.52962344282793      1.08360996110420      0.41887171348107
  C           3.58916957952602     -0.13539690762641     -0.41215582089204
  C           2.29842966256063     -0.95010390421505     -0.49683117272279
  O           2.30490140089843     -2.03582317521661     -1.06106746289455
  N           1.22684425106746     -0.43298864196021      0.11416842213379
  C          -0.09089437392654     -1.01621294501713      0.02018894551593
  C          -1.09320869745685      0.13555130919536      0.10820955928371
  O          -0.68082268047308      1.28268029901265      0.28887173970921
  N          -2.36801712912191     -0.20277437373494      0.01201834985321
  C          -3.47182756878661      0.71803068334266     -0.01338133094641
  C          -4.72093144251782     -0.04462800652936     -0.57082691590821
  O          -5.75757471656700      0.61929292943568     -0.72301727849819
  O          -4.55178657181856     -1.25807158880265     -0.80504601922561
  H           2.88488606459775      1.77787220130807      0.02094831628637
  H           3.22398106764534      0.85645190479790      1.37348671747425
  H           4.46514024346330      1.50938703369699      0.46900459895121
  H           3.86576056774458      0.11615202214286     -1.43797785501833
  H           4.35212902754613     -0.81599858558839     -0.02920350574101
  H           1.13667790178409      0.55185496424015      0.36607733190903
  H          -0.27088019638828     -1.71669624459617      0.84126503203747
  H          -0.20951929870800     -1.56069237604828     -0.92081787162943
  H          -2.68016956255773     -1.14493758225657     -0.22919356074443
  H          -3.71775093186796      1.08294038984786      0.98843138241861
  H          -3.26416002947132      1.58050062346741     -0.65160248483283
