24
Coordinates from ORCA-job geo_opt E -43.456904261360
  N       3.593000      0.687330      0.128013
  C       2.895479      0.244283     -1.052177
  C       1.577929     -0.304846     -0.628002
  O       0.829183     -0.744568     -1.563844
  N       1.180689     -0.336452      0.734883
  C      -0.106025     -0.879478      1.086863
  C      -1.140978     -0.064029      0.388455
  O      -0.838006      0.906369     -0.354803
  N      -2.498544     -0.440844      0.606069
  C      -3.580586      0.298459     -0.035354
  C      -3.396004      0.205156     -1.517456
  O      -4.262266      0.800802     -2.215740
  O      -2.343062     -0.489472     -2.094025
  H       3.025293      1.427948      0.598133
  H       3.713146     -0.154845      0.766104
  H       4.556956      1.010564     -0.132198
  H       2.755275      1.120734     -1.724722
  H       3.504035     -0.546034     -1.513668
  H       1.811032      0.029093      1.480095
  H      -0.246020     -0.843058      2.196799
  H      -0.234427     -1.952323      0.783251
  H      -2.727652     -1.264533      1.238563
  H      -4.544438     -0.112496      0.301699
  H      -3.524007      1.402240      0.193483
24
Coordinates from ORCA-job geo_opt E -43.500216317130
  N       3.686231      0.701880      0.207183
  C       2.988815      0.209312     -0.992775
  C       1.634195     -0.340651     -0.643568
  O       0.940934     -0.796208     -1.573915
  N       1.197044     -0.341413      0.663690
  C      -0.108541     -0.848761      0.998323
  C      -1.173004     -0.030819      0.313137
  O      -0.913867      0.939150     -0.406764
  N      -2.475204     -0.416760      0.574987
  C      -3.604798      0.283799     -0.013222
  C      -3.591895      0.192487     -1.524592
  O      -4.526696      0.766760     -2.129188
  O      -2.666798     -0.487137     -2.160593
  H       3.130496      1.456831      0.642650
  H       3.798134     -0.093536      0.874276
  H       4.644133      1.015332     -0.041537
  H       2.865129      1.049874     -1.693381
  H       3.594263     -0.591903     -1.428167
  H       1.797426      0.017867      1.406023
  H      -0.249796     -0.800338      2.092622
  H      -0.234096     -1.909077      0.699517
  H      -2.649897     -1.212025      1.203337
  H      -4.528380     -0.136224      0.391648
  H      -3.553828      1.371560      0.210729
24
Coordinates from ORCA-job geo_opt E -43.515482544360
  N       3.715687      0.727531      0.248433
  C       3.004236      0.190427     -0.946344
  C       1.632805     -0.391894     -0.650020
  O       0.978858     -0.862353     -1.566397
  N       1.198463     -0.379310      0.616410
  C      -0.116898     -0.854143      0.952018
  C      -1.187136     -0.005251      0.278232
  O      -0.923159      0.963602     -0.414175
  N      -2.440232     -0.384678      0.559996
  C      -3.586238      0.285792     -0.004275
  C      -3.659339      0.173000     -1.535907
  O      -4.615457      0.753083     -2.092530
  O      -2.797557     -0.471581     -2.130503
  H       3.170905      1.487429      0.670302
  H       3.854569     -0.025762      0.933685
  H       4.651972      1.056667     -0.020203
  H       2.862038      0.996456     -1.665608
  H       3.606109     -0.605184     -1.385125
  H       1.777483     -0.014750      1.353341
  H      -0.254442     -0.800307      2.033485
  H      -0.251189     -1.894762      0.635451
  H      -2.592019     -1.168809      1.166365
  H      -4.493611     -0.134944      0.423474
  H      -3.535850      1.359744      0.210318
24
Coordinates from ORCA-job geo_opt E -43.520210661490
  N       3.669987      0.824963      0.263385
  C       3.040304      0.169564     -0.915202
  C       1.689309     -0.496228     -0.662526
  O       1.132260     -1.075384     -1.584380
  N       1.213982     -0.475149      0.594261
  C      -0.119733     -0.932169      0.891483
  C      -1.163240      0.001170      0.267802
  O      -0.850355      1.042352     -0.296079
  N      -2.426125     -0.351034      0.548675
  C      -3.560320      0.360714      0.013011
  C      -3.718498      0.194705     -1.525137
  O      -4.676440      0.821596     -2.034561
  O      -2.983797     -0.618702     -2.109288
  H       3.067446      1.577802      0.615536
  H       3.841341      0.133953      1.004830
  H       4.584639      1.209813     -0.006299
  H       2.873392      0.909922     -1.696464
  H       3.704918     -0.605732     -1.295692
  H       1.749993     -0.076810      1.348787
  H      -0.267454     -0.938673      1.971311
  H      -0.277361     -1.940143      0.495784
  H      -2.599853     -1.174721      1.102428
  H      -4.473965      0.003260      0.484725
  H      -3.450435      1.434931      0.194028
24
Coordinates from ORCA-job geo_opt E -43.521060724310
  N       3.586133      0.908245      0.220176
  C       2.987479      0.158320     -0.913299
  C       1.689881     -0.618315     -0.644988
  O       1.177435     -1.252117     -1.557720
  N       1.217160     -0.591074      0.614349
  C      -0.131787     -1.013273      0.906658
  C      -1.145453      0.020729      0.371115
  O      -0.774434      1.084960     -0.116675
  N      -2.419312     -0.320289      0.599222
  C      -3.522661      0.402777      0.019813
  C      -3.669562      0.164057     -1.530898
  O      -4.475324      0.941007     -2.092515
  O      -2.840998     -0.602640     -2.073505
  H       2.936749      1.628782      0.557539
  H       3.845067      0.275972      0.987022
  H       4.445097      1.371999     -0.103464
  H       2.743852      0.840356     -1.727516
  H       3.699118     -0.571378     -1.300953
  H       1.716207     -0.134118      1.360113
  H      -0.264235     -1.085466      1.983570
  H      -0.335319     -1.974068      0.429037
  H      -2.624285     -1.203756      1.041570
  H      -4.459976      0.092692      0.477193
  H      -3.380831      1.476597      0.164576
24
Coordinates from ORCA-job geo_opt E -43.524446297170
  N       3.545365      0.921513      0.198768
  C       2.929673      0.172696     -0.919302
  C       1.664129     -0.648032     -0.625989
  O       1.127023     -1.253268     -1.540386
  N       1.215999     -0.640994      0.638916
  C      -0.134188     -1.053513      0.935982
  C      -1.124999      0.031274      0.455540
  O      -0.719068      1.083359     -0.028119
  N      -2.405495     -0.294300      0.634530
  C      -3.467309      0.446983      0.008008
  C      -3.544967      0.192896     -1.550732
  O      -4.367856      0.912136     -2.152123
  O      -2.811380     -0.697769     -2.015722
  H       2.886040      1.613954      0.574879
  H       3.863807      0.291212      0.944095
  H       4.365626      1.429438     -0.158219
  H       2.631852      0.856969     -1.715215
  H       3.645960     -0.526697     -1.354356
  H       1.694180     -0.146602      1.372884
  H      -0.253111     -1.170525      2.010654
  H      -0.363093     -1.982696      0.411212
  H      -2.633044     -1.214880      0.974298
  H      -4.432166      0.158994      0.421427
  H      -3.312978      1.517853      0.149391
24
Coordinates from ORCA-job geo_opt E -43.526090656860
  N       3.516535      0.956973      0.213413
  C       2.979879      0.151080     -0.896213
  C       1.706114     -0.655971     -0.625483
  O       1.233630     -1.323894     -1.531124
  N       1.218002     -0.637930      0.625208
  C      -0.126438     -1.092359      0.880744
  C      -1.115812     -0.022365      0.374552
  O      -0.699076      1.041202     -0.071580
  N      -2.398789     -0.300561      0.618342
  C      -3.453949      0.489659      0.041860
  C      -3.617750      0.208725     -1.502056
  O      -4.437594      0.938106     -2.084795
  O      -2.970901     -0.737868     -1.966685
  H       2.823977      1.653570      0.518527
  H       3.802287      0.366540      1.005246
  H       4.345983      1.466034     -0.123205
  H       2.720840      0.794451     -1.740737
  H       3.728506     -0.561008     -1.251857
  H       1.619621     -0.059459      1.345821
  H      -0.271913     -1.231848      1.952220
  H      -0.316175     -2.016172      0.331142
  H      -2.643507     -1.239521      0.892718
  H      -4.408702      0.259266      0.513373
  H      -3.234768      1.553351      0.150989
24
Coordinates from ORCA-job geo_opt E -43.527537700370
  N       3.476628      0.980444      0.213809
  C       2.984512      0.143063     -0.889403
  C       1.717505     -0.674368     -0.628892
  O       1.270475     -1.361650     -1.534769
  N       1.219033     -0.666445      0.619641
  C      -0.128743     -1.128942      0.848311
  C      -1.107060     -0.020281      0.407779
  O      -0.669567      1.047576     -0.010022
  N      -2.396540     -0.276589      0.656916
  C      -3.426234      0.533246      0.059148
  C      -3.616339      0.181465     -1.469858
  O      -4.397999      0.917455     -2.092222
  O      -2.994637     -0.808610     -1.887450
  H       2.760326      1.664860      0.491804
  H       3.762297      0.413831      1.023317
  H       4.295633      1.509603     -0.117882
  H       2.733555      0.762156     -1.754953
  H       3.753096     -0.562392     -1.214232
  H       1.552045     -0.015187      1.314194
  H      -0.273464     -1.342004      1.907122
  H      -0.319969     -2.011779      0.236145
  H      -2.654278     -1.239024      0.820974
  H      -4.382881      0.365159      0.553007
  H      -3.157392      1.588411      0.117935
24
Coordinates from ORCA-job geo_opt E -43.528531182900
  N       3.442945      1.002498      0.236591
  C       3.026113      0.125159     -0.869678
  C       1.764393     -0.703370     -0.637282
  O       1.339239     -1.394653     -1.552719
  N       1.228792     -0.689803      0.599357
  C      -0.127827     -1.153678      0.780837
  C      -1.091629     -0.014910      0.403243
  O      -0.639691      1.054170      0.002939
  N      -2.386695     -0.246506      0.676197
  C      -3.406200      0.581573      0.078130
  C      -3.686687      0.138998     -1.409921
  O      -4.461866      0.861544     -2.056793
  O      -3.095959     -0.888191     -1.792683
  H       2.695181      1.671031      0.465490
  H       3.701195      0.460771      1.071559
  H       4.262708      1.548634     -0.063571
  H       2.808390      0.716722     -1.762667
  H       3.823027     -0.572716     -1.133720
  H       1.472976      0.044312      1.249607
  H      -0.285788     -1.449013      1.817410
  H      -0.311595     -1.992060      0.106237
  H      -2.657002     -1.217437      0.767942
  H      -4.338715      0.497233      0.636136
  H      -3.075306      1.619692      0.057781
24
Coordinates from ORCA-job geo_opt E -43.528929943790
  N       3.440770      1.016342      0.249893
  C       3.083749      0.097516     -0.847763
  C       1.797377     -0.701109     -0.657841
  O       1.406458     -1.416074     -1.569794
  N       1.228609     -0.675409      0.566121
  C      -0.129923     -1.146132      0.723638
  C      -1.093757      0.004004      0.403037
  O      -0.650147      1.079636      0.011543
  N      -2.387569     -0.239153      0.674823
  C      -3.418263      0.591756      0.096915
  C      -3.758331      0.118982     -1.364801
  O      -4.564458      0.821391     -1.997802
  O      -3.173765     -0.910545     -1.752739
  H       2.689438      1.701779      0.403065
  H       3.630770      0.502665      1.119693
  H       4.289260      1.538265     -0.010149
  H       2.938493      0.654908     -1.775850
  H       3.885304     -0.622062     -1.023207
  H       1.431439      0.092466      1.192693
  H      -0.288660     -1.501316      1.741320
  H      -0.310159     -1.952205      0.008503
  H      -2.651313     -1.214469      0.737818
  H      -4.325872      0.535817      0.698319
  H      -3.069448      1.622945      0.042988
24
Coordinates from ORCA-job geo_opt E -43.529375310910
  N       3.418390      1.061837      0.249957
  C       3.161292      0.052949     -0.800468
  C       1.870523     -0.749373     -0.656418
  O       1.525611     -1.491269     -1.563694
  N       1.232532     -0.677419      0.533532
  C      -0.130515     -1.151339      0.644830
  C      -1.088275      0.011209      0.379788
  O      -0.646456      1.102745      0.032480
  N      -2.379143     -0.243863      0.644743
  C      -3.424213      0.606367      0.122177
  C      -3.863728      0.127139     -1.305899
  O      -4.718266      0.821799     -1.884161
  O      -3.303948     -0.901866     -1.731408
  H       2.652894      1.747264      0.285916
  H       3.530320      0.615763      1.168413
  H       4.286337      1.570057      0.030997
  H       3.100503      0.534889     -1.777841
  H       3.978949     -0.668504     -0.841073
  H       1.382100      0.133275      1.120897
  H      -0.304754     -1.575069      1.633924
  H      -0.298453     -1.915849     -0.118888
  H      -2.642401     -1.220351      0.678010
  H      -4.289182      0.582541      0.785967
  H      -3.050117      1.627068      0.038638
24
Coordinates from ORCA-job geo_opt E -43.529735891440
  N       3.419729      1.086806      0.247777
  C       3.224169      0.019937     -0.758193
  C       1.925942     -0.778194     -0.653600
  O       1.622009     -1.546975     -1.551461
  N       1.231230     -0.659242      0.498888
  C      -0.129982     -1.142635      0.583981
  C      -1.091497      0.023673      0.360181
  O      -0.655085      1.133499      0.065761
  N      -2.378314     -0.252641      0.607904
  C      -3.438991      0.606454      0.136336
  C      -3.956020      0.131297     -1.265444
  O      -4.851210      0.821821     -1.784308
  O      -3.422838     -0.894781     -1.727114
  H       2.654589      1.772334      0.200623
  H       3.473647      0.690781      1.194745
  H       4.301986      1.580730      0.055986
  H       3.233500      0.443354     -1.763617
  H       4.039355     -0.704166     -0.699122
  H       1.359714      0.166885      1.069088
  H      -0.309061     -1.608823      1.553827
  H      -0.289315     -1.879130     -0.209401
  H      -2.635765     -1.230581      0.630495
  H      -4.270090      0.596295      0.842962
  H      -3.057701      1.623302      0.034125
24
Coordinates from ORCA-job geo_opt E -43.530197274610
  N       3.388239      1.153143      0.203193
  C       3.328195     -0.043619     -0.661308
  C       2.033760     -0.856394     -0.619491
  O       1.830121     -1.706935     -1.469516
  N       1.230741     -0.641875      0.440222
  C      -0.123856     -1.145145      0.470045
  C      -1.093393      0.029505      0.347579
  O      -0.661810      1.170086      0.190336
  N      -2.377010     -0.285736      0.531891
  C      -3.452223      0.605104      0.172103
  C      -4.101160      0.177955     -1.189827
  O      -5.045873      0.883108     -1.584736
  O      -3.624870     -0.833009     -1.735086
  H       2.624267      1.804196     -0.023343
  H       3.334129      0.889821      1.195326
  H       4.281961      1.639379      0.049610
  H       3.477285      0.232761     -1.705958
  H       4.128529     -0.736795     -0.388614
  H       1.308723      0.221903      0.960910
  H      -0.308924     -1.700616      1.392176
  H      -0.267613     -1.811535     -0.386326
  H      -2.628381     -1.263605      0.473832
  H      -4.225244      0.602325      0.943296
  H      -3.055595      1.615977      0.064106
24
Coordinates from ORCA-job geo_opt E -43.530540315340
  N       3.362413      1.190012      0.158335
  C       3.376479     -0.072960     -0.604720
  C       2.095330     -0.908571     -0.576425
  O       1.949964     -1.813477     -1.382362
  N       1.228997     -0.633691      0.413956
  C      -0.117971     -1.155302      0.413220
  C      -1.093764      0.020938      0.367757
  O      -0.662642      1.172291      0.325893
  N      -2.379644     -0.312417      0.482361
  C      -3.452634      0.603543      0.189305
  C      -4.167111      0.218302     -1.153387
  O      -5.117049      0.946611     -1.486494
  O      -3.732311     -0.786800     -1.742571
  H       2.590232      1.796074     -0.150858
  H       3.273125      1.009907      1.166313
  H       4.248057      1.689620      0.000508
  H       3.588987      0.116661     -1.658051
  H       4.168503     -0.725233     -0.225209
  H       1.272156      0.256546      0.894901
  H      -0.300868     -1.765692      1.301450
  H      -0.256593     -1.772868     -0.479962
  H      -2.629354     -1.282812      0.340913
  H      -4.199230      0.598075      0.986856
  H      -3.045070      1.611242      0.088691
24
Coordinates from ORCA-job geo_opt E -43.530936078710
  N       3.354377      1.208394      0.128180
  C       3.421361     -0.096503     -0.554909
  C       2.145273     -0.939485     -0.537957
  O       2.047980     -1.896882     -1.291921
  N       1.222560     -0.606994      0.377060
  C      -0.111659     -1.158049      0.359444
  C      -1.099568      0.009934      0.388443
  O      -0.673746      1.162312      0.453904
  N      -2.386502     -0.334429      0.435878
  C      -3.454832      0.602760      0.203027
  C      -4.230822      0.241465     -1.113138
  O      -5.168019      0.998837     -1.413513
  O      -3.845071     -0.775099     -1.719253
  H       2.573072      1.773756     -0.230314
  H       3.248384      1.092534      1.143652
  H       4.229293      1.722051     -0.044232
  H       3.681731      0.030403     -1.607294
  H       4.200935     -0.714948     -0.101269
  H       1.225657      0.312155      0.808590
  H      -0.280627     -1.809183      1.221501
  H      -0.250809     -1.739631     -0.557118
  H      -2.632846     -1.287798      0.198355
  H      -4.175334      0.597045      1.024706
  H      -3.040789      1.607357      0.098598
24
Coordinates from ORCA-job geo_opt E -43.531308335780
  N       3.361440      1.222212      0.104383
  C       3.482473     -0.125909     -0.481398
  C       2.207777     -0.970152     -0.488929
  O       2.168801     -1.993041     -1.161506
  N       1.213464     -0.563876      0.309495
  C      -0.104637     -1.150158      0.273259
  C      -1.108997     -0.001335      0.397748
  O      -0.693765      1.141148      0.590281
  N      -2.393247     -0.350816      0.362970
  C      -3.460169      0.604111      0.218993
  C      -4.328990      0.252469     -1.041320
  O      -5.246654      1.043962     -1.310130
  O      -4.019187     -0.793066     -1.643978
  H       2.577368      1.741564     -0.311198
  H       3.227797      1.181425      1.122563
  H       4.227314      1.747028     -0.082225
  H       3.805968     -0.069277     -1.522274
  H       4.236414     -0.704457      0.057773
  H       1.161229      0.390521      0.662252
  H      -0.251026     -1.847182      1.103475
  H      -0.249339     -1.691786     -0.665711
  H      -2.634224     -1.265967     -0.003509
  H      -4.130303      0.594938      1.082818
  H      -3.049507      1.607644      0.096589
24
Coordinates from ORCA-job geo_opt E -43.531501524550
  N       3.383119      1.213960      0.125965
  C       3.506929     -0.135363     -0.459404
  C       2.225903     -0.968221     -0.489453
  O       2.198460     -2.005217     -1.141880
  N       1.210985     -0.540665      0.270647
  C      -0.103946     -1.133857      0.230357
  C      -1.111900      0.009377      0.373272
  O      -0.699591      1.152250      0.571559
  N      -2.395362     -0.341448      0.335281
  C      -3.465656      0.613063      0.217138
  C      -4.381475      0.224873     -0.997280
  O      -5.287540      1.024349     -1.281717
  O      -4.112052     -0.856063     -1.557249
  H       2.606559      1.736780     -0.298506
  H       3.234749      1.172709      1.141865
  H       4.252347      1.737319     -0.048068
  H       3.847175     -0.076388     -1.494940
  H       4.248737     -0.718464      0.089752
  H       1.147328      0.415871      0.620227
  H      -0.243526     -1.835950      1.057487
  H      -0.253094     -1.673692     -0.708708
  H      -2.641803     -1.248936     -0.050573
  H      -4.100839      0.618162      1.107108
  H      -3.065506      1.615550      0.057540
24
Coordinates from ORCA-job geo_opt E -43.531810816860
  N       3.426209      1.193401      0.182934
  C       3.551357     -0.155842     -0.407958
  C       2.259480     -0.965911     -0.496630
  O       2.247966     -2.016627     -1.126043
  N       1.211584     -0.503679      0.193234
  C      -0.105127     -1.090679      0.123479
  C      -1.110906      0.047072      0.301473
  O      -0.698273      1.189385      0.506563
  N      -2.392301     -0.305590      0.279083
  C      -3.473168      0.641030      0.201237
  C      -4.491278      0.144899     -0.882981
  O      -5.397945      0.931303     -1.199812
  O      -4.290553     -1.005342     -1.322234
  H       2.682004      1.735284     -0.274292
  H       3.223247      1.142828      1.188682
  H       4.311364      1.703469      0.060230
  H       3.936751     -0.088750     -1.427189
  H       4.259998     -0.754157      0.166480
  H       1.132088      0.451845      0.542365
  H      -0.248712     -1.819305      0.927760
  H      -0.254997     -1.605151     -0.829131
  H      -2.657217     -1.204807     -0.120610
  H      -4.016419      0.702464      1.148698
  H      -3.105152      1.632859     -0.064916
24
Coordinates from ORCA-job geo_opt E -43.531999417910
  N       3.454979      1.180599      0.218146
  C       3.578473     -0.171272     -0.369727
  C       2.281338     -0.967771     -0.498261
  O       2.278144     -2.024501     -1.115684
  N       1.215746     -0.481794      0.145342
  C      -0.104784     -1.057307      0.049964
  C      -1.107058      0.079712      0.236160
  O      -0.695308      1.223141      0.438670
  N      -2.386083     -0.276265      0.226124
  C      -3.483101      0.654787      0.185762
  C      -4.564340      0.093318     -0.798644
  O      -5.497906      0.853804     -1.099988
  O      -4.381791     -1.078511     -1.186548
  H       2.747383      1.739407     -0.275511
  H       3.197126      1.127704      1.211131
  H       4.356214      1.671216      0.146376
  H       4.001218     -0.107074     -1.373997
  H       4.258173     -0.778262      0.230681
  H       1.135352      0.470660      0.500118
  H      -0.261268     -1.803712      0.835839
  H      -0.248397     -1.552676     -0.914173
  H      -2.667365     -1.184866     -0.145466
  H      -3.954235      0.748839      1.168804
  H      -3.152513      1.640822     -0.144697
24
Coordinates from ORCA-job geo_opt E -43.532039631550
  N       3.471529      1.180286      0.236972
  C       3.614391     -0.196440     -0.283586
  C       2.320336     -0.988689     -0.467347
  O       2.347518     -2.074061     -1.030997
  N       1.218695     -0.454687      0.063472
  C      -0.100269     -1.023620     -0.079668
  C      -1.099678      0.103911      0.162004
  O      -0.685926      1.233256      0.431117
  N      -2.375769     -0.246921      0.122734
  C      -3.485961      0.667673      0.171513
  C      -4.657650      0.047411     -0.661372
  O      -5.631339      0.780437     -0.892216
  O      -4.501198     -1.140842     -1.007406
  H       2.822517      1.731609     -0.338934
  H       3.124746      1.170258      1.204223
  H       4.386935      1.649209      0.227882
  H       4.112192     -0.182095     -1.254609
  H       4.238907     -0.784457      0.392589
  H       1.123553      0.508593      0.383970
  H      -0.269204     -1.818245      0.655302
  H      -0.235027     -1.459913     -1.073795
  H      -2.677563     -1.144139     -0.263641
  H      -3.845653      0.793646      1.198004
  H      -3.216081      1.647821     -0.225790
24
Coordinates from ORCA-job geo_opt E -43.532142233160
  N       3.477428      1.177967      0.246946
  C       3.607467     -0.183997     -0.308608
  C       2.314852     -0.987302     -0.463009
  O       2.338792     -2.067193     -1.036244
  N       1.220532     -0.461109      0.090803
  C      -0.098152     -1.030638     -0.051453
  C      -1.097410      0.106432      0.153776
  O      -0.683813      1.240505      0.399859
  N      -2.372179     -0.242899      0.108294
  C      -3.486403      0.667274      0.152013
  C      -4.661770      0.048410     -0.678524
  O      -5.646196      0.776047     -0.876072
  O      -4.499166     -1.130360     -1.048824
  H       2.830849      1.746841     -0.314335
  H       3.136687      1.145436      1.216298
  H       4.397976      1.637420      0.243293
  H       4.070594     -0.149864     -1.296015
  H       4.258626     -0.783988      0.332873
  H       1.138411      0.492881      0.437799
  H      -0.277379     -1.814843      0.690882
  H      -0.223462     -1.473927     -1.044004
  H      -2.681377     -1.161032     -0.212657
  H      -3.844204      0.801539      1.178212
  H      -3.220703      1.646398     -0.250882
24
Coordinates from ORCA-job geo_opt E -43.532237037410
  N       3.480772      1.171164      0.258887
  C       3.608769     -0.182823     -0.316169
  C       2.313888     -0.981905     -0.466651
  O       2.335591     -2.063509     -1.038620
  N       1.219327     -0.454870      0.086666
  C      -0.097552     -1.030780     -0.046219
  C      -1.099966      0.104221      0.162985
  O      -0.687052      1.238749      0.408326
  N      -2.376510     -0.243217      0.111489
  C      -3.486167      0.672769      0.144903
  C      -4.662288      0.042790     -0.675687
  O      -5.643037      0.769837     -0.893698
  O      -4.500527     -1.144060     -1.022633
  H       2.822763      1.744326     -0.284057
  H       3.156925      1.126989      1.233222
  H       4.398783      1.635412      0.244650
  H       4.057055     -0.134226     -1.310053
  H       4.270163     -0.790347      0.306253
  H       1.134270      0.502120      0.427620
  H      -0.268446     -1.811476      0.701441
  H      -0.228467     -1.479943     -1.035017
  H      -2.683984     -1.158082     -0.221664
  H      -3.845169      0.822179      1.168523
  H      -3.219143      1.644682     -0.274074
24
Coordinates from ORCA-job geo_opt E -43.532303218540
  N       3.485427      1.165482      0.274592
  C       3.616978     -0.187051     -0.302639
  C       2.321141     -0.982490     -0.460531
  O       2.348808     -2.074211     -1.014015
  N       1.218794     -0.444274      0.065459
  C      -0.095787     -1.023933     -0.070946
  C      -1.100617      0.107623      0.149911
  O      -0.688876      1.239693      0.408622
  N      -2.376806     -0.236248      0.082719
  C      -3.484884      0.679880      0.131531
  C      -4.684101      0.028173     -0.636653
  O      -5.678521      0.743502     -0.830959
  O      -4.522341     -1.161967     -0.974466
  H       2.836726      1.742892     -0.275147
  H       3.149729      1.121277      1.244658
  H       4.405376      1.626079      0.272667
  H       4.067790     -0.137143     -1.295444
  H       4.275985     -0.796752      0.319415
  H       1.130532      0.518510      0.390717
  H      -0.263155     -1.812112      0.669236
  H      -0.227511     -1.464333     -1.063622
  H      -2.686871     -1.148826     -0.255362
  H      -3.813172      0.854785      1.161408
  H      -3.234645      1.641444     -0.320730
24
Coordinates from ORCA-job geo_opt E -43.532354908280
  N       3.495655      1.151344      0.317395
  C       3.632167     -0.194972     -0.272251
  C       2.335593     -0.984770     -0.448861
  O       2.374126     -2.093054     -0.969289
  N       1.219179     -0.424463      0.020051
  C      -0.092192     -1.006534     -0.130993
  C      -1.099510      0.122235      0.097822
  O      -0.689010      1.252480      0.367187
  N      -2.374571     -0.216315      0.010412
  C      -3.482860      0.695658      0.094947
  C      -4.730256     -0.008077     -0.538499
  O      -5.755743      0.678064     -0.665233
  O      -4.569027     -1.204889     -0.853817
  H       2.876603      1.744951     -0.249047
  H       3.124218      1.100601      1.273814
  H       4.421516      1.598374      0.355286
  H       4.089267     -0.135981     -1.261853
  H       4.285833     -0.812886      0.346562
  H       1.128315      0.545553      0.323649
  H      -0.260753     -1.805936      0.596028
  H      -0.219603     -1.432385     -1.130798
  H      -2.693889     -1.131992     -0.311808
  H      -3.732714      0.933385      1.134102
  H      -3.282344      1.629611     -0.434386
24
Coordinates from ORCA-job geo_opt E -43.532395638720
  N       3.496410      1.146970      0.328115
  C       3.633689     -0.195055     -0.271469
  C       2.337151     -0.984276     -0.450458
  O       2.376183     -2.093874     -0.967963
  N       1.220050     -0.422951      0.016629
  C      -0.091800     -1.003467     -0.135285
  C      -1.099243      0.125701      0.088996
  O      -0.689654      1.257353      0.353719
  N      -2.374289     -0.213230     -0.000782
  C      -3.482053      0.699044      0.082549
  C      -4.738215     -0.015556     -0.520254
  O      -5.775301      0.659005     -0.611117
  O      -4.572266     -1.207112     -0.851780
  H       2.890528      1.749984     -0.242703
  H       3.109312      1.089621      1.277972
  H       4.424551      1.587475      0.385561
  H       4.088346     -0.127538     -1.261723
  H       4.289189     -0.816886      0.341264
  H       1.132785      0.549121      0.313642
  H      -0.260914     -1.802772      0.591683
  H      -0.217747     -1.429484     -1.135387
  H      -2.691840     -1.134119     -0.308263
  H      -3.714990      0.961574      1.119322
  H      -3.289880      1.620474     -0.471846
24
Coordinates from ORCA-job geo_opt E -43.532416599260
  N       3.498499      1.141878      0.343031
  C       3.634727     -0.195818     -0.267072
  C       2.338846     -0.985514     -0.451697
  O       2.378727     -2.095925     -0.966364
  N       1.220744     -0.420733      0.008204
  C      -0.091959     -0.997792     -0.148887
  C      -1.097697      0.133221      0.069476
  O      -0.687656      1.265867      0.328693
  N      -2.372318     -0.206701     -0.017703
  C      -3.481191      0.703845      0.068764
  C      -4.747165     -0.027945     -0.492157
  O      -5.794071      0.634611     -0.552167
  O      -4.579221     -1.219016     -0.822612
  H       2.910269      1.756681     -0.233528
  H       3.090835      1.077329      1.283978
  H       4.429137      1.573415      0.424777
  H       4.090234     -0.118902     -1.256240
  H       4.290068     -0.822511      0.341048
  H       1.134629      0.551654      0.302937
  H      -0.264974     -1.795576      0.579090
  H      -0.215608     -1.425115     -1.148715
  H      -2.689734     -1.131551     -0.312953
  H      -3.690417      0.992623      1.103251
  H      -3.304703      1.611976     -0.512734
24
Coordinates from ORCA-job geo_opt E -43.532425239830
  N       3.499398      1.142374      0.340351
  C       3.631662     -0.192904     -0.275999
  C       2.336485     -0.986248     -0.451560
  O       2.374431     -2.094653     -0.970070
  N       1.220959     -0.424123      0.017771
  C      -0.092478     -1.000615     -0.136480
  C      -1.097298      0.132221      0.075941
  O      -0.686736      1.264756      0.334488
  N      -2.372124     -0.208186     -0.010850
  C      -3.481402      0.702742      0.070218
  C      -4.743399     -0.024770     -0.506277
  O      -5.788703      0.639657     -0.571555
  O      -4.574173     -1.214114     -0.841474
  H       2.905740      1.759094     -0.228540
  H       3.099444      1.073279      1.284416
  H       4.429864      1.575085      0.416153
  H       4.078055     -0.110632     -1.268857
  H       4.294211     -0.820269      0.323790
  H       1.134103      0.547514      0.314676
  H      -0.266739     -1.792439      0.598065
  H      -0.216650     -1.435370     -1.132809
  H      -2.686811     -1.132667     -0.310257
  H      -3.698802      0.986489      1.104270
  H      -3.299038      1.613780     -0.504991
24
Coordinates from ORCA-job geo_opt E -43.532437407230
  N       3.503161      1.136811      0.347199
  C       3.625675     -0.185494     -0.298061
  C       2.331417     -0.984088     -0.455328
  O       2.364878     -2.089478     -0.979912
  N       1.221552     -0.426761      0.033159
  C      -0.092862     -1.004384     -0.110866
  C      -1.096791      0.132431      0.084339
  O      -0.685847      1.266236      0.335851
  N      -2.371934     -0.208295     -0.003251
  C      -3.481260      0.704153      0.062641
  C      -4.738452     -0.024822     -0.523807
  O      -5.782712      0.639892     -0.599718
  O      -4.566422     -1.214776     -0.854942
  H       2.898787      1.764364     -0.198023
  H       3.119947      1.047429      1.296635
  H       4.433837      1.570187      0.415128
  H       4.045709     -0.080323     -1.300297
  H       4.307388     -0.820112      0.272122
  H       1.133288      0.544411      0.331513
  H      -0.268205     -1.780931      0.640127
  H      -0.218370     -1.458414     -1.097938
  H      -2.682591     -1.133829     -0.303543
  H      -3.706939      0.993641      1.093131
  H      -3.293252      1.612152     -0.515738
24
Coordinates from ORCA-job geo_opt E -43.532452046140
  N       3.511254      1.122616      0.366978
  C       3.615973     -0.172457     -0.333721
  C       2.323389     -0.978201     -0.463233
  O       2.349842     -2.080525     -0.994065
  N       1.222817     -0.427432      0.053758
  C      -0.092738     -1.007784     -0.071915
  C      -1.095997      0.134604      0.093522
  O      -0.685047      1.271067      0.331960
  N      -2.371345     -0.205794      0.000629
  C      -3.480375      0.708660      0.041532
  C      -4.734332     -0.030792     -0.539700
  O      -5.779998      0.630351     -0.625445
  O      -4.557883     -1.223554     -0.858072
  H       2.894256      1.772136     -0.136718
  H       3.151309      0.994176      1.321173
  H       4.443315      1.553919      0.429089
  H       3.989541     -0.023413     -1.348866
  H       4.328423     -0.821120      0.180468
  H       1.132736      0.545262      0.347295
  H      -0.268944     -1.759059      0.704714
  H      -0.219632     -1.492874     -1.043379
  H      -2.677101     -1.134627     -0.294498
  H      -3.709911      1.020647      1.064355
  H      -3.289550      1.604195     -0.555439
24
Coordinates from ORCA-job geo_opt E -43.532464825950
  N       3.511912      1.120090      0.371916
  C       3.617052     -0.172021     -0.334333
  C       2.323893     -0.976503     -0.465050
  O       2.350760     -2.080329     -0.993060
  N       1.222878     -0.425256      0.051045
  C      -0.092340     -1.006836     -0.072558
  C      -1.096195      0.135147      0.092040
  O      -0.685576      1.271883      0.330355
  N      -2.371320     -0.204263     -0.004229
  C      -3.480292      0.709949      0.036799
  C      -4.736467     -0.033394     -0.533080
  O      -5.783514      0.626067     -0.616437
  O      -4.560392     -1.227596     -0.846999
  H       2.896483      1.772411     -0.130310
  H       3.149704      0.987693      1.324649
  H       4.444467      1.549869      0.438065
  H       3.989622     -0.019468     -1.349312
  H       4.329696     -0.822697      0.176725
  H       1.132228      0.549526      0.337775
  H      -0.267642     -1.757873      0.704257
  H      -0.218712     -1.492861     -1.043837
  H      -2.678503     -1.133590     -0.296334
  H      -3.704983      1.028172      1.058920
  H      -3.292760      1.601881     -0.566584
24
Coordinates from ORCA-job geo_opt E -43.532486401890
  N       3.515816      1.109514      0.388440
  C       3.612963     -0.163657     -0.352918
  C       2.319402     -0.968937     -0.473731
  O       2.342860     -2.071869     -1.004198
  N       1.223494     -0.423526      0.060277
  C      -0.091387     -1.008237     -0.052467
  C      -1.096033      0.135521      0.094664
  O      -0.685485      1.275083      0.320697
  N      -2.370596     -0.202091     -0.006947
  C      -3.478587      0.713225      0.020184
  C      -4.735651     -0.038279     -0.533965
  O      -5.782812      0.620065     -0.627041
  O      -4.560747     -1.238077     -0.827512
  H       2.895922      1.775203     -0.090371
  H       3.162530      0.951673      1.340585
  H       4.449856      1.536103      0.456656
  H       3.962640      0.014560     -1.371803
  H       4.338372     -0.824091      0.126091
  H       1.132136      0.555700      0.331743
  H      -0.265683     -1.747939      0.734754
  H      -0.215470     -1.508600     -1.017117
  H      -2.680853     -1.134859     -0.284533
  H      -3.701903      1.048902      1.037289
  H      -3.290783      1.594611     -0.598357
24
Coordinates from ORCA-job geo_opt E -43.532467729660
  N       3.536949      1.059094      0.446914
  C       3.582689     -0.123027     -0.436987
  C       2.292972     -0.938782     -0.505944
  O       2.296438     -2.031427     -1.058177
  N       1.228347     -0.418506      0.112870
  C      -0.087324     -1.009929      0.044686
  C      -1.093081      0.140651      0.111058
  O      -0.682900      1.290421      0.282864
  N      -2.365964     -0.195907     -0.002070
  C      -3.470740      0.721760     -0.043336
  C      -4.723898     -0.058220     -0.559889
  O      -5.769346      0.594688     -0.702278
  O      -4.549234     -1.274458     -0.778401
  H       2.895730      1.774840      0.082169
  H       3.235310      0.793358      1.392755
  H       4.477136      1.473785      0.508935
  H       3.823339      0.169183     -1.461101
  H       4.361015     -0.813324     -0.107823
  H       1.133909      0.572034      0.340879
  H      -0.261319     -1.691256      0.882044
  H      -0.205035     -1.577513     -0.883359
  H      -2.679777     -1.140969     -0.229915
  H      -3.702237      1.121813      0.948828
  H      -3.272976      1.561692     -0.714300
24
Coordinates from ORCA-job geo_opt E -43.532513100650
  N       3.525962      1.090758      0.413172
  C       3.601307     -0.146671     -0.389066
  C       2.308459     -0.956639     -0.487544
  O       2.322809     -2.052882     -1.031920
  N       1.224950     -0.424529      0.086639
  C      -0.090872     -1.010756     -0.011472
  C      -1.095367      0.137142      0.100371
  O      -0.684327      1.281710      0.300156
  N      -2.369550     -0.200224     -0.002117
  C      -3.475910      0.717337     -0.005567
  C      -4.730728     -0.045779     -0.547139
  O      -5.775260      0.612435     -0.667738
  O      -4.557496     -1.254326     -0.803836
  H       2.894275      1.777856     -0.017032
  H       3.197265      0.887642      1.365445
  H       4.462237      1.513472      0.476086
  H       3.904764      0.079505     -1.413198
  H       4.351082     -0.821825      0.027645
  H       1.133425      0.559129      0.342311
  H      -0.266888     -1.727302      0.796184
  H      -0.210975     -1.538238     -0.962222
  H      -2.682228     -1.139159     -0.255408
  H      -3.705317      1.078935      1.001414
  H      -3.281618      1.582411     -0.644740
24
Coordinates from ORCA-job geo_opt E -43.532518594870
  N       3.527155      1.089073      0.413809
  C       3.597517     -0.143428     -0.396392
  C       2.305144     -0.954737     -0.489971
  O       2.316856     -2.047930     -1.040175
  N       1.225381     -0.427100      0.095560
  C      -0.090932     -1.012569     -0.000982
  C      -1.094869      0.136401      0.103925
  O      -0.683473      1.281798      0.297996
  N      -2.369259     -0.201428      0.003797
  C      -3.474925      0.717127     -0.006674
  C      -4.727167     -0.044734     -0.556604
  O      -5.769129      0.615556     -0.687350
  O      -4.554789     -1.254367     -0.808404
  H       2.890788      1.777846     -0.006681
  H       3.206487      0.879423      1.367408
  H       4.463157      1.513009      0.471564
  H       3.892619      0.089664     -1.421363
  H       4.351415     -0.820132      0.010387
  H       1.134210      0.556845      0.350212
  H      -0.267853     -1.724396      0.810734
  H      -0.210574     -1.545141     -0.948862
  H      -2.681481     -1.141242     -0.246723
  H      -3.711025      1.078006      0.998980
  H      -3.275252      1.582455     -0.643768
24
Coordinates from ORCA-job geo_opt E -43.532524439510
  N       3.529528      1.084177      0.417607
  C       3.589436     -0.136056     -0.411618
  C       2.298470     -0.950408     -0.496241
  O       2.304837     -2.036574     -1.059701
  N       1.226700     -0.432604      0.113676
  C      -0.090991     -1.015921      0.019791
  C      -1.093437      0.135547      0.108937
  O      -0.681169      1.282681      0.289928
  N      -2.368259     -0.202997      0.013661
  C      -3.472280      0.717623     -0.011652
  C      -4.720395     -0.044189     -0.572244
  O      -5.757102      0.619641     -0.724335
  O      -4.550614     -1.257082     -0.808792
  H       2.884658      1.777643      0.018512
  H       3.223920      0.858449      1.372546
  H       4.464995      1.510153      0.467165
  H       3.866941      0.113938     -1.437550
  H       4.351877     -0.816361     -0.027028
  H       1.136341      0.552196      0.365674
  H      -0.270549     -1.717167      0.840319
  H      -0.209677     -1.559744     -0.921615
  H      -2.680093     -1.144881     -0.229011
  H      -3.719477      1.080745      0.990481
  H      -3.263660      1.581192     -0.648091
24
Coordinates from ORCA-job geo_opt E -43.532524811350
  N       3.529623      1.083610      0.418872
  C       3.589170     -0.135397     -0.412156
  C       2.298430     -0.950104     -0.496831
  O       2.304901     -2.035823     -1.061067
  N       1.226844     -0.432989      0.114168
  C      -0.090894     -1.016213      0.020189
  C      -1.093209      0.135551      0.108210
  O      -0.680823      1.282680      0.288872
  N      -2.368017     -0.202774      0.012018
  C      -3.471828      0.718031     -0.013381
  C      -4.720931     -0.044628     -0.570827
  O      -5.757575      0.619293     -0.723017
  O      -4.551787     -1.258072     -0.805046
  H       2.884886      1.777872      0.020948
  H       3.223981      0.856452      1.373487
  H       4.465140      1.509387      0.469005
  H       3.865761      0.116152     -1.437978
  H       4.352129     -0.815999     -0.029204
  H       1.136678      0.551855      0.366077
  H      -0.270880     -1.716696      0.841265
  H      -0.209519     -1.560692     -0.920818
  H      -2.680170     -1.144938     -0.229194
  H      -3.717751      1.082940      0.988431
  H      -3.264160      1.580501     -0.651602
