24
zwitterion conformer 13
N       3.59299956     0.68733041     0.12801335
C       2.89547892     0.24428293    -1.05217710
C       1.57792906    -0.30484572    -0.62800241
O       0.82918300    -0.74456779    -1.56384356
N       1.18068868    -0.33645247     0.73488332
C      -0.10602522    -0.87947849     1.08686273
C      -1.14097813    -0.06402851     0.38845461
O      -0.83800581     0.90636881    -0.35480347
N      -2.49854432    -0.44084418     0.60606908
C      -3.58058645     0.29845947    -0.03535443
C      -3.39600354     0.20515564    -1.51745607
O      -4.26226628     0.80080194    -2.21574000
O      -2.34306246    -0.48947157    -2.09402473
H       3.02529311     1.42794827     0.59813274
H       3.71314574    -0.15484480     0.76610361
H       4.55695572     1.01056352    -0.13219776
H       2.75527523     1.12073368    -1.72472151
H       3.50403508    -0.54603363    -1.51366803
H       1.81103159     0.02909263     1.48009479
H      -0.24601951    -0.84305775     2.19679898
H      -0.23442673    -1.95232324     0.78325109
H      -2.72765229    -1.26453329     1.23856333
H      -4.54443813    -0.11249571     0.30169917
H      -3.52400681     1.40223984     0.19348310
