20
Coordinates from ORCA-job geo_opt E -34.331179103900
  N      -1.413379     -1.426547      0.749066
  C      -1.356705     -0.678423     -0.468631
  C       0.002383     -0.624510     -1.093198
  C       1.038024     -0.018000     -0.255635
  C       0.925335      0.500827      1.011884
  N       2.131988      0.953621      1.398083
  C       2.999978      0.718137      0.372114
  N       2.324404      0.125555     -0.631854
  C      -2.015744      0.637177     -0.343403
  O      -2.097736      1.477759     -1.275744
  O      -2.584496      0.979311      0.875484
  H      -0.540867     -1.863534      1.054574
  H      -1.847449     -0.906557      1.546170
  H      -1.994443     -1.241754     -1.214197
  H       0.312713     -1.699700     -1.220619
  H      -0.050949     -0.212571     -2.098385
  H       0.053140      0.557391      1.624533
  H       4.062456      0.961439      0.351119
  H       2.727133     -0.178354     -1.560041
  H      -2.675785      1.938732      1.178679
20
Coordinates from ORCA-job geo_opt E -34.351635677460
  N      -1.473135     -1.469163      0.759868
  C      -1.391294     -0.696583     -0.456420
  C      -0.005740     -0.645353     -1.088572
  C       1.044583     -0.015889     -0.244643
  C       0.983498      0.516973      1.023839
  N       2.199775      0.978141      1.392525
  C       3.008776      0.738303      0.368961
  N       2.331599      0.137920     -0.632405
  C      -2.003431      0.654475     -0.334532
  O      -2.058471      1.470329     -1.249210
  O      -2.559139      0.966788      0.853628
  H      -0.606600     -1.897414      1.049198
  H      -1.867305     -0.945501      1.532441
  H      -2.035708     -1.220021     -1.205398
  H       0.293275     -1.701414     -1.245666
  H      -0.066597     -0.195222     -2.081045
  H       0.134676      0.583674      1.668110
  H       4.049362      0.982168      0.333752
  H       2.714309     -0.152119     -1.526680
  H      -2.692431      1.909907      1.082249
20
Coordinates from ORCA-job geo_opt E -34.358290752620
  N      -1.484794     -1.495729      0.777080
  C      -1.410928     -0.718589     -0.446254
  C      -0.017408     -0.674850     -1.091840
  C       1.021010     -0.028017     -0.236260
  C       0.978858      0.494374      1.035095
  N       2.196222      0.974940      1.396464
  C       2.974135      0.755301      0.375252
  N       2.311927      0.150075     -0.636507
  C      -1.969698      0.675385     -0.331559
  O      -1.994823      1.463234     -1.249533
  O      -2.472165      0.982672      0.851115
  H      -0.598074     -1.901146      1.033014
  H      -1.830927     -0.945952      1.544951
  H      -2.066963     -1.215705     -1.186436
  H       0.279641     -1.711724     -1.281476
  H      -0.089494     -0.170686     -2.058302
  H       0.144141      0.547962      1.703987
  H       4.006814      1.017801      0.336956
  H       2.692686     -0.119601     -1.523229
  H      -2.670160      1.920255      0.987482
20
Coordinates from ORCA-job geo_opt E -34.360604067260
  N      -1.503895     -1.526127      0.771420
  C      -1.418143     -0.730847     -0.443021
  C      -0.016773     -0.699139     -1.084865
  C       1.008665     -0.036416     -0.224336
  C       0.968654      0.498723      1.038578
  N       2.187674      0.994522      1.390078
  C       2.958909      0.768258      0.367821
  N       2.302221      0.146271     -0.638803
  C      -1.922360      0.696247     -0.311480
  O      -1.925988      1.479157     -1.234467
  O      -2.402445      0.995482      0.877273
  H      -0.603255     -1.915499      1.010935
  H      -1.826220     -0.964654      1.545888
  H      -2.086087     -1.194002     -1.189312
  H       0.281256     -1.729240     -1.290754
  H      -0.091344     -0.167312     -2.036938
  H       0.140932      0.561120      1.716291
  H       3.992068      1.040200      0.321399
  H       2.682414     -0.128216     -1.528269
  H      -2.726285      1.911472      0.942564
20
Coordinates from ORCA-job geo_opt E -34.360848837900
  N      -1.517094     -1.550426      0.755086
  C      -1.421822     -0.743482     -0.451034
  C      -0.016272     -0.714606     -1.082052
  C       0.995857     -0.038546     -0.218817
  C       0.945953      0.512936      1.033975
  N       2.161759      1.022897      1.381183
  C       2.940520      0.785315      0.362658
  N       2.290444      0.143412     -0.634664
  C      -1.906841      0.692423     -0.304284
  O      -1.881560      1.487728     -1.219780
  O      -2.333646      1.003241      0.903890
  H      -0.607705     -1.918052      1.004116
  H      -1.852852     -0.994287      1.530985
  H      -2.092894     -1.188506     -1.205065
  H       0.289211     -1.743706     -1.286542
  H      -0.088355     -0.180877     -2.033704
  H       0.117858      0.584206      1.709756
  H       3.973585      1.062676      0.313449
  H       2.673091     -0.141703     -1.521170
  H      -2.669236      1.919356      0.962011
20
Coordinates from ORCA-job geo_opt E -34.360999684400
  N      -1.515786     -1.550062      0.750653
  C      -1.416669     -0.739016     -0.451935
  C      -0.010730     -0.714021     -1.077679
  C       1.000338     -0.041590     -0.212746
  C       0.954583      0.508827      1.038811
  N       2.172859      1.018391      1.379437
  C       2.949200      0.780454      0.355443
  N       2.292733      0.137969     -0.636154
  C      -1.893266      0.699753     -0.296204
  O      -1.893050      1.490599     -1.218421
  O      -2.351854      1.000444      0.905440
  H      -0.599179     -1.891017      1.016475
  H      -1.874910     -1.000367      1.523206
  H      -2.091771     -1.175539     -1.208004
  H       0.294674     -1.743470     -1.285279
  H      -0.079895     -0.176911     -2.027936
  H       0.132573      0.580736      1.721134
  H       3.983137      1.056415      0.299761
  H       2.668944     -0.147689     -1.526666
  H      -2.721932      1.906093      0.950663
20
Coordinates from ORCA-job geo_opt E -34.361152727710
  N      -1.512958     -1.551197      0.748621
  C      -1.415549     -0.740028     -0.454008
  C      -0.010037     -0.712788     -1.077987
  C       1.001208     -0.041977     -0.211544
  C       0.958486      0.506300      1.041114
  N       2.177765      1.014185      1.380281
  C       2.951245      0.779457      0.354308
  N       2.291894      0.139998     -0.637212
  C      -1.898233      0.695932     -0.298691
  O      -1.900940      1.487422     -1.219643
  O      -2.353685      0.997879      0.903569
  H      -0.592368     -1.863174      1.034977
  H      -1.904456     -1.012086      1.512403
  H      -2.090078     -1.177630     -1.209644
  H       0.296715     -1.741521     -1.285735
  H      -0.078163     -0.176134     -2.028712
  H       0.139978      0.575765      1.727900
  H       3.984708      1.054790      0.297121
  H       2.665089     -0.142726     -1.529831
  H      -2.710621      1.907534      0.952714
20
Coordinates from ORCA-job geo_opt E -34.361956146720
  N      -1.494213     -1.558940      0.728947
  C      -1.404053     -0.745806     -0.470530
  C      -0.000917     -0.713184     -1.080868
  C       1.006335     -0.045318     -0.205083
  C       0.978445      0.502566      1.047751
  N       2.202832      1.007608      1.374002
  C       2.962888      0.778107      0.340768
  N       2.289525      0.142892     -0.643576
  C      -1.909530      0.676035     -0.302116
  O      -1.936749      1.481109     -1.208259
  O      -2.339682      0.962788      0.912084
  H      -0.587629     -1.636124      1.174975
  H      -2.118107     -1.123584      1.398487
  H      -2.080414     -1.180288     -1.224820
  H       0.313952     -1.738863     -1.284973
  H      -0.060286     -0.180289     -2.035036
  H       0.181101      0.569535      1.759787
  H       3.994498      1.049397      0.273264
  H       2.645093     -0.133091     -1.544493
  H      -2.643089      1.885451      0.989689
20
Coordinates from ORCA-job geo_opt E -34.362462826650
  N      -1.489757     -1.570457      0.709372
  C      -1.394896     -0.744395     -0.478246
  C       0.009153     -0.716858     -1.078526
  C       1.014566     -0.041471     -0.204497
  C       0.992594      0.530321      1.037796
  N       2.221880      1.031349      1.353645
  C       2.978105      0.779714      0.324212
  N       2.298066      0.132419     -0.647601
  C      -1.903348      0.672324     -0.286966
  O      -1.930310      1.501391     -1.170364
  O      -2.341153      0.921942      0.933120
  H      -0.643192     -1.500519      1.262455
  H      -2.249512     -1.235572      1.291328
  H      -2.073343     -1.166863     -1.236609
  H       0.325938     -1.743927     -1.269260
  H      -0.042871     -0.195477     -2.039487
  H       0.203208      0.619840      1.756615
  H       4.011297      1.041318      0.250818
  H       2.646402     -0.159707     -1.546001
  H      -2.632827      1.844630      1.038198
20
Coordinates from ORCA-job geo_opt E -34.363284963360
  N      -1.486854     -1.600280      0.689041
  C      -1.392945     -0.739299     -0.475116
  C       0.013140     -0.719596     -1.075548
  C       1.020427     -0.031970     -0.211833
  C       0.995646      0.575082      1.014552
  N       2.228152      1.071262      1.327338
  C       2.990153      0.779787      0.312282
  N       2.312178      0.112071     -0.647918
  C      -1.885331      0.686840     -0.258251
  O      -1.880086      1.540739     -1.118337
  O      -2.362611      0.903022      0.954996
  H      -0.680207     -1.473333      1.289811
  H      -2.301901     -1.338121      1.230469
  H      -2.076150     -1.144678     -1.238314
  H       0.325891     -1.750655     -1.251312
  H      -0.037137     -0.209717     -2.041923
  H       0.199770      0.702233      1.721002
  H       4.027926      1.028148      0.241120
  H       2.664850     -0.210843     -1.533728
  H      -2.674911      1.819309      1.071666
20
Coordinates from ORCA-job geo_opt E -34.364025143650
  N      -1.454537     -1.611762      0.682943
  C      -1.387204     -0.728053     -0.464272
  C       0.015256     -0.717944     -1.080720
  C       1.027351     -0.023581     -0.230886
  C       0.994405      0.606539      0.983212
  N       2.227570      1.096984      1.301857
  C       3.000453      0.771740      0.302379
  N       2.329081      0.089178     -0.651987
  C      -1.861393      0.706881     -0.225795
  O      -1.809811      1.584986     -1.059910
  O      -2.396941      0.885553      0.971348
  H      -0.715391     -1.386226      1.340559
  H      -2.337628     -1.471463      1.160675
  H      -2.082759     -1.128057     -1.218392
  H       0.319732     -1.754143     -1.243876
  H      -0.039336     -0.212709     -2.048354
  H       0.186442      0.757987      1.670720
  H       4.042984      1.007606      0.239980
  H       2.691290     -0.262155     -1.523199
  H      -2.749563      1.788636      1.093718
20
Coordinates from ORCA-job geo_opt E -34.364175031530
  N      -1.436709     -1.615090      0.684992
  C      -1.386141     -0.723900     -0.456476
  C       0.012505     -0.714560     -1.086722
  C       1.028623     -0.019601     -0.244077
  C       0.986916      0.621002      0.964201
  N       2.219510      1.105226      1.292457
  C       3.000834      0.765165      0.303458
  N       2.334881      0.080833     -0.653121
  C      -1.849739      0.713753     -0.210235
  O      -1.762859      1.601521     -1.031309
  O      -2.418216      0.881836      0.973209
  H      -0.715548     -1.365423      1.353241
  H      -2.333042     -1.525529      1.150449
  H      -2.088202     -1.122172     -1.204966
  H       0.312334     -1.752264     -1.247511
  H      -0.048384     -0.209510     -2.053843
  H       0.166620      0.783245      1.634423
  H       4.045680      0.994804      0.249848
  H       2.706584     -0.282635     -1.515977
  H      -2.775647      1.783298      1.097958
20
Coordinates from ORCA-job geo_opt E -34.364218176420
  N      -1.424529     -1.609420      0.690472
  C      -1.384047     -0.721857     -0.452419
  C       0.011623     -0.709149     -1.089661
  C       1.031565     -0.017667     -0.249042
  C       0.989501      0.625240      0.958191
  N       2.222942      1.105089      1.288478
  C       3.005127      0.759426      0.302391
  N       2.338294      0.076360     -0.654209
  C      -1.851076      0.712578     -0.205507
  O      -1.746130      1.606071     -1.018199
  O      -2.439482      0.873174      0.968535
  H      -0.727507     -1.331198      1.372465
  H      -2.332983     -1.557439      1.137314
  H      -2.087770     -1.122577     -1.197364
  H       0.310518     -1.746217     -1.254029
  H      -0.054177     -0.201565     -2.055223
  H       0.165847      0.790256      1.623516
  H       4.050679      0.984768      0.250808
  H       2.712522     -0.291778     -1.514068
  H      -2.790915      1.775905      1.097550
20
Coordinates from ORCA-job geo_opt E -34.364226439190
  N      -1.416004     -1.608533      0.697480
  C      -1.385525     -0.723468     -0.448333
  C       0.007388     -0.702472     -1.093763
  C       1.030558     -0.017649     -0.252040
  C       0.986519      0.620520      0.957999
  N       2.219702      1.096469      1.293404
  C       3.003452      0.753393      0.307592
  N       2.337499      0.075647     -0.653388
  C      -1.855738      0.710945     -0.207145
  O      -1.735724      1.601557     -1.021291
  O      -2.455796      0.881174      0.958857
  H      -0.697769     -1.343276      1.362053
  H      -2.311295     -1.548750      1.168341
  H      -2.089524     -1.128141     -1.190712
  H       0.306783     -1.737381     -1.270183
  H      -0.065903     -0.185702     -2.053989
  H       0.157870      0.781979      1.617822
  H       4.049233      0.977688      0.259125
  H       2.716072     -0.290962     -1.511992
  H      -2.801798      1.786963      1.080162
20
Coordinates from ORCA-job geo_opt E -34.364242463900
  N      -1.418127     -1.609211      0.694612
  C      -1.384284     -0.723680     -0.450030
  C       0.008973     -0.702450     -1.092716
  C       1.031164     -0.016325     -0.250559
  C       0.988158      0.628946      0.955778
  N       2.222734      1.102634      1.289586
  C       3.005966      0.752826      0.305971
  N       2.338311      0.072630     -0.652184
  C      -1.856443      0.709140     -0.205068
  O      -1.741487      1.602688     -1.016675
  O      -2.454110      0.873245      0.962947
  H      -0.709905     -1.337152      1.367401
  H      -2.319230     -1.553988      1.155302
  H      -2.087881     -1.126619     -1.193750
  H       0.310001     -1.736875     -1.269094
  H      -0.063712     -0.186441     -2.053456
  H       0.160909      0.797002      1.615841
  H       4.052374      0.973542      0.257020
  H       2.715829     -0.298478     -1.509273
  H      -2.799239      1.778565      1.088348
20
Coordinates from ORCA-job geo_opt E -34.364249767140
  N      -1.414894     -1.608499      0.694727
  C      -1.383335     -0.723640     -0.450186
  C       0.009029     -0.698810     -1.093752
  C       1.031648     -0.014763     -0.250358
  C       0.989419      0.634852      0.953734
  N       2.225208      1.105331      1.287490
  C       3.008678      0.748823      0.306501
  N       2.339807      0.067479     -0.650126
  C      -1.860215      0.707721     -0.204216
  O      -1.749154      1.602534     -1.015042
  O      -2.458288      0.868378      0.964087
  H      -0.709551     -1.332186      1.368971
  H      -2.317126     -1.555570      1.153423
  H      -2.086849     -1.128164     -1.193210
  H       0.311771     -1.731795     -1.275305
  H      -0.065860     -0.179006     -2.052375
  H       0.162280      0.807993      1.612645
  H       4.056034      0.965067      0.258466
  H       2.717712     -0.308331     -1.504935
  H      -2.806314      1.772586      1.089462
20
Coordinates from ORCA-job geo_opt E -34.364264380440
  N      -1.400869     -1.606640      0.696524
  C      -1.380872     -0.723390     -0.449449
  C       0.007574     -0.685561     -1.099206
  C       1.032360     -0.009255     -0.252300
  C       0.990197      0.654738      0.944078
  N       2.229786      1.111307      1.282336
  C       3.015637      0.733553      0.311186
  N       2.344386      0.050822     -0.643098
  C      -1.871774      0.703598     -0.201241
  O      -1.769563      1.601429     -1.010033
  O      -2.472904      0.855551      0.966745
  H      -0.697434     -1.321653      1.369408
  H      -2.302767     -1.560296      1.156656
  H      -2.084754     -1.134172     -1.188901
  H       0.314916     -1.713793     -1.298434
  H      -0.076007     -0.152420     -2.050035
  H       0.160531      0.845321      1.595027
  H       4.066241      0.934600      0.268916
  H       2.725426     -0.340101     -1.489607
  H      -2.830109      1.756361      1.091429
20
Coordinates from ORCA-job geo_opt E -34.364276093150
  N      -1.382061     -1.603737      0.699422
  C      -1.378501     -0.722396     -0.448193
  C       0.004946     -0.669272     -1.106875
  C       1.032808     -0.002653     -0.256249
  C       0.989761      0.675644      0.932105
  N       2.232842      1.116725      1.277307
  C       3.022203      0.714745      0.318650
  N       2.349414      0.031860     -0.634615
  C      -1.885311      0.699431     -0.198968
  O      -1.793892      1.599135     -1.006944
  O      -2.488315      0.843368      0.969334
  H      -0.677087     -1.310420      1.367183
  H      -2.281396     -1.564969      1.165216
  H      -2.082703     -1.142080     -1.182478
  H       0.316375     -1.692190     -1.325527
  H      -0.088709     -0.121060     -2.048392
  H       0.156280      0.885395      1.572225
  H       4.076307      0.898476      0.284735
  H       2.734209     -0.375710     -1.471484
  H      -2.857168      1.739707      1.093548
20
Coordinates from ORCA-job geo_opt E -34.364284162980
  N      -1.362358     -1.600394      0.702361
  C      -1.376482     -0.720886     -0.446890
  C       0.001995     -0.653107     -1.115006
  C       1.033138      0.004067     -0.261284
  C       0.988441      0.695455      0.919381
  N       2.234727      1.119457      1.273940
  C       3.027432      0.695963      0.327209
  N       2.353971      0.014026     -0.626206
  C      -1.898357      0.695519     -0.197488
  O      -1.818643      1.595828     -1.005843
  O      -2.500797      0.833035      0.972178
  H      -0.655034     -1.298702      1.363862
  H      -2.258492     -1.570165      1.174934
  H      -2.080527     -1.150117     -1.175800
  H       0.316359     -1.671267     -1.350661
  H      -0.100954     -0.091427     -2.047701
  H       0.150961      0.923875      1.547755
  H       4.084594      0.863114      0.302533
  H       2.741655     -0.408686     -1.454196
  H      -2.881628      1.724410      1.096921
20
Coordinates from ORCA-job geo_opt E -34.364288090780
  N      -1.354226     -1.599055      0.703368
  C      -1.376095     -0.720014     -0.446474
  C       0.000627     -0.646900     -1.118626
  C       1.033153      0.006862     -0.264040
  C       0.986976      0.701922      0.914309
  N       2.234059      1.120206      1.273121
  C       3.028630      0.688524      0.331651
  N       2.355691      0.007920     -0.622885
  C      -1.903320      0.694071     -0.197614
  O      -1.829954      1.593359     -1.007541
  O      -2.502463      0.830807      0.973908
  H      -0.645269     -1.294077      1.361571
  H      -2.248602     -1.572506      1.179542
  H      -2.079632     -1.153382     -1.173323
  H       0.315442     -1.663790     -1.359051
  H      -0.105408     -0.081147     -2.048458
  H       0.147765      0.937217      1.537749
  H       4.086856      0.849528      0.311403
  H       2.743757     -0.419548     -1.448304
  H      -2.887986      1.720004      1.099694
20
Coordinates from ORCA-job geo_opt E -34.364290065210
  N      -1.346452     -1.597953      0.703874
  C      -1.375571     -0.719271     -0.446256
  C      -0.000477     -0.640617     -1.121935
  C       1.033358      0.010035     -0.266570
  C       0.985971      0.709734      0.908915
  N       2.234230      1.120841      1.272366
  C       3.030176      0.681366      0.335717
  N       2.357501      0.001291     -0.619205
  C      -1.908521      0.692135     -0.197374
  O      -1.842341      1.590510     -1.008882
  O      -2.503705      0.827828      0.976247
  H      -0.637865     -1.288220      1.360302
  H      -2.239923     -1.576421      1.182029
  H      -2.078210     -1.156431     -1.171610
  H       0.314952     -1.656137     -1.367110
  H      -0.109748     -0.070963     -2.048952
  H       0.145513      0.952884      1.527562
  H       4.089441      0.835849      0.319735
  H       2.745194     -0.431367     -1.442138
  H      -2.893522      1.714908      1.103286
20
Coordinates from ORCA-job geo_opt E -34.364290817630
  N      -1.342077     -1.597523      0.703877
  C      -1.375096     -0.719021     -0.446246
  C      -0.000947     -0.636666     -1.123660
  C       1.033563      0.012240     -0.267784
  C       0.985886      0.715397      0.905623
  N       2.234915      1.122641      1.271019
  C       3.031539      0.676774      0.338025
  N       2.358582     -0.003117     -0.616791
  C      -1.911919      0.690639     -0.196834
  O      -1.850459      1.588693     -1.009130
  O      -2.504764      0.825288      0.978004
  H      -0.634598     -1.284564      1.360046
  H      -2.235413     -1.579408      1.182447
  H      -2.077014     -1.158180     -1.171075
  H       0.315200     -1.651080     -1.372288
  H      -0.112518     -0.064380     -2.048792
  H       0.145036      0.964019      1.521521
  H       4.091501      0.826583      0.324603
  H       2.745711     -0.439483     -1.438028
  H      -2.897129      1.711148      1.105464
20
Coordinates from ORCA-job geo_opt E -34.364291366940
  N      -1.336444     -1.596809      0.704028
  C      -1.374340     -0.718806     -0.446191
  C      -0.001457     -0.631501     -1.125712
  C       1.033889      0.015024     -0.269091
  C       0.986222      0.722838      0.901528
  N       2.236367      1.124496      1.269439
  C       3.033503      0.670973      0.340624
  N       2.359930     -0.009084     -0.613653
  C      -1.916424      0.688694     -0.196038
  O      -1.860821      1.586484     -1.009170
  O      -2.506841      0.821730      0.980103
  H      -0.630948     -1.279341      1.360254
  H      -2.229846     -1.583489      1.182624
  H      -2.075354     -1.160549     -1.170327
  H       0.315808     -1.644243     -1.379452
  H      -0.116236     -0.055400     -2.048138
  H       0.145048      0.978473      1.514074
  H       4.094314      0.814824      0.330175
  H       2.746345     -0.450343     -1.432598
  H      -2.902716      1.706030      1.107522
20
Coordinates from ORCA-job geo_opt E -34.364291557270
  N      -1.332294     -1.596311      0.704192
  C      -1.373756     -0.718686     -0.446095
  C      -0.001905     -0.627745     -1.127273
  C       1.034042      0.016987     -0.270104
  C       0.986406      0.728416      0.898345
  N       2.237246      1.126154      1.268054
  C       3.034812      0.666712      0.342519
  N       2.360808     -0.013511     -0.611370
  C      -1.919482      0.687401     -0.195292
  O      -1.867442      1.585257     -1.008643
  O      -2.508808      0.818983      0.981532
  H      -0.627885     -1.276074      1.360263
  H      -2.225618     -1.586430      1.183001
  H      -2.074340     -1.162232     -1.169542
  H       0.316220     -1.639173     -1.384977
  H      -0.119102     -0.048748     -2.047636
  H       0.144781      0.989155      1.508118
  H       4.096223      0.806210      0.334287
  H       2.747180     -0.458592     -1.428265
  H      -2.907087      1.702228      1.108886
