20
Coordinates from ORCA-job geo_opt E -34.364291557270
  N          -1.33229358925044     -1.59631142089027      0.70419211416899
  C          -1.37375607074020     -0.71868568999069     -0.44609472587524
  C          -0.00190451384018     -0.62774544472401     -1.12727326609026
  C           1.03404213017706      0.01698736212681     -0.27010418921520
  C           0.98640600001841      0.72841553581824      0.89834544831746
  N           2.23724634066332      1.12615398159634      1.26805382165977
  C           3.03481227415150      0.66671171704032      0.34251913046197
  N           2.36080768064639     -0.01351111567158     -0.61136992510364
  C          -1.91948176379646      0.68740053593063     -0.19529170981434
  O          -1.86744205773638      1.58525727588345     -1.00864255217929
  O          -2.50880788213639      0.81898329751113      0.98153233784415
  H          -0.62788480320515     -1.27607406415086      1.36026275740872
  H          -2.22561818385054     -1.58643030401712      1.18300061651490
  H          -2.07434038304441     -1.16223210727721     -1.16954196300121
  H           0.31621964778279     -1.63917332622761     -1.38497748408965
  H          -0.11910153541639     -0.04874784494082     -2.04763594974977
  H           0.14478072508871      0.98915459286132      1.50811811906900
  H           4.09622278523269      0.80621039959274      0.33428676592250
  H           2.74718042692695     -0.45859176831131     -1.42826515149235
  H          -2.90708722767128      1.70222840784049      1.10888579524350
