20
neutral_delta conformer 3
N      -1.41337874    -1.42654749     0.74906606
C      -1.35670515    -0.67842329    -0.46863130
C       0.00238335    -0.62450967    -1.09319750
C       1.03802377    -0.01800036    -0.25563459
C       0.92533468     0.50082717     1.01188412
N       2.13198778     0.95362060     1.39808290
C       2.99997814     0.71813709     0.37211404
N       2.32440438     0.12555515    -0.63185403
C      -2.01574439     0.63717729    -0.34340289
O      -2.09773644     1.47775910    -1.27574442
O      -2.58449586     0.97931135     0.87548413
H      -0.54086732    -1.86353409     1.05457414
H      -1.84744920    -0.90655670     1.54617036
H      -1.99444273    -1.24175418    -1.21419660
H       0.31271285    -1.69970001    -1.22061898
H      -0.05094898    -0.21257055    -2.09838530
H       0.05313974     0.55739133     1.62453283
H       4.06245601     0.96143897     0.35111905
H       2.72713350    -0.17835380    -1.56004138
H      -2.67578539     1.93873211     1.17867935
