
                                 *****************
                                 * O   R   C   A *
                                 *****************

                                            #,                                       
                                            ###                                      
                                            ####                                     
                                            #####                                    
                                            ######                                   
                                           ########,                                 
                                     ,,################,,,,,                         
                               ,,#################################,,                 
                          ,,##########################################,,             
                       ,#########################################, ''#####,          
                    ,#############################################,,   '####,        
                  ,##################################################,,,,####,       
                ,###########''''           ''''###############################       
              ,#####''   ,,,,##########,,,,          '''####'''          '####       
            ,##' ,,,,###########################,,,                        '##       
           ' ,,###''''                  '''############,,,                           
         ,,##''                                '''############,,,,        ,,,,,,###''
      ,#''                                            '''#######################'''  
     '                                                          ''''####''''         
             ,#######,   #######,   ,#######,      ##                                
            ,#'     '#,  ##    ##  ,#'     '#,    #''#        ,####,    ,#,          
            ##       ##  ##   ,#'  ##            #'  '#       #'       ,# #          
            ##       ##  #######   ##           ,######,      #####,      #          
            '#,     ,#'  ##    ##  '#,     ,#' ,#      #,     #,   #      #          
             '#######'   ##     ##  '#######'  #'      '#     '####' #    #          



                #########################################################
                #                        -***-                          #
                #          Department of theory and spectroscopy        #
                #                                                       #
                #                      Frank Neese                      #
                #                                                       #
                #     Directorship, Architecture, Infrastructure        #
                #                    SHARK, DRIVERS                     #
                #        Core code/Algorithms in most modules           #
                #                                                       #
                #        Max Planck Institute fuer Kohlenforschung      #
                #                Kaiser Wilhelm Platz 1                 #
                #                 D-45470 Muelheim/Ruhr                 #
                #                      Germany                          #
                #                                                       #
                #                  All rights reserved                  #
                #                        -***-                          #
                #########################################################


                         Program Version 6.1.0-f.0  -   RELEASE   -


 With contributions from (in alphabetic order):
[Max-Planck-Institut fuer Kohlenforschung]                               
  Daniel Aravena         : Magnetic Suceptibility                        
  Michael Atanasov       : Ab Initio Ligand Field Theory (pilot matlab implementation)
  Alexander A. Auer      : GIAO ZORA, VPT2 properties, NMR spectrum      
  Ute Becker             : All parallelization in ORCA, NUMFREQ, NUMCALC 
  Giovanni Bistoni       : ED, misc. LED, open-shell LED, HFLD           
  Dmytro Bykov           : pre 5.0 version of the SCF Hessian            
  Marcos Casanova-Páez   : Triplet and SCS-CIS(D). UHF-(DLPNO)-IP/EA/STEOM-CCSD. UHF-CVS-IP/STEOM-CCSD   
  Vijay G. Chilkuri      : MRCI spin determinant printing, contributions to CSF-ICE 
  Pauline Colinet        : FMM embedding                                 
  Dipayan Datta          : RHF DLPNO-CCSD density                        
  Achintya Kumar Dutta   : EOM-CC, STEOM-CC                              
  Nicolas Foglia         : Exact transition moments, OPA infrastructure, MCD improvements    
  Dmitry Ganyushin       : Spin-Orbit,Spin-Spin,Magnetic field MRCI      
  Miquel Garcia-Rates    : C-PCM and meta-GGA Hessian, CCSD/C-PCM, Gaussian charge scheme 
  Tiago L. C. Gouveia    : GS-ROHF, GS-ROCIS                             
  Yang Guo               : DLPNO-NEVPT2, F12-NEVPT2, CIM, IAO-localization        
  Andreas Hansen         : Spin unrestricted coupled pair/coupled cluster methods 
  Ingolf Harden          : AUTO-CI MPn and infrastructure                
  Benjamin Helmich-Paris : MC-RPA, TRAH-(SCF,CASSCF), AVAS, COSX integrals, SCF dyn. polar., MC-PDFT, srDFT 
  Lee Huntington         : MR-EOM, pCC                                   
  Robert Izsak           : Overlap fitted RIJCOSX, COSX-SCS-MP3, EOM     
  Riya Kayal             : Wick's Theorem for AUTO-CI, AUTO-CI UHF-CCSDT 
  Emily Kempfer          : AUTO-CI RHF CISDT and CCSDT, approximate NEVPT4
  Christian Kollmar      : KDIIS, OOCD, Brueckner-CCSD(T), CCSD density, CASPT2, CASPT2-K, improved NEVPT2 
  Axel Koslowski         : Symmetry handling                             
  Simone Kossmann        : meta-GGA functionals, TD-DFT gradient, OOMP2, (MP2 Hessian; deprecated post 5.0) 
  Lucas Lang             : DCDCAS, Hyperfine gauge corrections, ICE-SOC+SSC
  Marvin Lechner         : AUTO-CI (C++ implementation), FIC-MRCC        
  Spencer Leger          : CASSCF response                               
  Dagmar Lenk            : GEPOL surface, SMD, ORCA-2-JSON               
  Dimitrios Liakos       : Extrapolation schemes; Compound Job, Property file
  Dimitrios Manganas     : Further ROCIS development; embedding schemes. LFT, Crystal Embedding 
  Dimitrios Pantazis     : SARC Basis sets                               
  Anastasios Papadopoulos: AUTO-CI, single reference methods and gradients 
  Taras Petrenko         : pre 6.0 DFT Hessian and TD-DFT gradient,  ECA, NRVS 
  Petra Pikulova         : Analytic Raman intensities                    
  Peter Pinski           : DLPNO-MP2, DLPNO-MP2 Gradient                 
  Shashank Vittal Rao    : ES-AILFT, MagRelax                            
  Christoph Reimann      : Effective Core Potentials                     
  Marius Retegan         : Local ZFS, SOC                                
  Christoph Riplinger    : Optimizer, TS searches, QM/MM, DLPNO-CCSD(T), (RO)-DLPNO pert. Triples 
  Michael Roemelt        : Original ROCIS implementation, recursive CI coupling coefficients
  Masaaki Saitow         : Open-shell DLPNO-CCSD energy and density      
  Barbara Sandhoefer     : DKH picture change effects                    
  Yorick L. A. Schmerwitz: GMF and freeze-and-release deltaSCF, NEB S-IDPP initial path                    
  Kantharuban Sivalingam : CASSCF convergence/infrastructure, NEVPT2, NEVPT3, NEVPT4(SD), FIC-MRCI and CEPA variants
  Bernardo de Souza      : ESD, SOC TD-DFT                               
  Georgi L. Stoychev     : AutoAux, RI-MP2 NMR, DLPNO-MP2 response, X2C  
  Van Anh Tran           : RI-MP2 g-tensors                              
  Willem Van den Heuvel  : Paramagnetic NMR                              
  Zikuan Wang            : NOTCH, Electric field optimization            
  Frank Wennmohs         : Technical directorship and infrastructure     
  Hang Xu                : AUTO-CI-Response properties                   
                                                                         
[FACCTs GmbH]                                                            
  Markus Bursch, Nicolas Foglia, Miquel Garcia-Rates, Ingolf Harden, Hagen Neugebauer, Anastasios Papadopoulos, 
  Christoph Riplinger, Bernardo de Souza, Georgi L. Stoychev                                                    
                                                                 
  APM, various basis sets, CI-OPT, improved COSX, DLPNO-Multilevel,           
  DOCKER, DRACO, updates on ESD, Fragmentator, GOAT, IRC, LR-CPCM, L-BFGS, MBIS, meta-GGA TD-DFT gradient, ML-optimized integration grids, 
  MM, NACMEs, nearIR, NEB, NEB-TS, NL-DFT gradient (VV10), 2- and 3-layer-ONIOM, interface openCOSMO-RS, QMMM,   
  Crystal-QMMM, RESP, rigid body optimization, SF, symmetry and pop. for TD-DFT, various functionals, SOLVATOR                                   
                                                                         
[Other institutions]                                                     
  V. Asgeirsson          : NEB                                           
  Christoph Bannwarth    : sTDA-DFT, sTD-DFT, PBEh-3c, B97-3c, D3        
  Giovanni Bistoni       : ETS/NOCV, ADLD/ADEX, COVALED                  
  Martin Brehm           : Molecular dynamics                            
  Ronald Cardenas        : ETS/NOCV                                      
  Martina Colucci        : COVALED                                       
  Sebastian Ehlert       : rSCAN, r2SCAN, r2SCAN-3c, D4, dhf basis sets  
  Marvin Friede          : D4 for Fr, Ra, Ac-Lr                          
  Lars Goerigk           : TD-DFT with DH, B97 family of functionals     
  Stefan Grimme          : VdW corrections, initial TS optimization, DFT functionals, gCP, sTDA/sTD-DF 
  Waldemar Hujo          : DFT-NL                                        
  H. Jonsson             : NEB                                           
  Holger Kruse           : gCP                                           
  Marcel Mueller         : wB97X-3c, vDZP basis set                      
  Hagen Neugebauer       : wr2SCAN, Native XTB                           
  Gianluca Regni         : ADLD/ADEX                                     
  Tobias Risthaus        : pre 6.0 range-separated hybrid DFT and stability analysis
  Lukas Wittmann         : regularized MP2, r2SCAN double-hybrids, wr2SCAN        
                                                                         
We gratefully acknowledge several colleagues who have allowed us to      
interface, adapt or use parts of their codes:                            
  Ed Valeev, F. Pavosevic, A. Kumar             : LibInt (2-el integral package), F12 methods 
  Garnet Chan, S. Sharma, J. Yang, R. Olivares  : DMRG                   
  Ulf Ekstrom                                   : XCFun DFT Library      
  Mihaly Kallay                                 : mrcc  (arbitrary order and MRCC methods)
  Frank Weinhold                                : gennbo (NPA and NBO analysis)           
  Simon Mueller                                 : openCOSMO-RS                            
  Christopher J. Cramer and Donald G. Truhlar   : smd solvation model                     
  S Lehtola, MJT Oliveira, MAL Marques          : LibXC Library                           
  Liviu Ungur et al                             : ANISO software                          


 Your calculation uses the libint2 library for the computation of 2-el integrals
 For citations please refer to: http://libint.valeyev.net

 Your ORCA version has been built with support for libXC version: 7.0.0
 For citations please refer to: https://libxc.gitlab.io

 This ORCA versions uses:
   CBLAS   interface :  Fast vector & matrix operations
   LAPACKE interface :  Fast linear algebra routines
   SCALAPACK package :  Parallel linear algebra routines
   Shared memory     :  Shared parallel matrices
   BLAS/LAPACK       :  OpenBLAS 0.3.29  USE64BITINT DYNAMIC_ARCH NO_AFFINITY Haswell SINGLE_THREADED
        Core in use  :  Haswell
   Copyright (c) 2011-2014, The OpenBLAS Project


  ***********************************
  * Starting time: Thu Apr  9 16:06:43 2026
  * Host name:     analima-B660M-GAMING-X-DDR4
  * Process ID:    1010819
  * Working dir.:  /home/analima/COSMO-RS/COSMO-RS.jl/his_cosmo/neutral_delta/01_cpcm_xtb2_alpb/conf_3
  ***********************************

NOTE: MaxCore=2000 MB was set to SCF,MP2,MDCI,CIPSI,MRCI,RASCI and CIS
      => If you want to overwrite this, your respective input block should be placed after the MaxCore statement


***************************************
The coordinates will be read from file: input.xyz
***************************************


Your calculation utilizes the semiempirical GFN2-xTB method
Please cite in your paper:
Bannwarth, C.; Ehlert S.; Grimme, S. J. Chem. Theory Comput. 2019, 15, 1652.
   

================================================================================

================================================================================
                                        WARNINGS
                       Please study these warnings very carefully!
================================================================================


WARNING: Geometry Optimization
  ===> : Switching off AutoStart
         For restart on a previous wavefunction, please use MOREAD

WARNING: Found dipole moment calculation with XTB calculation
  ===> : Switching off dipole moment calculation


================================================================================
                                       INPUT FILE
================================================================================
NAME = input.inp
|  1> %MaxCore 2000
|  2> 
|  3> ! XTB2 OPT ALPB(water)
|  4> 
|  5> %base "geo_opt"
|  6> 
|  7> * xyzfile 0 1 input.xyz
|  8> 
|  9> 
| 10>                          ****END OF INPUT****
================================================================================

                       *****************************
                       * Geometry Optimization Run *
                       *****************************

Geometry optimization settings:
Update method            Update   .... BFGS
Choice of coordinates    CoordSys .... (2022) Redundant Internals
Initial Hessian          InHess   .... Almloef's Model
Max. no of cycles        MaxIter  .... 60

Convergence Tolerances:
Energy Change            TolE     ....  5.0000e-06 Eh
Max. Gradient            TolMAXG  ....  3.0000e-04 Eh/bohr
RMS Gradient             TolRMSG  ....  1.0000e-04 Eh/bohr
Max. Displacement        TolMAXD  ....  4.0000e-03 bohr
RMS Displacement         TolRMSD  ....  2.0000e-03 bohr
Strict Convergence                .... False

------------------------------------------------------------------------------
                        ORCA OPTIMIZATION COORDINATE SETUP
------------------------------------------------------------------------------

The optimization will be done in redundant internal coordinates (2022)
Making redundant internal coordinates   ...  (2022 redundants) done
Evaluating the initial hessian          ...  (Almloef) done
Evaluating the coordinates              ...  done
Calculating the B-matrix                .... done
Calculating the G-matrix                .... done
The number of degrees of freedom        ....   92

    -----------------------------------------------------------------
                    Redundant Internal Coordinates


    -----------------------------------------------------------------
         Definition                    Initial Value    Approx d2E/dq
    -----------------------------------------------------------------
      1. B(C   1,N   0)                  1.4303         0.482634   
      2. B(C   2,C   1)                  1.4967         0.422187   
      3. B(C   3,C   2)                  1.4635         0.476901   
      4. B(C   4,C   3)                  1.3742         0.662083   
      5. B(N   5,C   4)                  1.3454         0.659149   
      6. B(C   6,N   5)                  1.3644         0.614874   
      7. B(N   7,C   3)                  1.3479         0.653116   
      8. B(N   7,C   6)                  1.3474         0.654380   
      9. B(C   8,C   1)                  1.4768         0.454275   
     10. B(O   9,C   8)                  1.2580         0.908814   
     11. B(O  10,C   8)                  1.3879         0.563966   
     12. B(H  11,N   0)                  1.0225         0.413241   
     13. B(H  12,N   0)                  1.0460         0.379060   
     14. B(H  12,O  10)                  2.1330         0.010000   
     15. B(H  13,C   1)                  1.1313         0.309368   
     16. B(H  14,C   2)                  1.1263         0.315132   
     17. B(H  15,C   2)                  1.0876         0.363248   
     18. B(H  16,C   4)                  1.0674         0.391327   
     19. B(H  17,C   6)                  1.0902         0.359860   
     20. B(H  18,N   7)                  1.0564         0.364829   
     21. B(H  19,O  10)                  1.0103         0.432197   
     22. A(C   1,N   0,H  12)          113.9032         0.336286   
     23. A(H  11,N   0,H  12)          109.8071         0.294778   
     24. A(C   1,N   0,H  11)          116.3654         0.341166   
     25. A(N   0,C   1,C   8)          112.0924         0.390385   
     26. A(C   8,C   1,H  13)          104.3540         0.326660   
     27. A(N   0,C   1,H  13)          106.1575         0.327957   
     28. A(C   2,C   1,H  13)          104.7622         0.322752   
     29. A(C   2,C   1,C   8)          114.1130         0.383820   
     30. A(N   0,C   1,C   2)          114.2109         0.385430   
     31. A(C   3,C   2,H  15)          113.9945         0.338181   
     32. A(C   3,C   2,H  14)          105.3894         0.330295   
     33. A(C   1,C   2,H  14)          105.2492         0.323731   
     34. A(H  14,C   2,H  15)          105.6948         0.285223   
     35. A(C   1,C   2,C   3)          114.7515         0.387082   
     36. A(C   1,C   2,H  15)          110.7800         0.331402   
     37. A(C   4,C   3,N   7)          107.1867         0.440467   
     38. A(C   2,C   3,N   7)          124.0367         0.415313   
     39. A(C   2,C   3,C   4)          128.7767         0.419037   
     40. A(N   5,C   4,H  16)          123.3855         0.359433   
     41. A(C   3,C   4,H  16)          128.0561         0.361951   
     42. A(C   3,C   4,N   5)          108.5585         0.441199   
     43. A(C   4,N   5,C   6)          107.2554         0.432501   
     44. A(N   5,C   6,H  17)          126.5829         0.350207   
     45. A(N   5,C   6,N   7)          108.4959         0.431937   
     46. A(N   7,C   6,H  17)          124.9212         0.353914   
     47. A(C   3,N   7,H  18)          125.3372         0.351526   
     48. A(C   6,N   7,H  18)          126.1592         0.351641   
     49. A(C   3,N   7,C   6)          108.5036         0.436652   
     50. A(O   9,C   8,O  10)          117.3522         0.451247   
     51. A(C   1,C   8,O  10)          118.4876         0.401198   
     52. A(C   1,C   8,O   9)          124.1602         0.436802   
     53. A(C   8,O  10,H  19)          122.3222         0.352878   
     54. D(C   2,C   1,N   0,H  11)     -1.5257         0.019930   
     55. D(C   8,C   1,N   0,H  11)   -133.2806         0.019930   
     56. D(C   8,C   1,N   0,H  12)     -3.9829         0.019930   
     57. D(H  13,C   1,N   0,H  11)    113.3811         0.019930   
     58. D(C   2,C   1,N   0,H  12)    127.7720         0.019930   
     59. D(C   3,C   2,C   1,N   0)    -59.9999         0.014100   
     60. D(C   3,C   2,C   1,C   8)     70.7724         0.014100   
     61. D(H  14,C   2,C   1,C   8)   -173.8504         0.014100   
     62. D(H  14,C   2,C   1,N   0)     55.3773         0.014100   
     63. D(H  14,C   2,C   1,H  13)    -60.3454         0.014100   
     64. D(C   3,C   2,C   1,H  13)   -175.7226         0.014100   
     65. D(C   4,C   3,C   2,H  15)    129.2622         0.016769   
     66. D(C   4,C   3,C   2,H  14)   -115.2938         0.016769   
     67. D(C   4,C   3,C   2,C   1)      0.0022         0.016769   
     68. D(N   7,C   3,C   2,C   1)   -179.9999         0.016769   
     69. D(N   7,C   3,C   2,H  14)     64.7041         0.016769   
     70. D(H  16,C   4,C   3,N   7)   -179.9993         0.030602   
     71. D(H  16,C   4,C   3,C   2)     -0.0012         0.030602   
     72. D(N   5,C   4,C   3,N   7)     -0.0001         0.030602   
     73. D(N   5,C   4,C   3,C   2)    179.9980         0.030602   
     74. D(C   6,N   5,C   4,H  16)    179.9993         0.032185   
     75. D(C   6,N   5,C   4,C   3)      0.0000         0.032185   
     76. D(H  17,C   6,N   5,C   4)    179.9989         0.027705   
     77. D(N   7,C   6,N   5,C   4)      0.0000         0.027705   
     78. D(C   3,N   7,C   6,H  17)   -179.9990         0.034988   
     79. D(C   3,N   7,C   6,N   5)     -0.0001         0.034988   
     80. D(H  18,N   7,C   3,C   4)    179.9986         0.034841   
     81. D(H  18,N   7,C   3,C   2)      0.0004         0.034841   
     82. D(C   6,N   7,C   3,C   4)      0.0001         0.034841   
     83. D(H  18,N   7,C   6,N   5)   -179.9986         0.034988   
     84. D(C   6,N   7,C   3,C   2)   -179.9981         0.034841   
     85. D(H  18,N   7,C   6,H  17)      0.0025         0.034988   
     86. D(O  10,C   8,C   1,C   2)   -131.8147         0.015216   
     87. D(O  10,C   8,C   1,N   0)     -0.0107         0.015216   
     88. D(O   9,C   8,C   1,H  13)    -65.5619         0.015216   
     89. D(O   9,C   8,C   1,C   2)     48.1854         0.015216   
     90. D(O   9,C   8,C   1,N   0)    179.9894         0.015216   
     91. D(H  19,O  10,C   8,O   9)    -27.8457         0.025422   
     92. D(H  19,O  10,C   8,C   1)    152.1543         0.025422   
    -----------------------------------------------------------------

Number of atoms                         .... 20
Number of degrees of freedom            .... 92


         *************************************************************
         *                GEOMETRY OPTIMIZATION CYCLE   1            *
         *************************************************************
---------------------------------
CARTESIAN COORDINATES (ANGSTROEM)
---------------------------------
  N    -1.413379   -1.426547    0.749066
  C    -1.356705   -0.678423   -0.468631
  C     0.002383   -0.624510   -1.093198
  C     1.038024   -0.018000   -0.255635
  C     0.925335    0.500827    1.011884
  N     2.131988    0.953621    1.398083
  C     2.999978    0.718137    0.372114
  N     2.324404    0.125555   -0.631854
  C    -2.015744    0.637177   -0.343403
  O    -2.097736    1.477759   -1.275744
  O    -2.584496    0.979311    0.875484
  H    -0.540867   -1.863534    1.054574
  H    -1.847449   -0.906557    1.546170
  H    -1.994443   -1.241754   -1.214197
  H     0.312713   -1.699700   -1.220619
  H    -0.050949   -0.212571   -2.098385
  H     0.053140    0.557391    1.624533
  H     4.062456    0.961439    0.351119
  H     2.727133   -0.178354   -1.560041
  H    -2.675785    1.938732    1.178679

----------------------------
CARTESIAN COORDINATES (A.U.)
----------------------------
  NO LB    ZA    FRAG    MASS        X           Y           Z
   0 N   7.0000    0    14.007   -2.670899   -2.695784    1.415530
   1 C   6.0000    0    12.011   -2.563801   -1.282034   -0.885585
   2 C   6.0000    0    12.011    0.004504   -1.180152   -2.065844
   3 C   6.0000    0    12.011    1.961581   -0.034016   -0.483079
   4 C   6.0000    0    12.011    1.748629    0.946426    1.912184
   5 N   7.0000    0    14.007    4.028873    1.802082    2.641994
   6 C   6.0000    0    12.011    5.669137    1.357082    0.703194
   7 N   7.0000    0    14.007    4.392488    0.237265   -1.194031
   8 C   6.0000    0    12.011   -3.809205    1.204091   -0.648937
   9 O   8.0000    0    15.999   -3.964147    2.792560   -2.410808
  10 O   8.0000    0    15.999   -4.883989    1.850630    1.654425
  11 H   1.0000    0     1.008   -1.022091   -3.521569    1.992856
  12 H   1.0000    0     1.008   -3.491173   -1.713144    2.921839
  13 H   1.0000    0     1.008   -3.768951   -2.346575   -2.294499
  14 H   1.0000    0     1.008    0.590942   -3.211968   -2.306636
  15 H   1.0000    0     1.008   -0.096280   -0.401700   -3.965374
  16 H   1.0000    0     1.008    0.100420    1.053317    3.069922
  17 H   1.0000    0     1.008    7.676929    1.816856    0.663519
  18 H   1.0000    0     1.008    5.153535   -0.337040   -2.948051
  19 H   1.0000    0     1.008   -5.056502    3.663673    2.227381

      -----------------------------------------------------------      
     |                   =====================                   |     
     |                           x T B                           |     
     |                   =====================                   |     
     |                         S. Grimme                         |     
     |          Mulliken Center for Theoretical Chemistry        |     
     |                    University of Bonn                     |     
      -----------------------------------------------------------      

   * xtb version 6.7.1 (edcfbbe) compiled by 'albert@albert-system' on 2024-07-22

   xtb is free software: you can redistribute it and/or modify it under
   the terms of the GNU Lesser General Public License as published by
   the Free Software Foundation, either version 3 of the License, or
   (at your option) any later version.
   
   xtb is distributed in the hope that it will be useful,
   but WITHOUT ANY WARRANTY; without even the implied warranty of
   MERCHANTABILITY or FITNESS FOR A PARTICULAR PURPOSE.  See the
   GNU Lesser General Public License for more details.
   
   Cite this work as:
   * C. Bannwarth, E. Caldeweyher, S. Ehlert, A. Hansen, P. Pracht,
     J. Seibert, S. Spicher, S. Grimme, WIREs Comput. Mol. Sci., 2020, 11,
     e01493. DOI: 10.1002/wcms.1493
   
   for GFN2-xTB:
   * C. Bannwarth, S. Ehlert and S. Grimme., J. Chem. Theory Comput., 2019,
     15, 1652-1671. DOI: 10.1021/acs.jctc.8b01176
   for GFN1-xTB:
   * S. Grimme, C. Bannwarth, P. Shushkov, J. Chem. Theory Comput., 2017,
     13, 1989-2009. DOI: 10.1021/acs.jctc.7b00118
   for GFN0-xTB:
   * P. Pracht, E. Caldeweyher, S. Ehlert, S. Grimme, ChemRxiv, 2019, preprint.
     DOI: 10.26434/chemrxiv.8326202.v1
   for GFN-FF:
   * S. Spicher and S. Grimme, Angew. Chem. Int. Ed., 2020, 59, 15665-15673.
     DOI: 10.1002/anie.202004239
   
   for ALPB and GBSA implicit solvation:
   * S. Ehlert, M. Stahn, S. Spicher, S. Grimme, J. Chem. Theory Comput.,
     2021, 17, 4250-4261. DOI: 10.1021/acs.jctc.1c00471
   
   for ddCOSMO and CPCM-X implicit solvation:
   * M. Stahn, S. Ehlert, S. Grimme, J. Phys. Chem. A,
     2023, XX, XXXX-XXXX. DOI: 10.1021/acs.jpca.3c04382
   
   for DFT-D4:
   * E. Caldeweyher, C. Bannwarth and S. Grimme, J. Chem. Phys., 2017,
     147, 034112. DOI: 10.1063/1.4993215
   * E. Caldeweyher, S. Ehlert, A. Hansen, H. Neugebauer, S. Spicher,
     C. Bannwarth and S. Grimme, J. Chem. Phys., 2019, 150, 154122.
     DOI: 10.1063/1.5090222
   * E. Caldeweyher, J.-M. Mewes, S. Ehlert and S. Grimme, Phys. Chem. Chem. Phys.
     2020, 22, 8499-8512. DOI: 10.1039/D0CP00502A
   
   for sTDA-xTB:
   * S. Grimme and C. Bannwarth, J. Chem. Phys., 2016, 145, 054103.
     DOI: 10.1063/1.4959605
   
   in the mass-spec context:
   * V. Asgeirsson, C. Bauer and S. Grimme, Chem. Sci., 2017, 8, 4879.
     DOI: 10.1039/c7sc00601b
   * J. Koopman and S. Grimme, ACS Omega 2019, 4, 12, 15120-15133.
     DOI: 10.1021/acsomega.9b02011
   
   for metadynamics refer to:
   * S. Grimme, J. Chem. Theory Comput., 2019, 155, 2847-2862
     DOI: 10.1021/acs.jctc.9b00143
   
   for SPH calculations refer to:
   * S. Spicher and S. Grimme, J. Chem. Theory Comput., 2021, 17, 1701-1714
     DOI: 10.1021/acs.jctc.0c01306
   
   for ONIOM refer to:
   * C. Plett, A. Katbashev, S. Ehlert, S. Grimme, M. Bursch,
     Phys. Chem. Chem. Phys., 2023, 25, 17860-17868. DOI: 10.1039/D3CP02178E
   
   for DIPRO refer to:
   * J. Kohn, N. Gildemeister, S. Grimme, D. Fazzi, A. Hansen,
     J. Chem. Phys., 2023, just accepted.
   
   for PTB refer to:
   * S. Grimme, M. Mueller, A. Hansen, J. Chem. Phys., 2023, 158, 124111.
     DOI: 10.1063/5.0137838
   
   with help from (in alphabetical order)
   P. Atkinson, C. Bannwarth, F. Bohle, G. Brandenburg, E. Caldeweyher
   M. Checinski, S. Dohm, S. Ehlert, S. Ehrlich, I. Gerasimov, C. Hölzer
   A. Katbashev, J. Kohn, J. Koopman, C. Lavigne, S. Lehtola, F. März, M. Müller,
   F. Musil, H. Neugebauer, J. Pisarek, C. Plett, P. Pracht, F. Pultar,
   J. Seibert, P. Shushkov, S. Spicher, M. Stahn, M. Steiner, T. Strunk,
   J. Stückrath, T. Rose, and J. Unsleber
   
 * started run on 2026/04/09 at 16:06:43.413     
   ID    Z sym.   atoms
    1    7 N      1, 6, 8
    2    6 C      2-5, 7, 9
    3    8 O      10, 11
    4    1 H      12-20

           -------------------------------------------------
          |                Calculation Setup                |
           -------------------------------------------------

          program call               : /home/analima/Programs/orca-6.1.0-f.0_linux_x86-64/bin/otool_xtb geo_opt_XTB.xyz --grad -c 0 -u 0 -P 1 --namespace geo_opt --input geo_opt_XTB.input.tmp --alpb WATER --acc 0.200000
          calculation namespace      : geo_opt
          coordinate file            : geo_opt_XTB.xyz
          omp threads                :                     1


           -------------------------------------------------
          |                 G F N 2 - x T B                 |
           -------------------------------------------------

        Reference                      10.1021/acs.jctc.8b01176
      * Hamiltonian:
        H0-scaling (s, p, d)           1.850000    2.230000    2.230000
        zeta-weighting                 0.500000
      * Dispersion:
        s8                             2.700000
        a1                             0.520000
        a2                             5.000000
        s9                             5.000000
      * Repulsion:
        kExp                           1.500000    1.000000
        rExp                           1.000000
      * Coulomb:
        alpha                          2.000000
        third order                    shell-resolved
        anisotropic                    true
        a3                             3.000000
        a5                             4.000000
        cn-shift                       1.200000
        cn-exp                         4.000000
        max-rad                        5.000000

      * Solvation model:               ALPB
        Solvent                        WATER
        Parameter file                 internal GFN2-xTB/ALPB
        Dielectric constant                8.0200E+01
        Reference state                gsolv [1 M gas/solution]
        Free energy shift                  1.0808E-03 Eh       6.7819E-01 kcal/mol
        Temperature                        2.9815E+02 K
        Density                            1.0000E+00 kg/L
        Solvent mass                       1.8000E+01 g/mol
        Interaction kernel             P16
        Born radius scaling (c1)           1.4744E+00
        Born radii integrator          GBOBC
        Born offset                        0.0000E+00 a0       0.0000E+00 AA
        H-bond correction              true
        Ion screening                  false
        Surface tension                    1.0000E-05 Eh       1.5569E+01 dyn/cm
        Grid points                               230 per atom

          ...................................................
          :                      SETUP                      :
          :.................................................:
          :  # basis functions                  53          :
          :  # atomic orbitals                  53          :
          :  # shells                           31          :
          :  # electrons                        60          :
          :  max. iterations                   250          :
          :  Hamiltonian                  GFN2-xTB          :
          :  restarted?                      false          :
          :  GBSA solvation                   true          :
          :  PC potential                    false          :
          :  electronic temp.          300.0000000     K    :
          :  accuracy                    0.2000000          :
          :  -> integral cutoff          0.3198970E+02      :
          :  -> integral neglect         0.2000000E-08      :
          :  -> SCF convergence          0.2000000E-06 Eh   :
          :  -> wf. convergence          0.2000000E-04 e    :
          :  Broyden damping             0.4000000          :
          :  net charge                          0          :
          :  unpaired electrons                  0          :
          ...................................................

 iter      E             dE          RMSdq      gap      omega  full diag
   1    -34.5962148 -0.345962E+02  0.439E+00    2.76       0.0  T
   2    -34.6898360 -0.936212E-01  0.242E+00    2.28       1.0  T
   3    -34.6955895 -0.575354E-02  0.134E+00    2.76       1.0  T
   4    -34.6968306 -0.124108E-02  0.388E-01    2.62       1.0  T
   5    -34.6986841 -0.185352E-02  0.104E-01    2.61       1.0  T
   6    -34.6987046 -0.204337E-04  0.609E-02    2.60       1.0  T
   7    -34.6987243 -0.197307E-04  0.224E-02    2.58       1.0  T
   8    -34.6987250 -0.718340E-06  0.712E-03    2.59       3.1  T
   9    -34.6987252 -0.144028E-06  0.343E-03    2.59       6.5  T
  10    -34.6987252 -0.217388E-07  0.123E-03    2.59      18.2  T
  11    -34.6987252 -0.792586E-08  0.582E-04    2.59      38.4  T
  12    -34.6987252 -0.137327E-08  0.241E-04    2.59      92.8  T
  13    -34.6987252 -0.311410E-09  0.782E-05    2.59     285.8  T
  14    -34.6987252 -0.190781E-10  0.363E-05    2.59     615.7  T

   *** convergence criteria satisfied after 14 iterations ***

         #    Occupation            Energy/Eh            Energy/eV
      -------------------------------------------------------------
         1        2.0000           -0.7340612             -19.9748
       ...           ...                  ...                  ...
        24        2.0000           -0.4679551             -12.7337
        25        2.0000           -0.4648439             -12.6490
        26        2.0000           -0.4341552             -11.8140
        27        2.0000           -0.4286492             -11.6641
        28        2.0000           -0.3775075             -10.2725
        29        2.0000           -0.3739371             -10.1753
        30        2.0000           -0.3634320              -9.8895 (HOMO)
        31                         -0.2683284              -7.3016 (LUMO)
        32                         -0.2056337              -5.5956
        33                         -0.1660963              -4.5197
        34                         -0.0342379              -0.9317
        35                         -0.0084492              -0.2299
       ...                                ...                  ...
        53                          0.6233622              16.9625
      -------------------------------------------------------------
                  HL-Gap            0.0951036 Eh            2.5879 eV
             Fermi-level           -0.3158802 Eh           -8.5955 eV

 SCC (total)                   0 d,  0 h,  0 min,  0.013 sec
 SCC setup                      ...        0 min,  0.000 sec (  3.038%)
 Dispersion                     ...        0 min,  0.000 sec (  0.741%)
 classical contributions        ...        0 min,  0.000 sec (  0.164%)
 integral evaluation            ...        0 min,  0.001 sec ( 10.532%)
 iterations                     ...        0 min,  0.007 sec ( 57.035%)
 molecular gradient             ...        0 min,  0.004 sec ( 28.009%)
 printout                       ...        0 min,  0.000 sec (  0.382%)

         :::::::::::::::::::::::::::::::::::::::::::::::::::::
         ::                     SUMMARY                     ::
         :::::::::::::::::::::::::::::::::::::::::::::::::::::
         :: total energy             -34.331179103895 Eh    ::
         :: total w/o Gsasa/hb       -34.316449621775 Eh    ::
         :: gradient norm              0.160548148413 Eh/a0 ::
         :: HOMO-LUMO gap              2.587901540697 eV    ::
         ::.................................................::
         :: SCC energy               -34.698616916762 Eh    ::
         :: -> isotropic ES            0.103876538967 Eh    ::
         :: -> anisotropic ES          0.004441030975 Eh    ::
         :: -> anisotropic XC          0.017257281698 Eh    ::
         :: -> dispersion             -0.016775311823 Eh    ::
         :: -> Gsolv                  -0.032802776054 Eh    ::
         ::    -> Gelec               -0.018073293934 Eh    ::
         ::    -> Gsasa               -0.002164036493 Eh    ::
         ::    -> Ghb                 -0.013646205326 Eh    ::
         ::    -> Gshift               0.001080759698 Eh    ::
         :: repulsion energy           0.367437812867 Eh    ::
         :: add. restraining           0.000000000000 Eh    ::
         :: total charge              -0.000000000000 e     ::
         :::::::::::::::::::::::::::::::::::::::::::::::::::::


Property printout bound to 'properties.out'

           -------------------------------------------------
          | TOTAL ENERGY              -34.331179103895 Eh   |
          | GRADIENT NORM               0.160548148413 Eh/α |
          | HOMO-LUMO GAP               2.587901540697 eV   |
           -------------------------------------------------

------------------------------------------------------------------------
 * finished run on 2026/04/09 at 16:06:43.435     
------------------------------------------------------------------------
 total:
 * wall-time:     0 d,  0 h,  0 min,  0.022 sec
 *  cpu-time:     0 d,  0 h,  0 min,  0.018 sec
 * ratio c/w:     0.793 speedup
 SCF:
 * wall-time:     0 d,  0 h,  0 min,  0.013 sec
 *  cpu-time:     0 d,  0 h,  0 min,  0.012 sec
 * ratio c/w:     0.895 speedup


-------------------------   --------------------
FINAL SINGLE POINT ENERGY       -34.331179103900
-------------------------   --------------------


-------------
DIPOLE MOMENT
-------------
                                X             Y             Z
Total Dipole Moment    :      0.83800      -0.98100      -0.63200
                        -----------------------------------------
Magnitude (a.u.)       :      1.43667
Magnitude (Debye)      :      3.65173


------------------
CARTESIAN GRADIENT
------------------

   1   N   :    0.008699193    0.010297625   -0.035284354
   2   C   :    0.027016332    0.016672496   -0.001231807
   3   C   :   -0.017416189    0.032099462    0.018905276
   4   C   :    0.014124307   -0.009580540   -0.007272156
   5   C   :   -0.012196377    0.002196034    0.014114497
   6   N   :   -0.042515357   -0.003640393    0.014444239
   7   C   :    0.029136648   -0.006890034   -0.032205479
   8   N   :   -0.025056858    0.007875149    0.031315539
   9   C   :    0.024801036   -0.085207220    0.012199076
  10   O   :   -0.007854687    0.040508063   -0.038228047
  11   O   :   -0.022443493    0.006279499    0.010859822
  12   H   :    0.006961446   -0.009588348    0.005551170
  13   H   :   -0.012653445    0.010845017    0.020928185
  14   H   :   -0.002811533   -0.007505451   -0.005247057
  15   H   :    0.005719890   -0.011036206    0.002172042
  16   H   :   -0.000052024   -0.006501503    0.000534056
  17   H   :   -0.002219996   -0.002159405   -0.003478513
  18   H   :    0.015608638    0.002560603   -0.002746773
  19   H   :    0.012467290   -0.009250978   -0.027844211
  20   H   :    0.000685178    0.022026129    0.022514495

Difference to translation invariance:
           :   -0.0000000000   -0.0000000000   -0.0000000000

Difference to rotation invariance:
           :   -0.0002121278    0.0000973752    0.0002972453

Norm of the Cartesian gradient     ...    0.1605481484
RMS gradient                       ...    0.0207266768
MAX gradient                       ...    0.0852072196
------------------------------------------------------------------------------
                         ORCA GEOMETRY RELAXATION STEP
------------------------------------------------------------------------------

Reading the OPT-File                    .... done
Getting information on internals        .... done
Copying old internal coords+grads       .... done
Making the new internal coordinates     .... (2022 redundants) done
Validating the new internal coordinates .... (2022 redundants) done
Calculating the B-matrix                .... done
Calculating the G,G- and P matrices     .... done
Transforming gradient to internals      .... done
Projecting the internal gradient        .... done
Number of atoms                         ....  20
Number of internal coordinates          ....  92
Current Energy                          ....   -34.331179104 Eh
Current gradient norm                   ....     0.160548148 Eh/bohr
Maximum allowed component of the step   ....  0.300
Current trust radius                    ....  0.300
Evaluating the initial hessian          ....  (Almloef) done
Projecting the Hessian                  .... done
Forming the augmented Hessian           .... done
Diagonalizing the augmented Hessian     .... done
Last element of RFO vector              ....  0.949700670
Lowest eigenvalues of augmented Hessian:
 -0.030590804  0.014168742  0.015211701  0.016781399  0.018028658
Length of the computed step             ....  0.329745083
Warning: the length of the step is outside the trust region - taking restricted step instead
The input lambda is                     ....     0.013100
   iter:   5  x=   -0.005267  g=   35.994596 f(x)=     0.317581
   iter:  10  x=   -0.042596  g=    1.228196 f(x)=     0.000112
The output lambda is                    ....    -0.042596 (13 iterations)
The final length of the internal step   ....  0.300000000
Converting the step to Cartesian space:
 Initial RMS(Int)=    0.0312771621
Transforming coordinates:
 Iter   0:  RMS(Cart)=    0.0577203116 RMS(Int)=    1.4643984045
 Iter   5:  RMS(Cart)=    0.0000000582 RMS(Int)=    0.0000000470
done
Storing new coordinates                 .... done

                                .--------------------.
          ----------------------|Geometry convergence|-------------------------
          Item                value                   Tolerance       Converged
          ---------------------------------------------------------------------
          RMS gradient        0.0126727759            0.0001000000      NO
          MAX gradient        0.0559132847            0.0003000000      NO
          RMS step            0.0312771621            0.0020000000      NO
          MAX step            0.1252124888            0.0040000000      NO
          -------------------------------------------------------------------------
          ........................................................
          Max(Bonds)      0.0414      Max(Angles)    3.33
          Max(Dihed)        7.17      Max(Improp)    0.00
          ---------------------------------------------------------------------

The optimization has not yet converged - more geometry cycles are needed


    ---------------------------------------------------------------------------
                         Redundant Internal Coordinates
                            (Angstroem and degrees)

        Definition                    Value    dE/dq     Step     New-Value
    ----------------------------------------------------------------------------
     1. B(C   1,N   0)                1.4303 -0.012473  0.0130    1.4433   
     2. B(C   2,C   1)                1.4967 -0.023812  0.0271    1.5238   
     3. B(C   3,C   2)                1.4635 -0.023191  0.0236    1.4872   
     4. B(C   4,C   3)                1.3742 -0.002755  0.0030    1.3772   
     5. B(N   5,C   4)                1.3454 -0.008997  0.0066    1.3521   
     6. B(C   6,N   5)                1.3644  0.045591 -0.0378    1.3265   
     7. B(N   7,C   3)                1.3479 -0.005542  0.0050    1.3529   
     8. B(N   7,C   6)                1.3474 -0.003649  0.0023    1.3497   
     9. B(C   8,C   1)                1.4768 -0.010298  0.0115    1.4883   
    10. B(O   9,C   8)                1.2580  0.055913 -0.0311    1.2269   
    11. B(O  10,C   8)                1.3879  0.045347 -0.0395    1.3484   
    12. B(H  11,N   0)                1.0225  0.011693 -0.0136    1.0090   
    13. B(H  12,N   0)                1.0460  0.026015 -0.0329    1.0131   
    14. B(H  12,O  10)                2.1330 -0.001668  0.0109    2.1439   
    15. B(H  13,C   1)                1.1313  0.008780 -0.0132    1.1181   
    16. B(H  14,C   2)                1.1263  0.011863 -0.0175    1.1088   
    17. B(H  15,C   2)                1.0876 -0.002951  0.0038    1.0915   
    18. B(H  16,C   4)                1.0674 -0.000297  0.0004    1.0677   
    19. B(H  17,C   6)                1.0902  0.015836 -0.0208    1.0694   
    20. B(H  18,N   7)                1.0564  0.031877 -0.0414    1.0150   
    21. B(H  19,O  10)                1.0103  0.027613 -0.0308    0.9795   
    22. A(C   1,N   0,H  12)          113.90  0.004599   -1.03    112.87   
    23. A(H  11,N   0,H  12)          109.81 -0.003746   -0.20    109.61   
    24. A(C   1,N   0,H  11)          116.37  0.006740   -1.49    114.88   
    25. A(N   0,C   1,C   8)          112.09 -0.006139    1.09    113.19   
    26. A(C   8,C   1,H  13)          104.35  0.000023   -0.30    104.06   
    27. A(N   0,C   1,H  13)          106.16  0.001279    0.18    106.34   
    28. A(C   2,C   1,H  13)          104.76 -0.002110    0.43    105.19   
    29. A(C   2,C   1,C   8)          114.11  0.010484   -1.94    112.17   
    30. A(N   0,C   1,C   2)          114.21 -0.003550    0.56    114.77   
    31. A(C   3,C   2,H  15)          113.99  0.007258   -1.60    112.39   
    32. A(C   3,C   2,H  14)          105.39 -0.004430    1.66    107.05   
    33. A(C   1,C   2,H  14)          105.25 -0.000069    0.55    105.80   
    34. A(H  14,C   2,H  15)          105.69 -0.003611    0.50    106.19   
    35. A(C   1,C   2,C   3)          114.75 -0.001417    0.17    114.92   
    36. A(C   1,C   2,H  15)          110.78  0.000983   -0.86    109.92   
    37. A(C   4,C   3,N   7)          107.19  0.018440   -1.99    105.20   
    38. A(C   2,C   3,N   7)          124.04  0.000110   -0.16    123.87   
    39. A(C   2,C   3,C   4)          128.78 -0.018550    2.15    130.93   
    40. A(N   5,C   4,H  16)          123.39  0.010342   -1.43    121.96   
    41. A(C   3,C   4,H  16)          128.06  0.000969   -0.09    127.96   
    42. A(C   3,C   4,N   5)          108.56 -0.011311    1.52    110.08   
    43. A(C   4,N   5,C   6)          107.26  0.007572   -1.19    106.06   
    44. A(N   5,C   6,H  17)          126.58  0.010703   -1.30    125.29   
    45. A(N   5,C   6,N   7)          108.50 -0.015982    1.80    110.29   
    46. A(N   7,C   6,H  17)          124.92  0.005278   -0.50    124.42   
    47. A(C   3,N   7,H  18)          125.34 -0.000339    0.03    125.36   
    48. A(C   6,N   7,H  18)          126.16 -0.000943    0.11    126.27   
    49. A(C   3,N   7,C   6)          108.50  0.001282   -0.14    108.36   
    50. A(O   9,C   8,O  10)          117.35 -0.014075    1.63    118.98   
    51. A(C   1,C   8,O  10)          118.49  0.013901   -1.60    116.89   
    52. A(C   1,C   8,O   9)          124.16  0.000174   -0.03    124.13   
    53. A(C   8,O  10,H  19)          122.32  0.022954   -3.33    119.00   
    54. D(C   2,C   1,N   0,H  11)     -1.53  0.000362    0.85     -0.67   
    55. D(C   8,C   1,N   0,H  11)   -133.28 -0.005535    2.07   -131.21   
    56. D(C   8,C   1,N   0,H  12)     -3.98  0.000114   -0.72     -4.70   
    57. D(H  13,C   1,N   0,H  11)    113.38 -0.003276    1.78    115.17   
    58. D(C   2,C   1,N   0,H  12)    127.77  0.006010   -1.94    125.83   
    59. D(C   3,C   2,C   1,N   0)    -60.00  0.004127   -1.89    -61.89   
    60. D(C   3,C   2,C   1,C   8)     70.77  0.001900   -1.63     69.14   
    61. D(H  14,C   2,C   1,C   8)   -173.85 -0.004277    0.83   -173.02   
    62. D(H  14,C   2,C   1,N   0)     55.38 -0.002050    0.57     55.95   
    63. D(H  14,C   2,C   1,H  13)    -60.35 -0.000468   -0.20    -60.55   
    64. D(C   3,C   2,C   1,H  13)   -175.72  0.005709   -2.66   -178.38   
    65. D(C   4,C   3,C   2,H  15)    129.26  0.004319   -1.71    127.55   
    66. D(C   4,C   3,C   2,H  14)   -115.29  0.000935   -0.90   -116.19   
    67. D(C   4,C   3,C   2,C   1)      0.00 -0.002725    0.92      0.92   
    68. D(N   7,C   3,C   2,C   1)   -180.00 -0.002086    0.78   -179.22   
    69. D(N   7,C   3,C   2,H  14)     64.70  0.001574   -1.03     63.67   
    70. D(H  16,C   4,C   3,N   7)   -180.00 -0.000139   -0.02   -180.01   
    71. D(H  16,C   4,C   3,C   2)     -0.00  0.000415   -0.13     -0.13   
    72. D(N   5,C   4,C   3,N   7)     -0.00 -0.000075   -0.07     -0.07   
    73. D(N   5,C   4,C   3,C   2)    180.00  0.000479   -0.19    179.81   
    74. D(C   6,N   5,C   4,H  16)    180.00  0.000082    0.01    180.01   
    75. D(C   6,N   5,C   4,C   3)      0.00  0.000023    0.06      0.06   
    76. D(H  17,C   6,N   5,C   4)    180.00 -0.000037   -0.02    179.98   
    77. D(N   7,C   6,N   5,C   4)      0.00  0.000039   -0.03     -0.03   
    78. D(C   3,N   7,C   6,H  17)   -180.00 -0.000013   -0.03   -180.02   
    79. D(C   3,N   7,C   6,N   5)     -0.00 -0.000087   -0.02     -0.02   
    80. D(H  18,N   7,C   3,C   4)    180.00  0.000072    0.05    180.05   
    81. D(H  18,N   7,C   3,C   2)      0.00 -0.000449    0.16      0.16   
    82. D(C   6,N   7,C   3,C   4)      0.00  0.000099    0.05      0.05   
    83. D(H  18,N   7,C   6,N   5)   -180.00 -0.000059   -0.01   -180.01   
    84. D(C   6,N   7,C   3,C   2)   -180.00 -0.000422    0.16   -179.83   
    85. D(H  18,N   7,C   6,H  17)      0.00  0.000015   -0.02     -0.02   
    86. D(O  10,C   8,C   1,C   2)   -131.81  0.001731   -1.06   -132.87   
    87. D(O  10,C   8,C   1,N   0)     -0.01  0.000584   -1.02     -1.03   
    88. D(O   9,C   8,C   1,H  13)    -65.56 -0.002417    1.43    -64.14   
    89. D(O   9,C   8,C   1,C   2)     48.19  0.000071    0.84     49.02   
    90. D(O   9,C   8,C   1,N   0)    179.99 -0.001076    0.87    180.86   
    91. D(H  19,O  10,C   8,O   9)    -27.85 -0.006695    5.41    -22.44   
    92. D(H  19,O  10,C   8,C   1)    152.15 -0.008241    7.17    159.33   
    ----------------------------------------------------------------------------

Geometry step timings:
Preparation and reading OPT file:      0.000 s ( 0.787 %)
Internal coordinates            :      0.000 s ( 0.721 %)
B/P matrices and projection     :      0.000 s (29.115 %)
Hessian update/contruction      :      0.000 s ( 9.246 %)
Making the step                 :      0.001 s (45.443 %)
Converting the step to Cartesian:      0.000 s ( 3.082 %)
Storing new data                :      0.000 s ( 0.918 %)
Checking convergence            :      0.000 s ( 0.656 %)
Final printing                  :      0.000 s ( 9.902 %)
Total time                      :      0.002 s

Time for energy+gradient        :      0.025 s
Time for complete geometry iter :      0.027 s

         *************************************************************
         *                GEOMETRY OPTIMIZATION CYCLE   2            *
         *************************************************************
---------------------------------
CARTESIAN COORDINATES (ANGSTROEM)
---------------------------------
  N    -1.473135   -1.469163    0.759868
  C    -1.391294   -0.696583   -0.456420
  C    -0.005740   -0.645353   -1.088572
  C     1.044583   -0.015889   -0.244643
  C     0.983498    0.516973    1.023839
  N     2.199775    0.978141    1.392525
  C     3.008776    0.738303    0.368961
  N     2.331599    0.137920   -0.632405
  C    -2.003431    0.654475   -0.334532
  O    -2.058471    1.470329   -1.249210
  O    -2.559139    0.966788    0.853628
  H    -0.606600   -1.897414    1.049198
  H    -1.867305   -0.945501    1.532441
  H    -2.035708   -1.220021   -1.205398
  H     0.293275   -1.701414   -1.245666
  H    -0.066597   -0.195222   -2.081045
  H     0.134676    0.583674    1.668110
  H     4.049362    0.982168    0.333752
  H     2.714309   -0.152119   -1.526680
  H    -2.692431    1.909907    1.082249

----------------------------
CARTESIAN COORDINATES (A.U.)
----------------------------
  NO LB    ZA    FRAG    MASS        X           Y           Z
   0 N   7.0000    0    14.007   -2.783822   -2.776315    1.435943
   1 C   6.0000    0    12.011   -2.629165   -1.316352   -0.862510
   2 C   6.0000    0    12.011   -0.010847   -1.219540   -2.057102
   3 C   6.0000    0    12.011    1.973977   -0.030025   -0.462309
   4 C   6.0000    0    12.011    1.858542    0.976938    1.934775
   5 N   7.0000    0    14.007    4.156973    1.848418    2.631491
   6 C   6.0000    0    12.011    5.685762    1.395190    0.697235
   7 N   7.0000    0    14.007    4.406083    0.260631   -1.195073
   8 C   6.0000    0    12.011   -3.785935    1.236779   -0.632174
   9 O   8.0000    0    15.999   -3.889947    2.778519   -2.360665
  10 O   8.0000    0    15.999   -4.836072    1.826964    1.613124
  11 H   1.0000    0     1.008   -1.146308   -3.585593    1.982697
  12 H   1.0000    0     1.008   -3.528695   -1.786739    2.895894
  13 H   1.0000    0     1.008   -3.846931   -2.305505   -2.277872
  14 H   1.0000    0     1.008    0.554209   -3.215206   -2.353967
  15 H   1.0000    0     1.008   -0.125851   -0.368916   -3.932606
  16 H   1.0000    0     1.008    0.254500    1.102984    3.152271
  17 H   1.0000    0     1.008    7.652185    1.856028    0.630700
  18 H   1.0000    0     1.008    5.129300   -0.287462   -2.885007
  19 H   1.0000    0     1.008   -5.087958    3.609202    2.045155

      -----------------------------------------------------------      
     |                   =====================                   |     
     |                           x T B                           |     
     |                   =====================                   |     
     |                         S. Grimme                         |     
     |          Mulliken Center for Theoretical Chemistry        |     
     |                    University of Bonn                     |     
      -----------------------------------------------------------      

   * xtb version 6.7.1 (edcfbbe) compiled by 'albert@albert-system' on 2024-07-22

   xtb is free software: you can redistribute it and/or modify it under
   the terms of the GNU Lesser General Public License as published by
   the Free Software Foundation, either version 3 of the License, or
   (at your option) any later version.
   
   xtb is distributed in the hope that it will be useful,
   but WITHOUT ANY WARRANTY; without even the implied warranty of
   MERCHANTABILITY or FITNESS FOR A PARTICULAR PURPOSE.  See the
   GNU Lesser General Public License for more details.
   
   Cite this work as:
   * C. Bannwarth, E. Caldeweyher, S. Ehlert, A. Hansen, P. Pracht,
     J. Seibert, S. Spicher, S. Grimme, WIREs Comput. Mol. Sci., 2020, 11,
     e01493. DOI: 10.1002/wcms.1493
   
   for GFN2-xTB:
   * C. Bannwarth, S. Ehlert and S. Grimme., J. Chem. Theory Comput., 2019,
     15, 1652-1671. DOI: 10.1021/acs.jctc.8b01176
   for GFN1-xTB:
   * S. Grimme, C. Bannwarth, P. Shushkov, J. Chem. Theory Comput., 2017,
     13, 1989-2009. DOI: 10.1021/acs.jctc.7b00118
   for GFN0-xTB:
   * P. Pracht, E. Caldeweyher, S. Ehlert, S. Grimme, ChemRxiv, 2019, preprint.
     DOI: 10.26434/chemrxiv.8326202.v1
   for GFN-FF:
   * S. Spicher and S. Grimme, Angew. Chem. Int. Ed., 2020, 59, 15665-15673.
     DOI: 10.1002/anie.202004239
   
   for ALPB and GBSA implicit solvation:
   * S. Ehlert, M. Stahn, S. Spicher, S. Grimme, J. Chem. Theory Comput.,
     2021, 17, 4250-4261. DOI: 10.1021/acs.jctc.1c00471
   
   for ddCOSMO and CPCM-X implicit solvation:
   * M. Stahn, S. Ehlert, S. Grimme, J. Phys. Chem. A,
     2023, XX, XXXX-XXXX. DOI: 10.1021/acs.jpca.3c04382
   
   for DFT-D4:
   * E. Caldeweyher, C. Bannwarth and S. Grimme, J. Chem. Phys., 2017,
     147, 034112. DOI: 10.1063/1.4993215
   * E. Caldeweyher, S. Ehlert, A. Hansen, H. Neugebauer, S. Spicher,
     C. Bannwarth and S. Grimme, J. Chem. Phys., 2019, 150, 154122.
     DOI: 10.1063/1.5090222
   * E. Caldeweyher, J.-M. Mewes, S. Ehlert and S. Grimme, Phys. Chem. Chem. Phys.
     2020, 22, 8499-8512. DOI: 10.1039/D0CP00502A
   
   for sTDA-xTB:
   * S. Grimme and C. Bannwarth, J. Chem. Phys., 2016, 145, 054103.
     DOI: 10.1063/1.4959605
   
   in the mass-spec context:
   * V. Asgeirsson, C. Bauer and S. Grimme, Chem. Sci., 2017, 8, 4879.
     DOI: 10.1039/c7sc00601b
   * J. Koopman and S. Grimme, ACS Omega 2019, 4, 12, 15120-15133.
     DOI: 10.1021/acsomega.9b02011
   
   for metadynamics refer to:
   * S. Grimme, J. Chem. Theory Comput., 2019, 155, 2847-2862
     DOI: 10.1021/acs.jctc.9b00143
   
   for SPH calculations refer to:
   * S. Spicher and S. Grimme, J. Chem. Theory Comput., 2021, 17, 1701-1714
     DOI: 10.1021/acs.jctc.0c01306
   
   for ONIOM refer to:
   * C. Plett, A. Katbashev, S. Ehlert, S. Grimme, M. Bursch,
     Phys. Chem. Chem. Phys., 2023, 25, 17860-17868. DOI: 10.1039/D3CP02178E
   
   for DIPRO refer to:
   * J. Kohn, N. Gildemeister, S. Grimme, D. Fazzi, A. Hansen,
     J. Chem. Phys., 2023, just accepted.
   
   for PTB refer to:
   * S. Grimme, M. Mueller, A. Hansen, J. Chem. Phys., 2023, 158, 124111.
     DOI: 10.1063/5.0137838
   
   with help from (in alphabetical order)
   P. Atkinson, C. Bannwarth, F. Bohle, G. Brandenburg, E. Caldeweyher
   M. Checinski, S. Dohm, S. Ehlert, S. Ehrlich, I. Gerasimov, C. Hölzer
   A. Katbashev, J. Kohn, J. Koopman, C. Lavigne, S. Lehtola, F. März, M. Müller,
   F. Musil, H. Neugebauer, J. Pisarek, C. Plett, P. Pracht, F. Pultar,
   J. Seibert, P. Shushkov, S. Spicher, M. Stahn, M. Steiner, T. Strunk,
   J. Stückrath, T. Rose, and J. Unsleber
   
 * started run on 2026/04/09 at 16:06:43.440     
   ID    Z sym.   atoms
    1    7 N      1, 6, 8
    2    6 C      2-5, 7, 9
    3    8 O      10, 11
    4    1 H      12-20

           -------------------------------------------------
          |                Calculation Setup                |
           -------------------------------------------------

          program call               : /home/analima/Programs/orca-6.1.0-f.0_linux_x86-64/bin/otool_xtb geo_opt_XTB.xyz --grad -c 0 -u 0 -P 1 --namespace geo_opt --input geo_opt_XTB.input.tmp --alpb WATER --acc 0.200000
          calculation namespace      : geo_opt
          coordinate file            : geo_opt_XTB.xyz
          omp threads                :                     1


           -------------------------------------------------
          |                 G F N 2 - x T B                 |
           -------------------------------------------------

        Reference                      10.1021/acs.jctc.8b01176
      * Hamiltonian:
        H0-scaling (s, p, d)           1.850000    2.230000    2.230000
        zeta-weighting                 0.500000
      * Dispersion:
        s8                             2.700000
        a1                             0.520000
        a2                             5.000000
        s9                             5.000000
      * Repulsion:
        kExp                           1.500000    1.000000
        rExp                           1.000000
      * Coulomb:
        alpha                          2.000000
        third order                    shell-resolved
        anisotropic                    true
        a3                             3.000000
        a5                             4.000000
        cn-shift                       1.200000
        cn-exp                         4.000000
        max-rad                        5.000000

      * Solvation model:               ALPB
        Solvent                        WATER
        Parameter file                 internal GFN2-xTB/ALPB
        Dielectric constant                8.0200E+01
        Reference state                gsolv [1 M gas/solution]
        Free energy shift                  1.0808E-03 Eh       6.7819E-01 kcal/mol
        Temperature                        2.9815E+02 K
        Density                            1.0000E+00 kg/L
        Solvent mass                       1.8000E+01 g/mol
        Interaction kernel             P16
        Born radius scaling (c1)           1.4744E+00
        Born radii integrator          GBOBC
        Born offset                        0.0000E+00 a0       0.0000E+00 AA
        H-bond correction              true
        Ion screening                  false
        Surface tension                    1.0000E-05 Eh       1.5569E+01 dyn/cm
        Grid points                               230 per atom
q/qsh data taken from xtbrestart
CAMM data taken from xtbrestart

          ...................................................
          :                      SETUP                      :
          :.................................................:
          :  # basis functions                  53          :
          :  # atomic orbitals                  53          :
          :  # shells                           31          :
          :  # electrons                        60          :
          :  max. iterations                   250          :
          :  Hamiltonian                  GFN2-xTB          :
          :  restarted?                       true          :
          :  GBSA solvation                   true          :
          :  PC potential                    false          :
          :  electronic temp.          300.0000000     K    :
          :  accuracy                    0.2000000          :
          :  -> integral cutoff          0.3198970E+02      :
          :  -> integral neglect         0.2000000E-08      :
          :  -> SCF convergence          0.2000000E-06 Eh   :
          :  -> wf. convergence          0.2000000E-04 e    :
          :  Broyden damping             0.4000000          :
          :  net charge                          0          :
          :  unpaired electrons                  0          :
          ...................................................

 iter      E             dE          RMSdq      gap      omega  full diag
   1    -34.7452789 -0.347453E+02  0.349E-01    3.16       0.0  T
   2    -34.7457412 -0.462247E-03  0.225E-01    3.06       1.0  T
   3    -34.7457786 -0.374601E-04  0.110E-01    3.06       1.0  T
   4    -34.7458189 -0.402756E-04  0.322E-02    3.03       1.0  T
   5    -34.7458274 -0.851499E-05  0.882E-03    3.03       2.5  T
   6    -34.7458277 -0.293705E-06  0.458E-03    3.03       4.9  T
   7    -34.7458278 -0.979339E-07  0.130E-03    3.04      17.2  T
   8    -34.7458278 -0.569528E-08  0.493E-04    3.04      45.4  T
   9    -34.7458278 -0.971660E-09  0.236E-04    3.04      94.7  T
  10    -34.7458278 -0.983178E-10  0.738E-05    3.04     303.1  T
  11    -34.7458278 -0.233555E-10  0.311E-05    3.04     718.8  T

   *** convergence criteria satisfied after 11 iterations ***

         #    Occupation            Energy/Eh            Energy/eV
      -------------------------------------------------------------
         1        2.0000           -0.7443395             -20.2545
       ...           ...                  ...                  ...
        24        2.0000           -0.4682707             -12.7423
        25        2.0000           -0.4649835             -12.6528
        26        2.0000           -0.4328128             -11.7774
        27        2.0000           -0.4300821             -11.7031
        28        2.0000           -0.3805065             -10.3541
        29        2.0000           -0.3787006             -10.3050
        30        2.0000           -0.3653302              -9.9411 (HOMO)
        31                         -0.2537763              -6.9056 (LUMO)
        32                         -0.2023569              -5.5064
        33                         -0.1672686              -4.5516
        34                          0.0073959               0.2013
        35                          0.0185200               0.5040
       ...                                ...                  ...
        53                          0.6149140              16.7327
      -------------------------------------------------------------
                  HL-Gap            0.1115539 Eh            3.0355 eV
             Fermi-level           -0.3095533 Eh           -8.4234 eV

 SCC (total)                   0 d,  0 h,  0 min,  0.012 sec
 SCC setup                      ...        0 min,  0.000 sec (  3.142%)
 Dispersion                     ...        0 min,  0.000 sec (  0.798%)
 classical contributions        ...        0 min,  0.000 sec (  0.172%)
 integral evaluation            ...        0 min,  0.002 sec ( 13.762%)
 iterations                     ...        0 min,  0.006 sec ( 52.893%)
 molecular gradient             ...        0 min,  0.003 sec ( 28.678%)
 printout                       ...        0 min,  0.000 sec (  0.419%)

         :::::::::::::::::::::::::::::::::::::::::::::::::::::
         ::                     SUMMARY                     ::
         :::::::::::::::::::::::::::::::::::::::::::::::::::::
         :: total energy             -34.351635677459 Eh    ::
         :: total w/o Gsasa/hb       -34.337234805357 Eh    ::
         :: gradient norm              0.075292746995 Eh/a0 ::
         :: HOMO-LUMO gap              3.035536634537 eV    ::
         ::.................................................::
         :: SCC energy               -34.745716249057 Eh    ::
         :: -> isotropic ES            0.099201141935 Eh    ::
         :: -> anisotropic ES          0.003992929792 Eh    ::
         :: -> anisotropic XC          0.015521087432 Eh    ::
         :: -> dispersion             -0.016670288593 Eh    ::
         :: -> Gsolv                  -0.030842849788 Eh    ::
         ::    -> Gelec               -0.016441977686 Eh    ::
         ::    -> Gsasa               -0.002309515407 Eh    ::
         ::    -> Ghb                 -0.013172116393 Eh    ::
         ::    -> Gshift               0.001080759698 Eh    ::
         :: repulsion energy           0.394080571597 Eh    ::
         :: add. restraining           0.000000000000 Eh    ::
         :: total charge               0.000000000000 e     ::
         :::::::::::::::::::::::::::::::::::::::::::::::::::::


Property printout bound to 'properties.out'

           -------------------------------------------------
          | TOTAL ENERGY              -34.351635677459 Eh   |
          | GRADIENT NORM               0.075292746995 Eh/α |
          | HOMO-LUMO GAP               3.035536634537 eV   |
           -------------------------------------------------

------------------------------------------------------------------------
 * finished run on 2026/04/09 at 16:06:43.457     
------------------------------------------------------------------------
 total:
 * wall-time:     0 d,  0 h,  0 min,  0.017 sec
 *  cpu-time:     0 d,  0 h,  0 min,  0.015 sec
 * ratio c/w:     0.882 speedup
 SCF:
 * wall-time:     0 d,  0 h,  0 min,  0.012 sec
 *  cpu-time:     0 d,  0 h,  0 min,  0.010 sec
 * ratio c/w:     0.832 speedup


-------------------------   --------------------
FINAL SINGLE POINT ENERGY       -34.351635677460
-------------------------   --------------------


-------------
DIPOLE MOMENT
-------------
                                X             Y             Z
Total Dipole Moment    :      0.69400      -0.86400      -0.64300
                        -----------------------------------------
Magnitude (a.u.)       :      1.28124
Magnitude (Debye)      :      3.25666


------------------
CARTESIAN GRADIENT
------------------

   1   N   :    0.005279310    0.008423330   -0.007398768
   2   C   :    0.010740043    0.012886716    0.000933987
   3   C   :   -0.011287149    0.016568123    0.005375378
   4   C   :    0.014226001   -0.006839815   -0.009632758
   5   C   :   -0.000839916    0.003569611    0.009519979
   6   N   :   -0.016683259   -0.001599866    0.005985763
   7   C   :    0.016980701   -0.001938123   -0.014225262
   8   N   :   -0.013106760    0.003047650    0.013546699
   9   C   :    0.014732138   -0.043815806    0.001260877
  10   O   :   -0.006394141    0.013843927   -0.008838132
  11   O   :   -0.015307564    0.013286437   -0.001631505
  12   H   :   -0.002598272   -0.003663553    0.002033872
  13   H   :   -0.002218832   -0.000373204    0.002581287
  14   H   :   -0.002127672   -0.003674605   -0.002189874
  15   H   :    0.002169106   -0.005185556    0.000649052
  16   H   :    0.000285146   -0.004763127   -0.001805379
  17   H   :   -0.000235484   -0.001258050   -0.003036064
  18   H   :    0.000818196   -0.000043800   -0.000601037
  19   H   :    0.001790186   -0.001639957   -0.004357621
  20   H   :    0.003778221    0.003169668    0.011829506

Difference to translation invariance:
           :    0.0000000000   -0.0000000000    0.0000000000

Difference to rotation invariance:
           :   -0.0000760551   -0.0002045588    0.0002060125

Norm of the Cartesian gradient     ...    0.0752927470
RMS gradient                       ...    0.0097202518
MAX gradient                       ...    0.0438158063
------------------------------------------------------------------------------
                         ORCA GEOMETRY RELAXATION STEP
------------------------------------------------------------------------------

Reading the OPT-File                    .... done
Getting information on internals        .... done
Copying old internal coords+grads       .... done
Making the new internal coordinates     .... (2022 redundants) done
Validating the new internal coordinates .... (2022 redundants) done
Calculating the B-matrix                .... done
Calculating the G,G- and P matrices     .... done
Transforming gradient to internals      .... done
Projecting the internal gradient        .... done
Number of atoms                         ....  20
Number of internal coordinates          ....  92
Current Energy                          ....   -34.351635677 Eh
Current gradient norm                   ....     0.075292747 Eh/bohr
Maximum allowed component of the step   ....  0.300
Current trust radius                    ....  0.300
Updating the Hessian (BFGS)             .... done
Forming the augmented Hessian           .... done
Diagonalizing the augmented Hessian     .... done
Last element of RFO vector              ....  0.931587437
Lowest eigenvalues of augmented Hessian:
 -0.011959149  0.014145672  0.015213044  0.016781877  0.018040781
Length of the computed step             ....  0.390212783
Warning: the length of the step is outside the trust region - taking restricted step instead
The input lambda is                     ....     0.013145
   iter:   5  x=   -0.024441  g=    4.549193 f(x)=     0.031920
   iter:  10  x=   -0.026646  g=    2.622023 f(x)=    -0.000000
The output lambda is                    ....    -0.026646 (10 iterations)
The final length of the internal step   ....  0.300000000
Converting the step to Cartesian space:
 Initial RMS(Int)=    0.0312771621
Transforming coordinates:
 Iter   0:  RMS(Cart)=    0.0511768765 RMS(Int)=    1.4632735682
 Iter   5:  RMS(Cart)=    0.0000009104 RMS(Int)=    0.0000007312
done
Storing new coordinates                 .... done
The predicted energy change is          ....    -0.006324926
Previously predicted energy change      ....    -0.016620325
Actually observed energy change         ....    -0.020456574
Ratio of predicted to observed change   ....     1.230816734
New trust radius                        ....     0.450000000

                                .--------------------.
          ----------------------|Geometry convergence|-------------------------
          Item                value                   Tolerance       Converged
          ---------------------------------------------------------------------
          Energy change      -0.0204565736            0.0000050000      NO
          RMS gradient        0.0049412909            0.0001000000      NO
          MAX gradient        0.0176054569            0.0003000000      NO
          RMS step            0.0312771621            0.0020000000      NO
          MAX step            0.1613738100            0.0040000000      NO
          -------------------------------------------------------------------------
          ........................................................
          Max(Bonds)      0.0271      Max(Angles)    3.58
          Max(Dihed)        9.25      Max(Improp)    0.00
          ---------------------------------------------------------------------

The optimization has not yet converged - more geometry cycles are needed


    ---------------------------------------------------------------------------
                         Redundant Internal Coordinates
                            (Angstroem and degrees)

        Definition                    Value    dE/dq     Step     New-Value
    ----------------------------------------------------------------------------
     1. B(C   1,N   0)                1.4432 -0.004125  0.0079    1.4512   
     2. B(C   2,C   1)                1.5238 -0.005935  0.0126    1.5364   
     3. B(C   3,C   2)                1.4872 -0.002354  0.0057    1.4929   
     4. B(C   4,C   3)                1.3772  0.002419 -0.0020    1.3752   
     5. B(N   5,C   4)                1.3520 -0.004714  0.0058    1.3578   
     6. B(C   6,N   5)                1.3265  0.016140 -0.0241    1.3024   
     7. B(N   7,C   3)                1.3529 -0.007966  0.0103    1.3632   
     8. B(N   7,C   6)                1.3497 -0.001989  0.0024    1.3521   
     9. B(C   8,C   1)                1.4883 -0.009983  0.0179    1.5061   
    10. B(O   9,C   8)                1.2269  0.016081 -0.0169    1.2100   
    11. B(O  10,C   8)                1.3484  0.017605 -0.0271    1.3212   
    12. B(H  11,N   0)                1.0090 -0.000094 -0.0009    1.0080   
    13. B(H  12,N   0)                1.0131  0.002356 -0.0073    1.0058   
    14. B(H  12,O  10)                2.1439 -0.000820  0.0038    2.1476   
    15. B(H  13,C   1)                1.1181  0.004413 -0.0112    1.1070   
    16. B(H  14,C   2)                1.1088  0.005431 -0.0136    1.0951   
    17. B(H  15,C   2)                1.0915 -0.000337  0.0010    1.0924   
    18. B(H  16,C   4)                1.0677 -0.001725  0.0033    1.0710   
    19. B(H  17,C   6)                1.0694  0.000806 -0.0032    1.0662   
    20. B(H  18,N   7)                1.0150  0.004985 -0.0131    1.0020   
    21. B(H  19,O  10)                0.9795  0.005301 -0.0116    0.9679   
    22. A(C   1,N   0,H  12)          112.83  0.002883   -1.12    111.71   
    23. A(H  11,N   0,H  12)          109.56 -0.002606   -0.20    109.36   
    24. A(C   1,N   0,H  11)          114.85  0.006501   -2.12    112.73   
    25. A(N   0,C   1,C   8)          113.18 -0.004733    1.21    114.39   
    26. A(C   8,C   1,H  13)          104.05 -0.000596    0.27    104.32   
    27. A(N   0,C   1,H  13)          106.33 -0.000310    0.73    107.06   
    28. A(C   2,C   1,H  13)          105.18 -0.000905    0.44    105.62   
    29. A(C   2,C   1,C   8)          112.18  0.006376   -2.17    110.00   
    30. A(N   0,C   1,C   2)          114.78 -0.000054   -0.23    114.55   
    31. A(C   3,C   2,H  15)          112.38  0.004504   -1.64    110.74   
    32. A(C   3,C   2,H  14)          107.04 -0.003052    1.65    108.69   
    33. A(C   1,C   2,H  14)          105.78 -0.002701    1.18    106.97   
    34. A(H  14,C   2,H  15)          106.20 -0.004136    1.35    107.55   
    35. A(C   1,C   2,C   3)          114.90  0.004468   -1.10    113.80   
    36. A(C   1,C   2,H  15)          109.90 -0.000408   -0.81    109.09   
    37. A(C   4,C   3,N   7)          105.20  0.003530   -0.67    104.53   
    38. A(C   2,C   3,N   7)          123.87  0.003192   -0.71    123.16   
    39. A(C   2,C   3,C   4)          130.93 -0.006721    1.38    132.31   
    40. A(N   5,C   4,H  16)          121.96  0.004009   -0.98    120.98   
    41. A(C   3,C   4,H  16)          127.97 -0.001652    0.37    128.33   
    42. A(C   3,C   4,N   5)          110.07 -0.002357    0.61    110.68   
    43. A(C   4,N   5,C   6)          106.05  0.001457   -0.55    105.50   
    44. A(N   5,C   6,H  17)          125.28  0.004059   -0.87    124.42   
    45. A(N   5,C   6,N   7)          110.30 -0.006858    1.39    111.69   
    46. A(N   7,C   6,H  17)          124.42  0.002799   -0.52    123.90   
    47. A(C   3,N   7,H  18)          125.36 -0.002255    0.42    125.77   
    48. A(C   6,N   7,H  18)          126.27 -0.001972    0.36    126.63   
    49. A(C   3,N   7,C   6)          108.37  0.004228   -0.77    107.60   
    50. A(O   9,C   8,O  10)          118.98 -0.012363    2.34    121.31   
    51. A(C   1,C   8,O  10)          116.87  0.009179   -1.77    115.10   
    52. A(C   1,C   8,O   9)          124.13  0.003184   -0.59    123.54   
    53. A(C   8,O  10,H  19)          119.00  0.014888   -3.58    115.42   
    54. D(C   2,C   1,N   0,H  11)     -0.68 -0.000057    0.80      0.11   
    55. D(C   8,C   1,N   0,H  11)   -131.22 -0.004705    3.00   -128.22   
    56. D(C   8,C   1,N   0,H  12)     -4.69 -0.000162   -0.40     -5.08   
    57. D(H  13,C   1,N   0,H  11)    115.16 -0.001404    1.67    116.83   
    58. D(C   2,C   1,N   0,H  12)    125.85  0.004486   -2.60    123.25   
    59. D(C   3,C   2,C   1,N   0)    -61.88  0.001718   -0.73    -62.61   
    60. D(C   3,C   2,C   1,C   8)     69.14  0.000970   -1.31     67.83   
    61. D(H  14,C   2,C   1,C   8)   -173.03 -0.002108    0.90   -172.13   
    62. D(H  14,C   2,C   1,N   0)     55.95 -0.001360    1.48     57.44   
    63. D(H  14,C   2,C   1,H  13)    -60.55 -0.000361    0.44    -60.11   
    64. D(C   3,C   2,C   1,H  13)   -178.39  0.002716   -1.77   -180.16   
    65. D(C   4,C   3,C   2,H  15)    127.57  0.004405   -2.04    125.53   
    66. D(C   4,C   3,C   2,H  14)   -116.20 -0.000011   -0.25   -116.45   
    67. D(C   4,C   3,C   2,C   1)      0.92 -0.002848    1.70      2.62   
    68. D(N   7,C   3,C   2,C   1)   -179.22 -0.002012    1.33   -177.89   
    69. D(N   7,C   3,C   2,H  14)     63.66  0.000825   -0.62     63.04   
    70. D(H  16,C   4,C   3,N   7)    179.98 -0.000341    0.23    180.21   
    71. D(H  16,C   4,C   3,C   2)     -0.13  0.000381   -0.10     -0.23   
    72. D(N   5,C   4,C   3,N   7)     -0.07 -0.000307    0.18      0.11   
    73. D(N   5,C   4,C   3,C   2)    179.81  0.000415   -0.14    179.67   
    74. D(C   6,N   5,C   4,H  16)   -179.99  0.000208   -0.15   -180.14   
    75. D(C   6,N   5,C   4,C   3)      0.06  0.000180   -0.11     -0.04   
    76. D(H  17,C   6,N   5,C   4)    179.98 -0.000085    0.03    180.01   
    77. D(N   7,C   6,N   5,C   4)     -0.03  0.000015   -0.01     -0.04   
    78. D(C   3,N   7,C   6,H  17)    179.98 -0.000112    0.09    180.06   
    79. D(C   3,N   7,C   6,N   5)     -0.02 -0.000212    0.12      0.10   
    80. D(H  18,N   7,C   3,C   4)   -179.95  0.000163   -0.03   -179.98   
    81. D(H  18,N   7,C   3,C   2)      0.16 -0.000479    0.27      0.43   
    82. D(C   6,N   7,C   3,C   4)      0.06  0.000310   -0.19     -0.13   
    83. D(H  18,N   7,C   6,N   5)    179.99 -0.000063   -0.03    179.95   
    84. D(C   6,N   7,C   3,C   2)   -179.84 -0.000332    0.12   -179.72   
    85. D(H  18,N   7,C   6,H  17)     -0.02  0.000037   -0.07     -0.09   
    86. D(O  10,C   8,C   1,C   2)   -132.86 -0.000626    0.86   -132.01   
    87. D(O  10,C   8,C   1,N   0)     -1.03  0.000884   -0.38     -1.41   
    88. D(O   9,C   8,C   1,H  13)    -64.15 -0.001860    0.90    -63.25   
    89. D(O   9,C   8,C   1,C   2)     49.03 -0.000398    0.57     49.60   
    90. D(O   9,C   8,C   1,N   0)   -179.14  0.001111   -0.67   -179.81   
    91. D(H  19,O  10,C   8,O   9)    -22.45 -0.006818    9.25    -13.20   
    92. D(H  19,O  10,C   8,C   1)    159.34 -0.006884    8.99    168.33   
    ----------------------------------------------------------------------------

Geometry step timings:
Preparation and reading OPT file:      0.000 s ( 0.594 %)
Internal coordinates            :      0.000 s ( 0.792 %)
B/P matrices and projection     :      0.000 s (29.703 %)
Hessian update/contruction      :      0.000 s ( 9.835 %)
Making the step                 :      0.001 s (44.620 %)
Converting the step to Cartesian:      0.000 s ( 2.970 %)
Storing new data                :      0.000 s ( 0.924 %)
Checking convergence            :      0.000 s ( 0.858 %)
Final printing                  :      0.000 s ( 9.703 %)
Total time                      :      0.002 s

Time for energy+gradient        :      0.020 s
Time for complete geometry iter :      0.022 s

         *************************************************************
         *                GEOMETRY OPTIMIZATION CYCLE   3            *
         *************************************************************
---------------------------------
CARTESIAN COORDINATES (ANGSTROEM)
---------------------------------
  N    -1.484794   -1.495729    0.777080
  C    -1.410928   -0.718589   -0.446254
  C    -0.017408   -0.674850   -1.091840
  C     1.021010   -0.028017   -0.236260
  C     0.978858    0.494374    1.035095
  N     2.196222    0.974940    1.396464
  C     2.974135    0.755301    0.375252
  N     2.311927    0.150075   -0.636507
  C    -1.969698    0.675385   -0.331559
  O    -1.994823    1.463234   -1.249533
  O    -2.472165    0.982672    0.851115
  H    -0.598074   -1.901146    1.033014
  H    -1.830927   -0.945952    1.544951
  H    -2.066963   -1.215705   -1.186436
  H     0.279641   -1.711724   -1.281476
  H    -0.089494   -0.170686   -2.058302
  H     0.144141    0.547962    1.703987
  H     4.006814    1.017801    0.336956
  H     2.692686   -0.119601   -1.523229
  H    -2.670160    1.920255    0.987482

----------------------------
CARTESIAN COORDINATES (A.U.)
----------------------------
  NO LB    ZA    FRAG    MASS        X           Y           Z
   0 N   7.0000    0    14.007   -2.805855   -2.826519    1.468468
   1 C   6.0000    0    12.011   -2.666267   -1.357936   -0.843299
   2 C   6.0000    0    12.011   -0.032896   -1.275282   -2.063279
   3 C   6.0000    0    12.011    1.929429   -0.052944   -0.446466
   4 C   6.0000    0    12.011    1.849774    0.934232    1.956047
   5 N   7.0000    0    14.007    4.150258    1.842369    2.638934
   6 C   6.0000    0    12.011    5.620302    1.427312    0.709124
   7 N   7.0000    0    14.007    4.368908    0.283601   -1.202824
   8 C   6.0000    0    12.011   -3.722190    1.276293   -0.626555
   9 O   8.0000    0    15.999   -3.769669    2.765112   -2.361276
  10 O   8.0000    0    15.999   -4.671715    1.856982    1.608375
  11 H   1.0000    0     1.008   -1.130196   -3.592646    1.952114
  12 H   1.0000    0     1.008   -3.459951   -1.787591    2.919534
  13 H   1.0000    0     1.008   -3.905993   -2.297350   -2.242038
  14 H   1.0000    0     1.008    0.528445   -3.234690   -2.421639
  15 H   1.0000    0     1.008   -0.169120   -0.322549   -3.889628
  16 H   1.0000    0     1.008    0.272387    1.035498    3.220069
  17 H   1.0000    0     1.008    7.571781    1.923365    0.636754
  18 H   1.0000    0     1.008    5.088439   -0.226013   -2.878486
  19 H   1.0000    0     1.008   -5.045871    3.628756    1.866071

      -----------------------------------------------------------      
     |                   =====================                   |     
     |                           x T B                           |     
     |                   =====================                   |     
     |                         S. Grimme                         |     
     |          Mulliken Center for Theoretical Chemistry        |     
     |                    University of Bonn                     |     
      -----------------------------------------------------------      

   * xtb version 6.7.1 (edcfbbe) compiled by 'albert@albert-system' on 2024-07-22

   xtb is free software: you can redistribute it and/or modify it under
   the terms of the GNU Lesser General Public License as published by
   the Free Software Foundation, either version 3 of the License, or
   (at your option) any later version.
   
   xtb is distributed in the hope that it will be useful,
   but WITHOUT ANY WARRANTY; without even the implied warranty of
   MERCHANTABILITY or FITNESS FOR A PARTICULAR PURPOSE.  See the
   GNU Lesser General Public License for more details.
   
   Cite this work as:
   * C. Bannwarth, E. Caldeweyher, S. Ehlert, A. Hansen, P. Pracht,
     J. Seibert, S. Spicher, S. Grimme, WIREs Comput. Mol. Sci., 2020, 11,
     e01493. DOI: 10.1002/wcms.1493
   
   for GFN2-xTB:
   * C. Bannwarth, S. Ehlert and S. Grimme., J. Chem. Theory Comput., 2019,
     15, 1652-1671. DOI: 10.1021/acs.jctc.8b01176
   for GFN1-xTB:
   * S. Grimme, C. Bannwarth, P. Shushkov, J. Chem. Theory Comput., 2017,
     13, 1989-2009. DOI: 10.1021/acs.jctc.7b00118
   for GFN0-xTB:
   * P. Pracht, E. Caldeweyher, S. Ehlert, S. Grimme, ChemRxiv, 2019, preprint.
     DOI: 10.26434/chemrxiv.8326202.v1
   for GFN-FF:
   * S. Spicher and S. Grimme, Angew. Chem. Int. Ed., 2020, 59, 15665-15673.
     DOI: 10.1002/anie.202004239
   
   for ALPB and GBSA implicit solvation:
   * S. Ehlert, M. Stahn, S. Spicher, S. Grimme, J. Chem. Theory Comput.,
     2021, 17, 4250-4261. DOI: 10.1021/acs.jctc.1c00471
   
   for ddCOSMO and CPCM-X implicit solvation:
   * M. Stahn, S. Ehlert, S. Grimme, J. Phys. Chem. A,
     2023, XX, XXXX-XXXX. DOI: 10.1021/acs.jpca.3c04382
   
   for DFT-D4:
   * E. Caldeweyher, C. Bannwarth and S. Grimme, J. Chem. Phys., 2017,
     147, 034112. DOI: 10.1063/1.4993215
   * E. Caldeweyher, S. Ehlert, A. Hansen, H. Neugebauer, S. Spicher,
     C. Bannwarth and S. Grimme, J. Chem. Phys., 2019, 150, 154122.
     DOI: 10.1063/1.5090222
   * E. Caldeweyher, J.-M. Mewes, S. Ehlert and S. Grimme, Phys. Chem. Chem. Phys.
     2020, 22, 8499-8512. DOI: 10.1039/D0CP00502A
   
   for sTDA-xTB:
   * S. Grimme and C. Bannwarth, J. Chem. Phys., 2016, 145, 054103.
     DOI: 10.1063/1.4959605
   
   in the mass-spec context:
   * V. Asgeirsson, C. Bauer and S. Grimme, Chem. Sci., 2017, 8, 4879.
     DOI: 10.1039/c7sc00601b
   * J. Koopman and S. Grimme, ACS Omega 2019, 4, 12, 15120-15133.
     DOI: 10.1021/acsomega.9b02011
   
   for metadynamics refer to:
   * S. Grimme, J. Chem. Theory Comput., 2019, 155, 2847-2862
     DOI: 10.1021/acs.jctc.9b00143
   
   for SPH calculations refer to:
   * S. Spicher and S. Grimme, J. Chem. Theory Comput., 2021, 17, 1701-1714
     DOI: 10.1021/acs.jctc.0c01306
   
   for ONIOM refer to:
   * C. Plett, A. Katbashev, S. Ehlert, S. Grimme, M. Bursch,
     Phys. Chem. Chem. Phys., 2023, 25, 17860-17868. DOI: 10.1039/D3CP02178E
   
   for DIPRO refer to:
   * J. Kohn, N. Gildemeister, S. Grimme, D. Fazzi, A. Hansen,
     J. Chem. Phys., 2023, just accepted.
   
   for PTB refer to:
   * S. Grimme, M. Mueller, A. Hansen, J. Chem. Phys., 2023, 158, 124111.
     DOI: 10.1063/5.0137838
   
   with help from (in alphabetical order)
   P. Atkinson, C. Bannwarth, F. Bohle, G. Brandenburg, E. Caldeweyher
   M. Checinski, S. Dohm, S. Ehlert, S. Ehrlich, I. Gerasimov, C. Hölzer
   A. Katbashev, J. Kohn, J. Koopman, C. Lavigne, S. Lehtola, F. März, M. Müller,
   F. Musil, H. Neugebauer, J. Pisarek, C. Plett, P. Pracht, F. Pultar,
   J. Seibert, P. Shushkov, S. Spicher, M. Stahn, M. Steiner, T. Strunk,
   J. Stückrath, T. Rose, and J. Unsleber
   
 * started run on 2026/04/09 at 16:06:43.462     
   ID    Z sym.   atoms
    1    7 N      1, 6, 8
    2    6 C      2-5, 7, 9
    3    8 O      10, 11
    4    1 H      12-20

           -------------------------------------------------
          |                Calculation Setup                |
           -------------------------------------------------

          program call               : /home/analima/Programs/orca-6.1.0-f.0_linux_x86-64/bin/otool_xtb geo_opt_XTB.xyz --grad -c 0 -u 0 -P 1 --namespace geo_opt --input geo_opt_XTB.input.tmp --alpb WATER --acc 0.200000
          calculation namespace      : geo_opt
          coordinate file            : geo_opt_XTB.xyz
          omp threads                :                     1


           -------------------------------------------------
          |                 G F N 2 - x T B                 |
           -------------------------------------------------

        Reference                      10.1021/acs.jctc.8b01176
      * Hamiltonian:
        H0-scaling (s, p, d)           1.850000    2.230000    2.230000
        zeta-weighting                 0.500000
      * Dispersion:
        s8                             2.700000
        a1                             0.520000
        a2                             5.000000
        s9                             5.000000
      * Repulsion:
        kExp                           1.500000    1.000000
        rExp                           1.000000
      * Coulomb:
        alpha                          2.000000
        third order                    shell-resolved
        anisotropic                    true
        a3                             3.000000
        a5                             4.000000
        cn-shift                       1.200000
        cn-exp                         4.000000
        max-rad                        5.000000

      * Solvation model:               ALPB
        Solvent                        WATER
        Parameter file                 internal GFN2-xTB/ALPB
        Dielectric constant                8.0200E+01
        Reference state                gsolv [1 M gas/solution]
        Free energy shift                  1.0808E-03 Eh       6.7819E-01 kcal/mol
        Temperature                        2.9815E+02 K
        Density                            1.0000E+00 kg/L
        Solvent mass                       1.8000E+01 g/mol
        Interaction kernel             P16
        Born radius scaling (c1)           1.4744E+00
        Born radii integrator          GBOBC
        Born offset                        0.0000E+00 a0       0.0000E+00 AA
        H-bond correction              true
        Ion screening                  false
        Surface tension                    1.0000E-05 Eh       1.5569E+01 dyn/cm
        Grid points                               230 per atom
q/qsh data taken from xtbrestart
CAMM data taken from xtbrestart

          ...................................................
          :                      SETUP                      :
          :.................................................:
          :  # basis functions                  53          :
          :  # atomic orbitals                  53          :
          :  # shells                           31          :
          :  # electrons                        60          :
          :  max. iterations                   250          :
          :  Hamiltonian                  GFN2-xTB          :
          :  restarted?                       true          :
          :  GBSA solvation                   true          :
          :  PC potential                    false          :
          :  electronic temp.          300.0000000     K    :
          :  accuracy                    0.2000000          :
          :  -> integral cutoff          0.3198970E+02      :
          :  -> integral neglect         0.2000000E-08      :
          :  -> SCF convergence          0.2000000E-06 Eh   :
          :  -> wf. convergence          0.2000000E-04 e    :
          :  Broyden damping             0.4000000          :
          :  net charge                          0          :
          :  unpaired electrons                  0          :
          ...................................................

 iter      E             dE          RMSdq      gap      omega  full diag
   1    -34.7658036 -0.347658E+02  0.267E-01    3.43       0.0  T
   2    -34.7660776 -0.273998E-03  0.156E-01    3.39       1.0  T
   3    -34.7660929 -0.153096E-04  0.801E-02    3.38       1.0  T
   4    -34.7661104 -0.175197E-04  0.250E-02    3.36       1.0  T
   5    -34.7661155 -0.502614E-05  0.722E-03    3.35       3.1  T
   6    -34.7661157 -0.274698E-06  0.359E-03    3.36       6.2  T
   7    -34.7661158 -0.583619E-07  0.119E-03    3.36      18.8  T
   8    -34.7661158 -0.453866E-08  0.484E-04    3.36      46.2  T
   9    -34.7661158 -0.741238E-09  0.244E-04    3.36      91.8  T
  10    -34.7661158 -0.130434E-09  0.642E-05    3.36     348.5  T
  11    -34.7661158 -0.118234E-10  0.340E-05    3.36     657.2  T

   *** convergence criteria satisfied after 11 iterations ***

         #    Occupation            Energy/Eh            Energy/eV
      -------------------------------------------------------------
         1        2.0000           -0.7521133             -20.4660
       ...           ...                  ...                  ...
        24        2.0000           -0.4674974             -12.7213
        25        2.0000           -0.4644094             -12.6372
        26        2.0000           -0.4315409             -11.7428
        27        2.0000           -0.4304956             -11.7144
        28        2.0000           -0.3823108             -10.4032
        29        2.0000           -0.3814135             -10.3788
        30        2.0000           -0.3674330              -9.9984 (HOMO)
        31                         -0.2440344              -6.6405 (LUMO)
        32                         -0.2007939              -5.4639
        33                         -0.1670649              -4.5461
        34                          0.0186807               0.5083
        35                          0.0286829               0.7805
       ...                                ...                  ...
        53                          0.6173281              16.7984
      -------------------------------------------------------------
                  HL-Gap            0.1233986 Eh            3.3578 eV
             Fermi-level           -0.3057337 Eh           -8.3194 eV

 SCC (total)                   0 d,  0 h,  0 min,  0.013 sec
 SCC setup                      ...        0 min,  0.000 sec (  1.838%)
 Dispersion                     ...        0 min,  0.000 sec (  0.434%)
 classical contributions        ...        0 min,  0.000 sec (  0.092%)
 integral evaluation            ...        0 min,  0.001 sec (  7.126%)
 iterations                     ...        0 min,  0.009 sec ( 70.374%)
 molecular gradient             ...        0 min,  0.003 sec ( 19.734%)
 printout                       ...        0 min,  0.000 sec (  0.333%)

         :::::::::::::::::::::::::::::::::::::::::::::::::::::
         ::                     SUMMARY                     ::
         :::::::::::::::::::::::::::::::::::::::::::::::::::::
         :: total energy             -34.358290752623 Eh    ::
         :: total w/o Gsasa/hb       -34.343991958606 Eh    ::
         :: gradient norm              0.030186792113 Eh/a0 ::
         :: HOMO-LUMO gap              3.357847608828 eV    ::
         ::.................................................::
         :: SCC energy               -34.766001940314 Eh    ::
         :: -> isotropic ES            0.095953580303 Eh    ::
         :: -> anisotropic ES          0.003948642073 Eh    ::
         :: -> anisotropic XC          0.014979990122 Eh    ::
         :: -> dispersion             -0.016763280852 Eh    ::
         :: -> Gsolv                  -0.029700381533 Eh    ::
         ::    -> Gelec               -0.015401587516 Eh    ::
         ::    -> Gsasa               -0.002477825461 Eh    ::
         ::    -> Ghb                 -0.012901728254 Eh    ::
         ::    -> Gshift               0.001080759698 Eh    ::
         :: repulsion energy           0.407711187691 Eh    ::
         :: add. restraining           0.000000000000 Eh    ::
         :: total charge              -0.000000000000 e     ::
         :::::::::::::::::::::::::::::::::::::::::::::::::::::


Property printout bound to 'properties.out'

           -------------------------------------------------
          | TOTAL ENERGY              -34.358290752623 Eh   |
          | GRADIENT NORM               0.030186792113 Eh/α |
          | HOMO-LUMO GAP               3.357847608828 eV   |
           -------------------------------------------------

------------------------------------------------------------------------
 * finished run on 2026/04/09 at 16:06:43.480     
------------------------------------------------------------------------
 total:
 * wall-time:     0 d,  0 h,  0 min,  0.018 sec
 *  cpu-time:     0 d,  0 h,  0 min,  0.013 sec
 * ratio c/w:     0.732 speedup
 SCF:
 * wall-time:     0 d,  0 h,  0 min,  0.013 sec
 *  cpu-time:     0 d,  0 h,  0 min,  0.008 sec
 * ratio c/w:     0.639 speedup


-------------------------   --------------------
FINAL SINGLE POINT ENERGY       -34.358290752620
-------------------------   --------------------


-------------
DIPOLE MOMENT
-------------
                                X             Y             Z
Total Dipole Moment    :      0.55400      -0.70800      -0.67200
                        -----------------------------------------
Magnitude (a.u.)       :      1.12239
Magnitude (Debye)      :      2.85289


------------------
CARTESIAN GRADIENT
------------------

   1   N   :    0.002988977    0.005329530    0.003065097
   2   C   :    0.002405937    0.006818716    0.001913352
   3   C   :   -0.004773623    0.004468662   -0.000546683
   4   C   :    0.005858960   -0.004045172   -0.007709218
   5   C   :    0.004847831    0.002934890    0.004365194
   6   N   :    0.000321085   -0.001730456   -0.004079952
   7   C   :    0.001278153    0.000936257    0.001613688
   8   N   :   -0.003229832    0.000178724    0.001875975
   9   C   :    0.003126867   -0.008304938   -0.003960696
  10   O   :   -0.003341132   -0.003082847    0.007481190
  11   O   :   -0.007446270    0.010154313   -0.008760849
  12   H   :   -0.003126231   -0.001655316    0.000237277
  13   H   :    0.000725781   -0.002841801   -0.003186594
  14   H   :    0.000087120   -0.000734995   -0.000103202
  15   H   :   -0.000170888   -0.000058690    0.000778549
  16   H   :    0.000387581   -0.002104655   -0.001046395
  17   H   :   -0.000914316   -0.000871697   -0.001175543
  18   H   :   -0.002826065   -0.000483261    0.000657485
  19   H   :   -0.001791192    0.001139845    0.004359645
  20   H   :    0.005591256   -0.006047108    0.004221681

Difference to translation invariance:
           :    0.0000000000   -0.0000000000    0.0000000000

Difference to rotation invariance:
           :    0.0000160247   -0.0003648611    0.0001259906

Norm of the Cartesian gradient     ...    0.0301867921
RMS gradient                       ...    0.0038970981
MAX gradient                       ...    0.0101543127
------------------------------------------------------------------------------
                         ORCA GEOMETRY RELAXATION STEP
------------------------------------------------------------------------------

Reading the OPT-File                    .... done
Getting information on internals        .... done
Copying old internal coords+grads       .... done
Making the new internal coordinates     .... (2022 redundants) done
Validating the new internal coordinates .... (2022 redundants) done
Calculating the B-matrix                .... done
Calculating the G,G- and P matrices     .... done
Transforming gradient to internals      .... done
Projecting the internal gradient        .... done
Number of atoms                         ....  20
Number of internal coordinates          ....  92
Current Energy                          ....   -34.358290753 Eh
Current gradient norm                   ....     0.030186792 Eh/bohr
Maximum allowed component of the step   ....  0.300
Current trust radius                    ....  0.450
Updating the Hessian (BFGS)             .... done
Forming the augmented Hessian           .... done
Diagonalizing the augmented Hessian     .... done
Last element of RFO vector              ....  0.951390775
Lowest eigenvalues of augmented Hessian:
 -0.003797341  0.014198413  0.015214437  0.016789429  0.018059312
Length of the computed step             ....  0.323722240
The final length of the internal step   ....  0.323722240
Converting the step to Cartesian space:
 Initial RMS(Int)=    0.0337503766
Transforming coordinates:
 Iter   0:  RMS(Cart)=    0.0401670602 RMS(Int)=    1.1345367020
 Iter   5:  RMS(Cart)=    0.0000024863 RMS(Int)=    0.0000019158
done
Storing new coordinates                 .... done
The predicted energy change is          ....    -0.002097644
Previously predicted energy change      ....    -0.006324926
Actually observed energy change         ....    -0.006655075
Ratio of predicted to observed change   ....     1.052198134
New trust radius                        ....     0.675000000

                                .--------------------.
          ----------------------|Geometry convergence|-------------------------
          Item                value                   Tolerance       Converged
          ---------------------------------------------------------------------
          Energy change      -0.0066550752            0.0000050000      NO
          RMS gradient        0.0023371137            0.0001000000      NO
          MAX gradient        0.0076158300            0.0003000000      NO
          RMS step            0.0337503766            0.0020000000      NO
          MAX step            0.2094480947            0.0040000000      NO
          -------------------------------------------------------------------------
          ........................................................
          Max(Bonds)      0.0129      Max(Angles)    2.11
          Max(Dihed)       12.00      Max(Improp)    0.00
          ---------------------------------------------------------------------

The optimization has not yet converged - more geometry cycles are needed


    ---------------------------------------------------------------------------
                         Redundant Internal Coordinates
                            (Angstroem and degrees)

        Definition                    Value    dE/dq     Step     New-Value
    ----------------------------------------------------------------------------
     1. B(C   1,N   0)                1.4512 -0.000063  0.0029    1.4541   
     2. B(C   2,C   1)                1.5364 -0.000517  0.0053    1.5417   
     3. B(C   3,C   2)                1.4929  0.001555  0.0008    1.4937   
     4. B(C   4,C   3)                1.3751  0.002597 -0.0029    1.3722   
     5. B(N   5,C   4)                1.3578 -0.002766  0.0043    1.3621   
     6. B(C   6,N   5)                1.3024 -0.004390 -0.0020    1.3004   
     7. B(N   7,C   3)                1.3632 -0.004965  0.0074    1.3706   
     8. B(N   7,C   6)                1.3522 -0.000311  0.0011    1.3533   
     9. B(C   8,C   1)                1.5062 -0.005657  0.0129    1.5191   
    10. B(O   9,C   8)                1.2100 -0.007616  0.0004    1.2103   
    11. B(O  10,C   8)                1.3212 -0.002381 -0.0047    1.3165   
    12. B(H  11,N   0)                1.0080 -0.002023  0.0020    1.0100   
    13. B(H  12,N   0)                1.0058 -0.004380  0.0037    1.0095   
    14. B(H  12,O  10)                2.1476 -0.000421  0.0023    2.1499   
    15. B(H  13,C   1)                1.1070  0.000346 -0.0035    1.1035   
    16. B(H  14,C   2)                1.0951 -0.000126 -0.0032    1.0919   
    17. B(H  15,C   2)                1.0924 -0.000071  0.0006    1.0931   
    18. B(H  16,C   4)                1.0710 -0.000068  0.0006    1.0716   
    19. B(H  17,C   6)                1.0662 -0.002879  0.0032    1.0694   
    20. B(H  18,N   7)                1.0020 -0.004842  0.0035    1.0055   
    21. B(H  19,O  10)                0.9679 -0.006405  0.0058    0.9737   
    22. A(C   1,N   0,H  12)          111.61  0.001013   -0.73    110.88   
    23. A(H  11,N   0,H  12)          109.19 -0.000815   -0.52    108.67   
    24. A(C   1,N   0,H  11)          112.62  0.003715   -1.65    110.97   
    25. A(N   0,C   1,C   8)          114.37 -0.001428    0.58    114.94   
    26. A(C   8,C   1,H  13)          104.28 -0.000732    0.33    104.61   
    27. A(N   0,C   1,H  13)          107.04  0.000010    0.41    107.45   
    28. A(C   2,C   1,H  13)          105.63 -0.000514    0.45    106.08   
    29. A(C   2,C   1,C   8)          110.01  0.002718   -1.43    108.58   
    30. A(N   0,C   1,C   2)          114.56 -0.000185   -0.18    114.38   
    31. A(C   3,C   2,H  15)          110.67  0.002177   -1.19    109.48   
    32. A(C   3,C   2,H  14)          108.71 -0.001155    1.15    109.86   
    33. A(C   1,C   2,H  14)          106.97 -0.001530    0.94    107.91   
    34. A(H  14,C   2,H  15)          107.56 -0.001780    0.70    108.26   
    35. A(C   1,C   2,C   3)          113.73  0.001562   -0.52    113.21   
    36. A(C   1,C   2,H  15)          108.97  0.000391   -0.79    108.18   
    37. A(C   4,C   3,N   7)          104.53 -0.002755    0.18    104.71   
    38. A(C   2,C   3,N   7)          123.16  0.004755   -0.97    122.20   
    39. A(C   2,C   3,C   4)          132.31 -0.002000    0.78    133.09   
    40. A(N   5,C   4,H  16)          120.99  0.001252   -0.53    120.46   
    41. A(C   3,C   4,H  16)          128.34 -0.002227    0.51    128.85   
    42. A(C   3,C   4,N   5)          110.67  0.000975    0.02    110.69   
    43. A(C   4,N   5,C   6)          105.49 -0.000178   -0.16    105.34   
    44. A(N   5,C   6,H  17)          124.41 -0.000495   -0.16    124.26   
    45. A(N   5,C   6,N   7)          111.69 -0.000202    0.45    112.14   
    46. A(N   7,C   6,H  17)          123.89  0.000697   -0.29    123.60   
    47. A(C   3,N   7,H  18)          125.77 -0.001078    0.24    126.01   
    48. A(C   6,N   7,H  18)          126.62 -0.001081    0.25    126.87   
    49. A(C   3,N   7,C   6)          107.61  0.002160   -0.49    107.12   
    50. A(O   9,C   8,O  10)          121.32 -0.005782    1.43    122.75   
    51. A(C   1,C   8,O  10)          115.12  0.002714   -0.77    114.35   
    52. A(C   1,C   8,O   9)          123.54  0.003070   -0.65    122.89   
    53. A(C   8,O  10,H  19)          115.42  0.006073   -2.11    113.31   
    54. D(C   2,C   1,N   0,H  11)      0.06 -0.000278    1.48      1.54   
    55. D(C   8,C   1,N   0,H  11)   -128.25 -0.002690    3.17   -125.08   
    56. D(C   8,C   1,N   0,H  12)     -5.01 -0.000219    0.37     -4.64   
    57. D(H  13,C   1,N   0,H  11)    116.79 -0.001015    2.21    119.00   
    58. D(C   2,C   1,N   0,H  12)    123.30  0.002193   -1.32    121.98   
    59. D(C   3,C   2,C   1,N   0)    -62.62  0.000862   -1.89    -64.51   
    60. D(C   3,C   2,C   1,C   8)     67.85  0.001178   -2.58     65.28   
    61. D(H  14,C   2,C   1,C   8)   -172.11 -0.000365   -0.84   -172.95   
    62. D(H  14,C   2,C   1,N   0)     57.41 -0.000681   -0.15     57.27   
    63. D(H  14,C   2,C   1,H  13)    -60.12 -0.000251   -0.85    -60.97   
    64. D(C   3,C   2,C   1,H  13)    179.84  0.001292   -2.59    177.25   
    65. D(C   4,C   3,C   2,H  15)    125.62  0.002018   -1.94    123.69   
    66. D(C   4,C   3,C   2,H  14)   -116.46  0.000421   -1.03   -117.49   
    67. D(C   4,C   3,C   2,C   1)      2.58 -0.001322    0.59      3.17   
    68. D(N   7,C   3,C   2,C   1)   -177.92 -0.001166    0.88   -177.04   
    69. D(N   7,C   3,C   2,H  14)     63.04  0.000577   -0.74     62.30   
    70. D(H  16,C   4,C   3,N   7)   -179.79 -0.000003   -0.25   -180.04   
    71. D(H  16,C   4,C   3,C   2)     -0.22  0.000161   -0.00     -0.22   
    72. D(N   5,C   4,C   3,N   7)      0.10 -0.000124    0.01      0.11   
    73. D(N   5,C   4,C   3,C   2)    179.67  0.000040    0.26    179.93   
    74. D(C   6,N   5,C   4,H  16)    179.86 -0.000031    0.22    180.08   
    75. D(C   6,N   5,C   4,C   3)     -0.04  0.000084   -0.02     -0.06   
    76. D(H  17,C   6,N   5,C   4)   -179.99 -0.000006   -0.07   -180.06   
    77. D(N   7,C   6,N   5,C   4)     -0.04 -0.000008    0.02     -0.01   
    78. D(C   3,N   7,C   6,H  17)   -179.94 -0.000068    0.07   -179.87   
    79. D(C   3,N   7,C   6,N   5)      0.10 -0.000065   -0.02      0.08   
    80. D(H  18,N   7,C   3,C   4)   -179.97 -0.000018    0.22   -179.75   
    81. D(H  18,N   7,C   3,C   2)      0.41 -0.000131   -0.03      0.38   
    82. D(C   6,N   7,C   3,C   4)     -0.12  0.000115    0.01     -0.11   
    83. D(H  18,N   7,C   6,N   5)    179.95  0.000069   -0.23    179.72   
    84. D(C   6,N   7,C   3,C   2)   -179.74  0.000002   -0.24   -179.97   
    85. D(H  18,N   7,C   6,H  17)     -0.09  0.000066   -0.14     -0.23   
    86. D(O  10,C   8,C   1,C   2)   -131.99 -0.000531    0.55   -131.44   
    87. D(O  10,C   8,C   1,N   0)     -1.42  0.000439   -0.51     -1.92   
    88. D(O   9,C   8,C   1,H  13)    -63.25 -0.000734    1.35    -61.91   
    89. D(O   9,C   8,C   1,C   2)     49.60 -0.000524    1.43     51.03   
    90. D(O   9,C   8,C   1,N   0)   -179.82  0.000447    0.37   -179.45   
    91. D(H  19,O  10,C   8,O   9)    -13.21 -0.004721   11.16     -2.05   
    92. D(H  19,O  10,C   8,C   1)    168.34 -0.004864   12.00    180.35   
    ----------------------------------------------------------------------------

Geometry step timings:
Preparation and reading OPT file:      0.000 s ( 0.785 %)
Internal coordinates            :      0.000 s ( 0.872 %)
B/P matrices and projection     :      0.000 s (37.751 %)
Hessian update/contruction      :      0.000 s (11.160 %)
Making the step                 :      0.000 s (30.689 %)
Converting the step to Cartesian:      0.000 s ( 3.749 %)
Storing new data                :      0.000 s ( 0.959 %)
Checking convergence            :      0.000 s ( 1.395 %)
Final printing                  :      0.000 s (12.554 %)
Total time                      :      0.001 s

Time for energy+gradient        :      0.021 s
Time for complete geometry iter :      0.022 s

         *************************************************************
         *                GEOMETRY OPTIMIZATION CYCLE   4            *
         *************************************************************
---------------------------------
CARTESIAN COORDINATES (ANGSTROEM)
---------------------------------
  N    -1.503895   -1.526127    0.771420
  C    -1.418143   -0.730847   -0.443021
  C    -0.016773   -0.699139   -1.084865
  C     1.008665   -0.036416   -0.224336
  C     0.968654    0.498723    1.038578
  N     2.187674    0.994522    1.390078
  C     2.958909    0.768258    0.367821
  N     2.302221    0.146271   -0.638803
  C    -1.922360    0.696247   -0.311480
  O    -1.925988    1.479157   -1.234467
  O    -2.402445    0.995482    0.877273
  H    -0.603255   -1.915499    1.010935
  H    -1.826220   -0.964654    1.545888
  H    -2.086087   -1.194002   -1.189312
  H     0.281256   -1.729240   -1.290754
  H    -0.091344   -0.167312   -2.036938
  H     0.140932    0.561120    1.716291
  H     3.992068    1.040200    0.321399
  H     2.682414   -0.128216   -1.528269
  H    -2.726285    1.911472    0.942564

----------------------------
CARTESIAN COORDINATES (A.U.)
----------------------------
  NO LB    ZA    FRAG    MASS        X           Y           Z
   0 N   7.0000    0    14.007   -2.841949   -2.883962    1.457772
   1 C   6.0000    0    12.011   -2.679901   -1.381101   -0.837188
   2 C   6.0000    0    12.011   -0.031696   -1.321181   -2.050098
   3 C   6.0000    0    12.011    1.906101   -0.068817   -0.423933
   4 C   6.0000    0    12.011    1.830491    0.942449    1.962628
   5 N   7.0000    0    14.007    4.134105    1.879375    2.626867
   6 C   6.0000    0    12.011    5.591528    1.451798    0.695081
   7 N   7.0000    0    14.007    4.350566    0.276412   -1.207163
   8 C   6.0000    0    12.011   -3.632734    1.315715   -0.588613
   9 O   8.0000    0    15.999   -3.639589    2.795202   -2.332805
  10 O   8.0000    0    15.999   -4.539964    1.881189    1.657806
  11 H   1.0000    0     1.008   -1.139987   -3.619768    1.910391
  12 H   1.0000    0     1.008   -3.451056   -1.822931    2.921306
  13 H   1.0000    0     1.008   -3.942132   -2.256337   -2.247474
  14 H   1.0000    0     1.008    0.531497   -3.267790   -2.439172
  15 H   1.0000    0     1.008   -0.172616   -0.316175   -3.849256
  16 H   1.0000    0     1.008    0.266324    1.060364    3.243319
  17 H   1.0000    0     1.008    7.543916    1.965693    0.607355
  18 H   1.0000    0     1.008    5.069028   -0.242293   -2.888010
  19 H   1.0000    0     1.008   -5.151932    3.612158    1.781187

      -----------------------------------------------------------      
     |                   =====================                   |     
     |                           x T B                           |     
     |                   =====================                   |     
     |                         S. Grimme                         |     
     |          Mulliken Center for Theoretical Chemistry        |     
     |                    University of Bonn                     |     
      -----------------------------------------------------------      

   * xtb version 6.7.1 (edcfbbe) compiled by 'albert@albert-system' on 2024-07-22

   xtb is free software: you can redistribute it and/or modify it under
   the terms of the GNU Lesser General Public License as published by
   the Free Software Foundation, either version 3 of the License, or
   (at your option) any later version.
   
   xtb is distributed in the hope that it will be useful,
   but WITHOUT ANY WARRANTY; without even the implied warranty of
   MERCHANTABILITY or FITNESS FOR A PARTICULAR PURPOSE.  See the
   GNU Lesser General Public License for more details.
   
   Cite this work as:
   * C. Bannwarth, E. Caldeweyher, S. Ehlert, A. Hansen, P. Pracht,
     J. Seibert, S. Spicher, S. Grimme, WIREs Comput. Mol. Sci., 2020, 11,
     e01493. DOI: 10.1002/wcms.1493
   
   for GFN2-xTB:
   * C. Bannwarth, S. Ehlert and S. Grimme., J. Chem. Theory Comput., 2019,
     15, 1652-1671. DOI: 10.1021/acs.jctc.8b01176
   for GFN1-xTB:
   * S. Grimme, C. Bannwarth, P. Shushkov, J. Chem. Theory Comput., 2017,
     13, 1989-2009. DOI: 10.1021/acs.jctc.7b00118
   for GFN0-xTB:
   * P. Pracht, E. Caldeweyher, S. Ehlert, S. Grimme, ChemRxiv, 2019, preprint.
     DOI: 10.26434/chemrxiv.8326202.v1
   for GFN-FF:
   * S. Spicher and S. Grimme, Angew. Chem. Int. Ed., 2020, 59, 15665-15673.
     DOI: 10.1002/anie.202004239
   
   for ALPB and GBSA implicit solvation:
   * S. Ehlert, M. Stahn, S. Spicher, S. Grimme, J. Chem. Theory Comput.,
     2021, 17, 4250-4261. DOI: 10.1021/acs.jctc.1c00471
   
   for ddCOSMO and CPCM-X implicit solvation:
   * M. Stahn, S. Ehlert, S. Grimme, J. Phys. Chem. A,
     2023, XX, XXXX-XXXX. DOI: 10.1021/acs.jpca.3c04382
   
   for DFT-D4:
   * E. Caldeweyher, C. Bannwarth and S. Grimme, J. Chem. Phys., 2017,
     147, 034112. DOI: 10.1063/1.4993215
   * E. Caldeweyher, S. Ehlert, A. Hansen, H. Neugebauer, S. Spicher,
     C. Bannwarth and S. Grimme, J. Chem. Phys., 2019, 150, 154122.
     DOI: 10.1063/1.5090222
   * E. Caldeweyher, J.-M. Mewes, S. Ehlert and S. Grimme, Phys. Chem. Chem. Phys.
     2020, 22, 8499-8512. DOI: 10.1039/D0CP00502A
   
   for sTDA-xTB:
   * S. Grimme and C. Bannwarth, J. Chem. Phys., 2016, 145, 054103.
     DOI: 10.1063/1.4959605
   
   in the mass-spec context:
   * V. Asgeirsson, C. Bauer and S. Grimme, Chem. Sci., 2017, 8, 4879.
     DOI: 10.1039/c7sc00601b
   * J. Koopman and S. Grimme, ACS Omega 2019, 4, 12, 15120-15133.
     DOI: 10.1021/acsomega.9b02011
   
   for metadynamics refer to:
   * S. Grimme, J. Chem. Theory Comput., 2019, 155, 2847-2862
     DOI: 10.1021/acs.jctc.9b00143
   
   for SPH calculations refer to:
   * S. Spicher and S. Grimme, J. Chem. Theory Comput., 2021, 17, 1701-1714
     DOI: 10.1021/acs.jctc.0c01306
   
   for ONIOM refer to:
   * C. Plett, A. Katbashev, S. Ehlert, S. Grimme, M. Bursch,
     Phys. Chem. Chem. Phys., 2023, 25, 17860-17868. DOI: 10.1039/D3CP02178E
   
   for DIPRO refer to:
   * J. Kohn, N. Gildemeister, S. Grimme, D. Fazzi, A. Hansen,
     J. Chem. Phys., 2023, just accepted.
   
   for PTB refer to:
   * S. Grimme, M. Mueller, A. Hansen, J. Chem. Phys., 2023, 158, 124111.
     DOI: 10.1063/5.0137838
   
   with help from (in alphabetical order)
   P. Atkinson, C. Bannwarth, F. Bohle, G. Brandenburg, E. Caldeweyher
   M. Checinski, S. Dohm, S. Ehlert, S. Ehrlich, I. Gerasimov, C. Hölzer
   A. Katbashev, J. Kohn, J. Koopman, C. Lavigne, S. Lehtola, F. März, M. Müller,
   F. Musil, H. Neugebauer, J. Pisarek, C. Plett, P. Pracht, F. Pultar,
   J. Seibert, P. Shushkov, S. Spicher, M. Stahn, M. Steiner, T. Strunk,
   J. Stückrath, T. Rose, and J. Unsleber
   
 * started run on 2026/04/09 at 16:06:43.484     
   ID    Z sym.   atoms
    1    7 N      1, 6, 8
    2    6 C      2-5, 7, 9
    3    8 O      10, 11
    4    1 H      12-20

           -------------------------------------------------
          |                Calculation Setup                |
           -------------------------------------------------

          program call               : /home/analima/Programs/orca-6.1.0-f.0_linux_x86-64/bin/otool_xtb geo_opt_XTB.xyz --grad -c 0 -u 0 -P 1 --namespace geo_opt --input geo_opt_XTB.input.tmp --alpb WATER --acc 0.200000
          calculation namespace      : geo_opt
          coordinate file            : geo_opt_XTB.xyz
          omp threads                :                     1


           -------------------------------------------------
          |                 G F N 2 - x T B                 |
           -------------------------------------------------

        Reference                      10.1021/acs.jctc.8b01176
      * Hamiltonian:
        H0-scaling (s, p, d)           1.850000    2.230000    2.230000
        zeta-weighting                 0.500000
      * Dispersion:
        s8                             2.700000
        a1                             0.520000
        a2                             5.000000
        s9                             5.000000
      * Repulsion:
        kExp                           1.500000    1.000000
        rExp                           1.000000
      * Coulomb:
        alpha                          2.000000
        third order                    shell-resolved
        anisotropic                    true
        a3                             3.000000
        a5                             4.000000
        cn-shift                       1.200000
        cn-exp                         4.000000
        max-rad                        5.000000

      * Solvation model:               ALPB
        Solvent                        WATER
        Parameter file                 internal GFN2-xTB/ALPB
        Dielectric constant                8.0200E+01
        Reference state                gsolv [1 M gas/solution]
        Free energy shift                  1.0808E-03 Eh       6.7819E-01 kcal/mol
        Temperature                        2.9815E+02 K
        Density                            1.0000E+00 kg/L
        Solvent mass                       1.8000E+01 g/mol
        Interaction kernel             P16
        Born radius scaling (c1)           1.4744E+00
        Born radii integrator          GBOBC
        Born offset                        0.0000E+00 a0       0.0000E+00 AA
        H-bond correction              true
        Ion screening                  false
        Surface tension                    1.0000E-05 Eh       1.5569E+01 dyn/cm
        Grid points                               230 per atom
q/qsh data taken from xtbrestart
CAMM data taken from xtbrestart

          ...................................................
          :                      SETUP                      :
          :.................................................:
          :  # basis functions                  53          :
          :  # atomic orbitals                  53          :
          :  # shells                           31          :
          :  # electrons                        60          :
          :  max. iterations                   250          :
          :  Hamiltonian                  GFN2-xTB          :
          :  restarted?                       true          :
          :  GBSA solvation                   true          :
          :  PC potential                    false          :
          :  electronic temp.          300.0000000     K    :
          :  accuracy                    0.2000000          :
          :  -> integral cutoff          0.3198970E+02      :
          :  -> integral neglect         0.2000000E-08      :
          :  -> SCF convergence          0.2000000E-06 Eh   :
          :  -> wf. convergence          0.2000000E-04 e    :
          :  Broyden damping             0.4000000          :
          :  net charge                          0          :
          :  unpaired electrons                  0          :
          ...................................................

 iter      E             dE          RMSdq      gap      omega  full diag
   1    -34.7637742 -0.347638E+02  0.180E-01    3.45       0.0  T
   2    -34.7638146 -0.403662E-04  0.103E-01    3.46       1.0  T
   3    -34.7638111  0.341602E-05  0.364E-02    3.44       1.0  T
   4    -34.7638183 -0.712948E-05  0.105E-02    3.44       2.1  T
   5    -34.7638194 -0.110806E-05  0.367E-03    3.44       6.1  T
   6    -34.7638194 -0.525645E-07  0.183E-03    3.44      12.2  T
   7    -34.7638194 -0.942510E-08  0.619E-04    3.44      36.1  T
   8    -34.7638194 -0.202054E-08  0.229E-04    3.44      97.8  T
   9    -34.7638194 -0.120600E-09  0.900E-05    3.44     248.5  T
  10    -34.7638194 -0.204281E-10  0.272E-05    3.44     822.1  T

   *** convergence criteria satisfied after 10 iterations ***

         #    Occupation            Energy/Eh            Energy/eV
      -------------------------------------------------------------
         1        2.0000           -0.7539880             -20.5171
       ...           ...                  ...                  ...
        24        2.0000           -0.4670879             -12.7101
        25        2.0000           -0.4643163             -12.6347
        26        2.0000           -0.4309122             -11.7257
        27        2.0000           -0.4300445             -11.7021
        28        2.0000           -0.3831715             -10.4266
        29        2.0000           -0.3821562             -10.3990
        30        2.0000           -0.3697687             -10.0619 (HOMO)
        31                         -0.2431741              -6.6171 (LUMO)
        32                         -0.2013855              -5.4800
        33                         -0.1674538              -4.5566
        34                          0.0145145               0.3950
        35                          0.0301073               0.8193
       ...                                ...                  ...
        53                          0.6192720              16.8512
      -------------------------------------------------------------
                  HL-Gap            0.1265946 Eh            3.4448 eV
             Fermi-level           -0.3064714 Eh           -8.3395 eV

 SCC (total)                   0 d,  0 h,  0 min,  0.013 sec
 SCC setup                      ...        0 min,  0.000 sec (  1.897%)
 Dispersion                     ...        0 min,  0.000 sec (  0.461%)
 classical contributions        ...        0 min,  0.000 sec (  0.099%)
 integral evaluation            ...        0 min,  0.001 sec (  7.070%)
 iterations                     ...        0 min,  0.009 sec ( 70.680%)
 molecular gradient             ...        0 min,  0.003 sec ( 19.405%)
 printout                       ...        0 min,  0.000 sec (  0.311%)

         :::::::::::::::::::::::::::::::::::::::::::::::::::::
         ::                     SUMMARY                     ::
         :::::::::::::::::::::::::::::::::::::::::::::::::::::
         :: total energy             -34.360604067264 Eh    ::
         :: total w/o Gsasa/hb       -34.346097018854 Eh    ::
         :: gradient norm              0.013737493938 Eh/a0 ::
         :: HOMO-LUMO gap              3.444814950751 eV    ::
         ::.................................................::
         :: SCC energy               -34.763705302309 Eh    ::
         :: -> isotropic ES            0.095376881817 Eh    ::
         :: -> anisotropic ES          0.003941492945 Eh    ::
         :: -> anisotropic XC          0.015286906882 Eh    ::
         :: -> dispersion             -0.016837413601 Eh    ::
         :: -> Gsolv                  -0.029868362998 Eh    ::
         ::    -> Gelec               -0.015361314588 Eh    ::
         ::    -> Gsasa               -0.002611780173 Eh    ::
         ::    -> Ghb                 -0.012976027935 Eh    ::
         ::    -> Gshift               0.001080759698 Eh    ::
         :: repulsion energy           0.403101235045 Eh    ::
         :: add. restraining           0.000000000000 Eh    ::
         :: total charge              -0.000000000000 e     ::
         :::::::::::::::::::::::::::::::::::::::::::::::::::::


Property printout bound to 'properties.out'

           -------------------------------------------------
          | TOTAL ENERGY              -34.360604067264 Eh   |
          | GRADIENT NORM               0.013737493938 Eh/α |
          | HOMO-LUMO GAP               3.444814950751 eV   |
           -------------------------------------------------

------------------------------------------------------------------------
 * finished run on 2026/04/09 at 16:06:43.504     
------------------------------------------------------------------------
 total:
 * wall-time:     0 d,  0 h,  0 min,  0.019 sec
 *  cpu-time:     0 d,  0 h,  0 min,  0.014 sec
 * ratio c/w:     0.742 speedup
 SCF:
 * wall-time:     0 d,  0 h,  0 min,  0.013 sec
 *  cpu-time:     0 d,  0 h,  0 min,  0.009 sec
 * ratio c/w:     0.671 speedup


-------------------------   --------------------
FINAL SINGLE POINT ENERGY       -34.360604067260
-------------------------   --------------------


-------------
DIPOLE MOMENT
-------------
                                X             Y             Z
Total Dipole Moment    :      0.39900      -0.68800      -0.70700
                        -----------------------------------------
Magnitude (a.u.)       :      1.06414
Magnitude (Debye)      :      2.70483


------------------
CARTESIAN GRADIENT
------------------

   1   N   :    0.001276445    0.001306164    0.003181501
   2   C   :   -0.001971469    0.001199540    0.001655193
   3   C   :   -0.000676470    0.000139643   -0.001671455
   4   C   :    0.000780887   -0.001502571   -0.003584245
   5   C   :    0.003001582    0.001669989    0.002234260
   6   N   :    0.003114270   -0.000513468   -0.002831114
   7   C   :   -0.002526511    0.000665479    0.003727181
   8   N   :    0.000129775    0.000092754   -0.000644921
   9   C   :    0.001346961    0.003246428   -0.001578361
  10   O   :   -0.001247994   -0.003343724    0.004015196
  11   O   :   -0.001683939    0.001553949   -0.004242349
  12   H   :   -0.001750155   -0.000774658   -0.000884180
  13   H   :    0.000499231   -0.000924862   -0.001824426
  14   H   :    0.000746797   -0.000534513    0.000056125
  15   H   :   -0.000712292    0.000667626    0.000401547
  16   H   :    0.000200787   -0.000373337   -0.000108167
  17   H   :   -0.000799747   -0.000436759   -0.000499544
  18   H   :   -0.001088376   -0.000037383    0.000500404
  19   H   :   -0.000360736    0.000374745    0.001385688
  20   H   :    0.001720956   -0.002475043    0.000711668

Difference to translation invariance:
           :    0.0000000000   -0.0000000000    0.0000000000

Difference to rotation invariance:
           :    0.0000943640   -0.0005527691    0.0000710927

Norm of the Cartesian gradient     ...    0.0137374939
RMS gradient                       ...    0.0017735028
MAX gradient                       ...    0.0042423486
------------------------------------------------------------------------------
                         ORCA GEOMETRY RELAXATION STEP
------------------------------------------------------------------------------

Reading the OPT-File                    .... done
Getting information on internals        .... done
Copying old internal coords+grads       .... done
Making the new internal coordinates     .... (2022 redundants) done
Validating the new internal coordinates .... (2022 redundants) done
Calculating the B-matrix                .... done
Calculating the G,G- and P matrices     .... done
Transforming gradient to internals      .... done
Projecting the internal gradient        .... done
Number of atoms                         ....  20
Number of internal coordinates          ....  92
Current Energy                          ....   -34.360604067 Eh
Current gradient norm                   ....     0.013737494 Eh/bohr
Maximum allowed component of the step   ....  0.300
Current trust radius                    ....  0.675
Updating the Hessian (BFGS)             .... done
Forming the augmented Hessian           .... done
Diagonalizing the augmented Hessian     .... done
Last element of RFO vector              ....  0.987802891
Lowest eigenvalues of augmented Hessian:
 -0.000624775  0.013764330  0.015129603  0.016661693  0.017496765
Length of the computed step             ....  0.157632160
The final length of the internal step   ....  0.157632160
Converting the step to Cartesian space:
 Initial RMS(Int)=    0.0164342888
Transforming coordinates:
 Iter   0:  RMS(Cart)=    0.0358783245 RMS(Int)=    1.1328004052
 Iter   5:  RMS(Cart)=    0.0000000098 RMS(Int)=    0.0000000063
done
Storing new coordinates                 .... done
The predicted energy change is          ....    -0.000320150
Previously predicted energy change      ....    -0.002097644
Actually observed energy change         ....    -0.002313315
Ratio of predicted to observed change   ....     1.102815716
New trust radius                        ....     0.700000000

                                .--------------------.
          ----------------------|Geometry convergence|-------------------------
          Item                value                   Tolerance       Converged
          ---------------------------------------------------------------------
          Energy change      -0.0023133146            0.0000050000      NO
          RMS gradient        0.0011712074            0.0001000000      NO
          MAX gradient        0.0052248036            0.0003000000      NO
          RMS step            0.0164342888            0.0020000000      NO
          MAX step            0.0906547593            0.0040000000      NO
          -------------------------------------------------------------------------
          ........................................................
          Max(Bonds)      0.0036      Max(Angles)    0.56
          Max(Dihed)        5.19      Max(Improp)    0.00
          ---------------------------------------------------------------------

The optimization has not yet converged - more geometry cycles are needed


    ---------------------------------------------------------------------------
                         Redundant Internal Coordinates
                            (Angstroem and degrees)

        Definition                    Value    dE/dq     Step     New-Value
    ----------------------------------------------------------------------------
     1. B(C   1,N   0)                1.4542  0.000744  0.0000    1.4542   
     2. B(C   2,C   1)                1.5417  0.001450 -0.0007    1.5410   
     3. B(C   3,C   2)                1.4937  0.001826 -0.0015    1.4922   
     4. B(C   4,C   3)                1.3722  0.002181 -0.0025    1.3697   
     5. B(N   5,C   4)                1.3621 -0.000578  0.0012    1.3634   
     6. B(C   6,N   5)                1.3004 -0.004709  0.0036    1.3040   
     7. B(N   7,C   3)                1.3706 -0.000543  0.0013    1.3719   
     8. B(N   7,C   6)                1.3533  0.001046 -0.0008    1.3525   
     9. B(C   8,C   1)                1.5193 -0.000938  0.0034    1.5226   
    10. B(O   9,C   8)                1.2103 -0.005225  0.0026    1.2130   
    11. B(O  10,C   8)                1.3165 -0.003397  0.0020    1.3185   
    12. B(H  11,N   0)                1.0100 -0.001469  0.0020    1.0120   
    13. B(H  12,N   0)                1.0094 -0.002130  0.0025    1.0120   
    14. B(H  12,O  10)                2.1497 -0.000169 -0.0015    2.1482   
    15. B(H  13,C   1)                1.1035 -0.000268 -0.0003    1.1032   
    16. B(H  14,C   2)                1.0919 -0.000900  0.0009    1.0928   
    17. B(H  15,C   2)                1.0931 -0.000102  0.0004    1.0935   
    18. B(H  16,C   4)                1.0716  0.000272 -0.0004    1.0712   
    19. B(H  17,C   6)                1.0694 -0.001081  0.0014    1.0708   
    20. B(H  18,N   7)                1.0055 -0.001459  0.0013    1.0068   
    21. B(H  19,O  10)                0.9737 -0.002852  0.0036    0.9774   
    22. A(C   1,N   0,H  12)          110.82 -0.000185   -0.16    110.66   
    23. A(H  11,N   0,H  12)          108.50  0.000272   -0.45    108.05   
    24. A(C   1,N   0,H  11)          110.87  0.000785   -0.56    110.31   
    25. A(N   0,C   1,C   8)          114.95  0.000270    0.04    114.99   
    26. A(C   8,C   1,H  13)          104.59  0.000006    0.04    104.63   
    27. A(N   0,C   1,H  13)          107.43 -0.000311    0.23    107.66   
    28. A(C   2,C   1,H  13)          106.10 -0.000287    0.30    106.39   
    29. A(C   2,C   1,C   8)          108.57  0.000023   -0.36    108.20   
    30. A(N   0,C   1,C   2)          114.36  0.000222   -0.16    114.20   
    31. A(C   3,C   2,H  15)          109.44  0.000272   -0.34    109.10   
    32. A(C   3,C   2,H  14)          109.86 -0.000125    0.34    110.20   
    33. A(C   1,C   2,H  14)          107.89 -0.000765    0.41    108.30   
    34. A(H  14,C   2,H  15)          108.26 -0.000200    0.11    108.38   
    35. A(C   1,C   2,C   3)          113.16  0.000617   -0.18    112.98   
    36. A(C   1,C   2,H  15)          108.10  0.000162   -0.30    107.80   
    37. A(C   4,C   3,N   7)          104.71 -0.002193    0.26    104.97   
    38. A(C   2,C   3,N   7)          122.20  0.002781   -0.54    121.66   
    39. A(C   2,C   3,C   4)          133.10 -0.000589    0.28    133.38   
    40. A(N   5,C   4,H  16)          120.46  0.000474   -0.20    120.25   
    41. A(C   3,C   4,H  16)          128.85 -0.001548    0.34    129.20   
    42. A(C   3,C   4,N   5)          110.69  0.001074   -0.14    110.55   
    43. A(C   4,N   5,C   6)          105.34 -0.000432    0.05    105.39   
    44. A(N   5,C   6,H  17)          124.26 -0.001215    0.14    124.39   
    45. A(N   5,C   6,N   7)          112.14  0.001420   -0.09    112.05   
    46. A(N   7,C   6,H  17)          123.60 -0.000205   -0.05    123.56   
    47. A(C   3,N   7,H  18)          126.01  0.000106    0.00    126.02   
    48. A(C   6,N   7,H  18)          126.87 -0.000236    0.07    126.94   
    49. A(C   3,N   7,C   6)          107.12  0.000131   -0.08    107.04   
    50. A(O   9,C   8,O  10)          122.72 -0.000418    0.21    122.93   
    51. A(C   1,C   8,O  10)          114.38 -0.000523    0.03    114.41   
    52. A(C   1,C   8,O   9)          122.86  0.000902   -0.26    122.60   
    53. A(C   8,O  10,H  19)          113.31  0.001174   -0.56    112.74   
    54. D(C   2,C   1,N   0,H  11)      1.49 -0.000496    1.84      3.33   
    55. D(C   8,C   1,N   0,H  11)   -125.11 -0.000977    2.48   -122.63   
    56. D(C   8,C   1,N   0,H  12)     -4.57 -0.000234    1.35     -3.22   
    57. D(H  13,C   1,N   0,H  11)    118.96 -0.000932    2.26    121.22   
    58. D(C   2,C   1,N   0,H  12)    122.03  0.000247    0.71    122.74   
    59. D(C   3,C   2,C   1,N   0)    -64.52  0.000033   -1.30    -65.82   
    60. D(C   3,C   2,C   1,C   8)     65.31  0.000602   -1.72     63.59   
    61. D(H  14,C   2,C   1,C   8)   -172.92  0.000304   -1.13   -174.05   
    62. D(H  14,C   2,C   1,N   0)     57.24 -0.000266   -0.70     56.54   
    63. D(H  14,C   2,C   1,H  13)    -60.99  0.000185   -1.09    -62.08   
    64. D(C   3,C   2,C   1,H  13)    177.25  0.000483   -1.68    175.57   
    65. D(C   4,C   3,C   2,H  15)    123.75  0.000492   -0.92    122.83   
    66. D(C   4,C   3,C   2,H  14)   -117.51  0.000337   -0.78   -118.29   
    67. D(C   4,C   3,C   2,C   1)      3.14 -0.000315   -0.14      3.00   
    68. D(N   7,C   3,C   2,C   1)   -177.05 -0.000378    0.19   -176.86   
    69. D(N   7,C   3,C   2,H  14)     62.30  0.000274   -0.45     61.85   
    70. D(H  16,C   4,C   3,N   7)    179.95  0.000008   -0.10    179.85   
    71. D(H  16,C   4,C   3,C   2)     -0.22 -0.000041    0.18     -0.03   
    72. D(N   5,C   4,C   3,N   7)      0.10 -0.000098    0.13      0.23   
    73. D(N   5,C   4,C   3,C   2)    179.94 -0.000148    0.41    180.36   
    74. D(C   6,N   5,C   4,H  16)   -179.92 -0.000031    0.13   -179.79   
    75. D(C   6,N   5,C   4,C   3)     -0.06  0.000062   -0.09     -0.14   
    76. D(H  17,C   6,N   5,C   4)    179.94 -0.000026    0.03    179.97   
    77. D(N   7,C   6,N   5,C   4)     -0.01  0.000000    0.01     -0.00   
    78. D(C   3,N   7,C   6,H  17)   -179.87 -0.000033    0.05   -179.82   
    79. D(C   3,N   7,C   6,N   5)      0.08 -0.000060    0.07      0.15   
    80. D(H  18,N   7,C   3,C   4)   -179.76 -0.000025    0.12   -179.63   
    81. D(H  18,N   7,C   3,C   2)      0.39  0.000023   -0.14      0.25   
    82. D(C   6,N   7,C   3,C   4)     -0.11  0.000097   -0.12     -0.23   
    83. D(H  18,N   7,C   6,N   5)    179.72  0.000064   -0.18    179.54   
    84. D(C   6,N   7,C   3,C   2)   -179.97  0.000145   -0.38   -180.35   
    85. D(H  18,N   7,C   6,H  17)     -0.23  0.000091   -0.20     -0.43   
    86. D(O  10,C   8,C   1,C   2)   -131.43 -0.001041    3.11   -128.32   
    87. D(O  10,C   8,C   1,N   0)     -1.91 -0.000495    2.58      0.66   
    88. D(O   9,C   8,C   1,H  13)    -61.91  0.000300   -0.73    -62.64   
    89. D(O   9,C   8,C   1,C   2)     51.03 -0.000013   -0.53     50.49   
    90. D(O   9,C   8,C   1,N   0)   -179.46  0.000533   -1.06   -180.52   
    91. D(H  19,O  10,C   8,O   9)     -2.08 -0.001367    5.19      3.12   
    92. D(H  19,O  10,C   8,C   1)   -179.63 -0.000377    1.83   -177.80   
    ----------------------------------------------------------------------------

Geometry step timings:
Preparation and reading OPT file:      0.000 s ( 0.874 %)
Internal coordinates            :      0.000 s ( 0.787 %)
B/P matrices and projection     :      0.000 s (37.587 %)
Hessian update/contruction      :      0.000 s (10.052 %)
Making the step                 :      0.000 s (31.206 %)
Converting the step to Cartesian:      0.000 s ( 3.759 %)
Storing new data                :      0.000 s ( 1.224 %)
Checking convergence            :      0.000 s ( 1.486 %)
Final printing                  :      0.000 s (13.024 %)
Total time                      :      0.001 s

Time for energy+gradient        :      0.023 s
Time for complete geometry iter :      0.024 s

         *************************************************************
         *                GEOMETRY OPTIMIZATION CYCLE   5            *
         *************************************************************
---------------------------------
CARTESIAN COORDINATES (ANGSTROEM)
---------------------------------
  N    -1.517094   -1.550426    0.755086
  C    -1.421822   -0.743482   -0.451034
  C    -0.016272   -0.714606   -1.082052
  C     0.995857   -0.038546   -0.218817
  C     0.945953    0.512936    1.033975
  N     2.161759    1.022897    1.381183
  C     2.940520    0.785315    0.362658
  N     2.290444    0.143412   -0.634664
  C    -1.906841    0.692423   -0.304284
  O    -1.881560    1.487728   -1.219780
  O    -2.333646    1.003241    0.903890
  H    -0.607705   -1.918052    1.004116
  H    -1.852852   -0.994287    1.530985
  H    -2.092894   -1.188506   -1.205065
  H     0.289211   -1.743706   -1.286542
  H    -0.088355   -0.180877   -2.033704
  H     0.117858    0.584206    1.709756
  H     3.973585    1.062676    0.313449
  H     2.673091   -0.141703   -1.521170
  H    -2.669236    1.919356    0.962011

----------------------------
CARTESIAN COORDINATES (A.U.)
----------------------------
  NO LB    ZA    FRAG    MASS        X           Y           Z
   0 N   7.0000    0    14.007   -2.866891   -2.929880    1.426907
   1 C   6.0000    0    12.011   -2.686855   -1.404978   -0.852331
   2 C   6.0000    0    12.011   -0.030749   -1.350409   -2.044781
   3 C   6.0000    0    12.011    1.881896   -0.072841   -0.413504
   4 C   6.0000    0    12.011    1.787592    0.969310    1.953930
   5 N   7.0000    0    14.007    4.085133    1.932995    2.610058
   6 C   6.0000    0    12.011    5.556777    1.484030    0.685324
   7 N   7.0000    0    14.007    4.328312    0.271009   -1.199341
   8 C   6.0000    0    12.011   -3.603408    1.308490   -0.575012
   9 O   8.0000    0    15.999   -3.555633    2.811399   -2.305050
  10 O   8.0000    0    15.999   -4.409952    1.895852    1.708105
  11 H   1.0000    0     1.008   -1.148396   -3.624594    1.897504
  12 H   1.0000    0     1.008   -3.501384   -1.878930    2.893142
  13 H   1.0000    0     1.008   -3.954997   -2.245951   -2.277242
  14 H   1.0000    0     1.008    0.546529   -3.295127   -2.431212
  15 H   1.0000    0     1.008   -0.166968   -0.341808   -3.843143
  16 H   1.0000    0     1.008    0.222720    1.103990    3.230971
  17 H   1.0000    0     1.008    7.508988    2.008166    0.592334
  18 H   1.0000    0     1.008    5.051411   -0.267781   -2.874596
  19 H   1.0000    0     1.008   -5.044125    3.627057    1.817938

      -----------------------------------------------------------      
     |                   =====================                   |     
     |                           x T B                           |     
     |                   =====================                   |     
     |                         S. Grimme                         |     
     |          Mulliken Center for Theoretical Chemistry        |     
     |                    University of Bonn                     |     
      -----------------------------------------------------------      

   * xtb version 6.7.1 (edcfbbe) compiled by 'albert@albert-system' on 2024-07-22

   xtb is free software: you can redistribute it and/or modify it under
   the terms of the GNU Lesser General Public License as published by
   the Free Software Foundation, either version 3 of the License, or
   (at your option) any later version.
   
   xtb is distributed in the hope that it will be useful,
   but WITHOUT ANY WARRANTY; without even the implied warranty of
   MERCHANTABILITY or FITNESS FOR A PARTICULAR PURPOSE.  See the
   GNU Lesser General Public License for more details.
   
   Cite this work as:
   * C. Bannwarth, E. Caldeweyher, S. Ehlert, A. Hansen, P. Pracht,
     J. Seibert, S. Spicher, S. Grimme, WIREs Comput. Mol. Sci., 2020, 11,
     e01493. DOI: 10.1002/wcms.1493
   
   for GFN2-xTB:
   * C. Bannwarth, S. Ehlert and S. Grimme., J. Chem. Theory Comput., 2019,
     15, 1652-1671. DOI: 10.1021/acs.jctc.8b01176
   for GFN1-xTB:
   * S. Grimme, C. Bannwarth, P. Shushkov, J. Chem. Theory Comput., 2017,
     13, 1989-2009. DOI: 10.1021/acs.jctc.7b00118
   for GFN0-xTB:
   * P. Pracht, E. Caldeweyher, S. Ehlert, S. Grimme, ChemRxiv, 2019, preprint.
     DOI: 10.26434/chemrxiv.8326202.v1
   for GFN-FF:
   * S. Spicher and S. Grimme, Angew. Chem. Int. Ed., 2020, 59, 15665-15673.
     DOI: 10.1002/anie.202004239
   
   for ALPB and GBSA implicit solvation:
   * S. Ehlert, M. Stahn, S. Spicher, S. Grimme, J. Chem. Theory Comput.,
     2021, 17, 4250-4261. DOI: 10.1021/acs.jctc.1c00471
   
   for ddCOSMO and CPCM-X implicit solvation:
   * M. Stahn, S. Ehlert, S. Grimme, J. Phys. Chem. A,
     2023, XX, XXXX-XXXX. DOI: 10.1021/acs.jpca.3c04382
   
   for DFT-D4:
   * E. Caldeweyher, C. Bannwarth and S. Grimme, J. Chem. Phys., 2017,
     147, 034112. DOI: 10.1063/1.4993215
   * E. Caldeweyher, S. Ehlert, A. Hansen, H. Neugebauer, S. Spicher,
     C. Bannwarth and S. Grimme, J. Chem. Phys., 2019, 150, 154122.
     DOI: 10.1063/1.5090222
   * E. Caldeweyher, J.-M. Mewes, S. Ehlert and S. Grimme, Phys. Chem. Chem. Phys.
     2020, 22, 8499-8512. DOI: 10.1039/D0CP00502A
   
   for sTDA-xTB:
   * S. Grimme and C. Bannwarth, J. Chem. Phys., 2016, 145, 054103.
     DOI: 10.1063/1.4959605
   
   in the mass-spec context:
   * V. Asgeirsson, C. Bauer and S. Grimme, Chem. Sci., 2017, 8, 4879.
     DOI: 10.1039/c7sc00601b
   * J. Koopman and S. Grimme, ACS Omega 2019, 4, 12, 15120-15133.
     DOI: 10.1021/acsomega.9b02011
   
   for metadynamics refer to:
   * S. Grimme, J. Chem. Theory Comput., 2019, 155, 2847-2862
     DOI: 10.1021/acs.jctc.9b00143
   
   for SPH calculations refer to:
   * S. Spicher and S. Grimme, J. Chem. Theory Comput., 2021, 17, 1701-1714
     DOI: 10.1021/acs.jctc.0c01306
   
   for ONIOM refer to:
   * C. Plett, A. Katbashev, S. Ehlert, S. Grimme, M. Bursch,
     Phys. Chem. Chem. Phys., 2023, 25, 17860-17868. DOI: 10.1039/D3CP02178E
   
   for DIPRO refer to:
   * J. Kohn, N. Gildemeister, S. Grimme, D. Fazzi, A. Hansen,
     J. Chem. Phys., 2023, just accepted.
   
   for PTB refer to:
   * S. Grimme, M. Mueller, A. Hansen, J. Chem. Phys., 2023, 158, 124111.
     DOI: 10.1063/5.0137838
   
   with help from (in alphabetical order)
   P. Atkinson, C. Bannwarth, F. Bohle, G. Brandenburg, E. Caldeweyher
   M. Checinski, S. Dohm, S. Ehlert, S. Ehrlich, I. Gerasimov, C. Hölzer
   A. Katbashev, J. Kohn, J. Koopman, C. Lavigne, S. Lehtola, F. März, M. Müller,
   F. Musil, H. Neugebauer, J. Pisarek, C. Plett, P. Pracht, F. Pultar,
   J. Seibert, P. Shushkov, S. Spicher, M. Stahn, M. Steiner, T. Strunk,
   J. Stückrath, T. Rose, and J. Unsleber
   
 * started run on 2026/04/09 at 16:06:43.509     
   ID    Z sym.   atoms
    1    7 N      1, 6, 8
    2    6 C      2-5, 7, 9
    3    8 O      10, 11
    4    1 H      12-20

           -------------------------------------------------
          |                Calculation Setup                |
           -------------------------------------------------

          program call               : /home/analima/Programs/orca-6.1.0-f.0_linux_x86-64/bin/otool_xtb geo_opt_XTB.xyz --grad -c 0 -u 0 -P 1 --namespace geo_opt --input geo_opt_XTB.input.tmp --alpb WATER --acc 0.200000
          calculation namespace      : geo_opt
          coordinate file            : geo_opt_XTB.xyz
          omp threads                :                     1


           -------------------------------------------------
          |                 G F N 2 - x T B                 |
           -------------------------------------------------

        Reference                      10.1021/acs.jctc.8b01176
      * Hamiltonian:
        H0-scaling (s, p, d)           1.850000    2.230000    2.230000
        zeta-weighting                 0.500000
      * Dispersion:
        s8                             2.700000
        a1                             0.520000
        a2                             5.000000
        s9                             5.000000
      * Repulsion:
        kExp                           1.500000    1.000000
        rExp                           1.000000
      * Coulomb:
        alpha                          2.000000
        third order                    shell-resolved
        anisotropic                    true
        a3                             3.000000
        a5                             4.000000
        cn-shift                       1.200000
        cn-exp                         4.000000
        max-rad                        5.000000

      * Solvation model:               ALPB
        Solvent                        WATER
        Parameter file                 internal GFN2-xTB/ALPB
        Dielectric constant                8.0200E+01
        Reference state                gsolv [1 M gas/solution]
        Free energy shift                  1.0808E-03 Eh       6.7819E-01 kcal/mol
        Temperature                        2.9815E+02 K
        Density                            1.0000E+00 kg/L
        Solvent mass                       1.8000E+01 g/mol
        Interaction kernel             P16
        Born radius scaling (c1)           1.4744E+00
        Born radii integrator          GBOBC
        Born offset                        0.0000E+00 a0       0.0000E+00 AA
        H-bond correction              true
        Ion screening                  false
        Surface tension                    1.0000E-05 Eh       1.5569E+01 dyn/cm
        Grid points                               230 per atom
q/qsh data taken from xtbrestart
CAMM data taken from xtbrestart

          ...................................................
          :                      SETUP                      :
          :.................................................:
          :  # basis functions                  53          :
          :  # atomic orbitals                  53          :
          :  # shells                           31          :
          :  # electrons                        60          :
          :  max. iterations                   250          :
          :  Hamiltonian                  GFN2-xTB          :
          :  restarted?                       true          :
          :  GBSA solvation                   true          :
          :  PC potential                    false          :
          :  electronic temp.          300.0000000     K    :
          :  accuracy                    0.2000000          :
          :  -> integral cutoff          0.3198970E+02      :
          :  -> integral neglect         0.2000000E-08      :
          :  -> SCF convergence          0.2000000E-06 Eh   :
          :  -> wf. convergence          0.2000000E-04 e    :
          :  Broyden damping             0.4000000          :
          :  net charge                          0          :
          :  unpaired electrons                  0          :
          ...................................................

 iter      E             dE          RMSdq      gap      omega  full diag
   1    -34.7607337 -0.347607E+02  0.126E-01    3.42       0.0  T
   2    -34.7607393 -0.561070E-05  0.740E-02    3.43       1.0  T
   3    -34.7607381  0.118937E-05  0.126E-02    3.42       1.8  T
   4    -34.7607402 -0.207003E-05  0.409E-03    3.42       5.5  T
   5    -34.7607403 -0.133196E-06  0.193E-03    3.42      11.6  T
   6    -34.7607403 -0.741277E-08  0.663E-04    3.42      33.7  T
   7    -34.7607403 -0.208128E-08  0.222E-04    3.42     100.6  T
   8    -34.7607403 -0.936708E-10  0.101E-04    3.42     221.3  T
   9    -34.7607403 -0.237890E-10  0.392E-05    3.42     570.2  T

   *** convergence criteria satisfied after 9 iterations ***

         #    Occupation            Energy/Eh            Energy/eV
      -------------------------------------------------------------
         1        2.0000           -0.7539106             -20.5150
       ...           ...                  ...                  ...
        24        2.0000           -0.4669886             -12.7074
        25        2.0000           -0.4643108             -12.6345
        26        2.0000           -0.4312924             -11.7361
        27        2.0000           -0.4295996             -11.6900
        28        2.0000           -0.3833250             -10.4308
        29        2.0000           -0.3817991             -10.3893
        30        2.0000           -0.3705190             -10.0823 (HOMO)
        31                         -0.2447271              -6.6594 (LUMO)
        32                         -0.2016979              -5.4885
        33                         -0.1673724              -4.5544
        34                          0.0142770               0.3885
        35                          0.0280678               0.7638
       ...                                ...                  ...
        53                          0.6229118              16.9503
      -------------------------------------------------------------
                  HL-Gap            0.1257919 Eh            3.4230 eV
             Fermi-level           -0.3076230 Eh           -8.3708 eV

 SCC (total)                   0 d,  0 h,  0 min,  0.009 sec
 SCC setup                      ...        0 min,  0.000 sec (  2.666%)
 Dispersion                     ...        0 min,  0.000 sec (  0.615%)
 classical contributions        ...        0 min,  0.000 sec (  0.139%)
 integral evaluation            ...        0 min,  0.001 sec (  9.974%)
 iterations                     ...        0 min,  0.005 sec ( 58.370%)
 molecular gradient             ...        0 min,  0.003 sec ( 27.696%)
 printout                       ...        0 min,  0.000 sec (  0.473%)

         :::::::::::::::::::::::::::::::::::::::::::::::::::::
         ::                     SUMMARY                     ::
         :::::::::::::::::::::::::::::::::::::::::::::::::::::
         :: total energy             -34.360848837903 Eh    ::
         :: total w/o Gsasa/hb       -34.346288617046 Eh    ::
         :: gradient norm              0.007468328640 Eh/a0 ::
         :: HOMO-LUMO gap              3.422971778781 eV    ::
         ::.................................................::
         :: SCC energy               -34.760625630660 Eh    ::
         :: -> isotropic ES            0.095516056511 Eh    ::
         :: -> anisotropic ES          0.003860500059 Eh    ::
         :: -> anisotropic XC          0.015513164110 Eh    ::
         :: -> dispersion             -0.016919556465 Eh    ::
         :: -> Gsolv                  -0.030001667640 Eh    ::
         ::    -> Gelec               -0.015441446783 Eh    ::
         ::    -> Gsasa               -0.002688623269 Eh    ::
         ::    -> Ghb                 -0.012952357286 Eh    ::
         ::    -> Gshift               0.001080759698 Eh    ::
         :: repulsion energy           0.399776792758 Eh    ::
         :: add. restraining           0.000000000000 Eh    ::
         :: total charge               0.000000000000 e     ::
         :::::::::::::::::::::::::::::::::::::::::::::::::::::


Property printout bound to 'properties.out'

           -------------------------------------------------
          | TOTAL ENERGY              -34.360848837903 Eh   |
          | GRADIENT NORM               0.007468328640 Eh/α |
          | HOMO-LUMO GAP               3.422971778781 eV   |
           -------------------------------------------------

------------------------------------------------------------------------
 * finished run on 2026/04/09 at 16:06:43.523     
------------------------------------------------------------------------
 total:
 * wall-time:     0 d,  0 h,  0 min,  0.014 sec
 *  cpu-time:     0 d,  0 h,  0 min,  0.012 sec
 * ratio c/w:     0.873 speedup
 SCF:
 * wall-time:     0 d,  0 h,  0 min,  0.009 sec
 *  cpu-time:     0 d,  0 h,  0 min,  0.008 sec
 * ratio c/w:     0.814 speedup


-------------------------   --------------------
FINAL SINGLE POINT ENERGY       -34.360848837900
-------------------------   --------------------


-------------
DIPOLE MOMENT
-------------
                                X             Y             Z
Total Dipole Moment    :      0.35600      -0.70700      -0.70800
                        -----------------------------------------
Magnitude (a.u.)       :      1.06200
Magnitude (Debye)      :      2.69940


------------------
CARTESIAN GRADIENT
------------------

   1   N   :   -0.000058582    0.000584089    0.001472265
   2   C   :    0.000198456   -0.000042138    0.001574503
   3   C   :    0.000601561   -0.000179645   -0.000566055
   4   C   :   -0.000336601   -0.000064887   -0.001106782
   5   C   :    0.000822393    0.000418754    0.001078760
   6   N   :    0.000881029    0.000125250   -0.000330679
   7   C   :   -0.000951329   -0.000043002    0.000895157
   8   N   :    0.000586920   -0.000080838   -0.000887283
   9   C   :   -0.005294386    0.000431009   -0.001398363
  10   O   :    0.002078571   -0.000047889    0.000637757
  11   O   :    0.002142582   -0.000353313   -0.000141447
  12   H   :   -0.000414101   -0.000778299   -0.000945414
  13   H   :    0.000280055    0.000050995   -0.000442023
  14   H   :    0.000525896   -0.000089491   -0.000043401
  15   H   :   -0.000263786    0.000039443   -0.000011821
  16   H   :   -0.000019888    0.000105356    0.000165827
  17   H   :   -0.000691157   -0.000132495   -0.000433819
  18   H   :   -0.000021365    0.000107762    0.000114909
  19   H   :    0.000091622    0.000107336    0.000403394
  20   H   :   -0.000157891   -0.000157994   -0.000035485

Difference to translation invariance:
           :   -0.0000000000   -0.0000000000    0.0000000000

Difference to rotation invariance:
           :    0.0002120823   -0.0004751053   -0.0002362177

Norm of the Cartesian gradient     ...    0.0074683286
RMS gradient                       ...    0.0009641571
MAX gradient                       ...    0.0052943865
------------------------------------------------------------------------------
                         ORCA GEOMETRY RELAXATION STEP
------------------------------------------------------------------------------

Reading the OPT-File                    .... done
Getting information on internals        .... done
Copying old internal coords+grads       .... done
Making the new internal coordinates     .... (2022 redundants) done
Validating the new internal coordinates .... (2022 redundants) done
Calculating the B-matrix                .... done
Calculating the G,G- and P matrices     .... done
Transforming gradient to internals      .... done
Projecting the internal gradient        .... done
Number of atoms                         ....  20
Number of internal coordinates          ....  92
Current Energy                          ....   -34.360848838 Eh
Current gradient norm                   ....     0.007468329 Eh/bohr
Maximum allowed component of the step   ....  0.300
Current trust radius                    ....  0.700
Updating the Hessian (BFGS)             .... done
Forming the augmented Hessian           .... done
Diagonalizing the augmented Hessian     .... done
Last element of RFO vector              ....  0.992684545
Lowest eigenvalues of augmented Hessian:
 -0.000372262  0.011513506  0.014769789  0.015907932  0.016872010
Length of the computed step             ....  0.121626638
The final length of the internal step   ....  0.121626638
Converting the step to Cartesian space:
 Initial RMS(Int)=    0.0126804535
Transforming coordinates:
 Iter   0:  RMS(Cart)=    0.0206568388 RMS(Int)=    0.9241490736
done
Storing new coordinates                 .... done
The predicted energy change is          ....    -0.000188884
Previously predicted energy change      ....    -0.000320150
Actually observed energy change         ....    -0.000244771
Ratio of predicted to observed change   ....     0.764550834
New trust radius                        ....     0.700000000

                                .--------------------.
          ----------------------|Geometry convergence|-------------------------
          Item                value                   Tolerance       Converged
          ---------------------------------------------------------------------
          Energy change      -0.0002447706            0.0000050000      NO
          RMS gradient        0.0005155582            0.0001000000      NO
          MAX gradient        0.0014047468            0.0003000000      NO
          RMS step            0.0126804535            0.0020000000      NO
          MAX step            0.0489172844            0.0040000000      NO
          -------------------------------------------------------------------------
          ........................................................
          Max(Bonds)      0.0029      Max(Angles)    0.40
          Max(Dihed)        2.80      Max(Improp)    0.00
          ---------------------------------------------------------------------

The optimization has not yet converged - more geometry cycles are needed


    ---------------------------------------------------------------------------
                         Redundant Internal Coordinates
                            (Angstroem and degrees)

        Definition                    Value    dE/dq     Step     New-Value
    ----------------------------------------------------------------------------
     1. B(C   1,N   0)                1.4543  0.000242 -0.0004    1.4539   
     2. B(C   2,C   1)                1.5410  0.000935 -0.0019    1.5391   
     3. B(C   3,C   2)                1.4922  0.000289 -0.0014    1.4908   
     4. B(C   4,C   3)                1.3697  0.000686 -0.0017    1.3680   
     5. B(N   5,C   4)                1.3634  0.000023  0.0004    1.3638   
     6. B(C   6,N   5)                1.3040 -0.000740  0.0029    1.3069   
     7. B(N   7,C   3)                1.3719  0.000502 -0.0001    1.3718   
     8. B(N   7,C   6)                1.3525  0.000530 -0.0008    1.3517   
     9. B(C   8,C   1)                1.5227  0.000254  0.0009    1.5236   
    10. B(O   9,C   8)                1.2130 -0.000474  0.0019    1.2149   
    11. B(O  10,C   8)                1.3185 -0.000918  0.0024    1.3209   
    12. B(H  11,N   0)                1.0120 -0.000316  0.0014    1.0134   
    13. B(H  12,N   0)                1.0119 -0.000432  0.0019    1.0139   
    14. B(H  12,O  10)                2.1481 -0.000088 -0.0005    2.1476   
    15. B(H  13,C   1)                1.1032 -0.000256  0.0005    1.1036   
    16. B(H  14,C   2)                1.0928 -0.000107  0.0009    1.0937   
    17. B(H  15,C   2)                1.0935 -0.000094  0.0003    1.0937   
    18. B(H  16,C   4)                1.0712  0.000249 -0.0005    1.0707   
    19. B(H  17,C   6)                1.0708  0.000003  0.0008    1.0716   
    20. B(H  18,N   7)                1.0068 -0.000347  0.0013    1.0080   
    21. B(H  19,O  10)                0.9774 -0.000097  0.0020    0.9794   
    22. A(C   1,N   0,H  12)          110.65 -0.000202   -0.03    110.62   
    23. A(H  11,N   0,H  12)          108.01  0.000366   -0.35    107.65   
    24. A(C   1,N   0,H  11)          110.29 -0.000243   -0.22    110.07   
    25. A(N   0,C   1,C   8)          114.99  0.000561   -0.10    114.89   
    26. A(C   8,C   1,H  13)          104.63  0.000158   -0.03    104.60   
    27. A(N   0,C   1,H  13)          107.65  0.000117    0.05    107.70   
    28. A(C   2,C   1,H  13)          106.41 -0.000405    0.26    106.67   
    29. A(C   2,C   1,C   8)          108.20 -0.000674   -0.02    108.18   
    30. A(N   0,C   1,C   2)          114.19  0.000186   -0.13    114.06   
    31. A(C   3,C   2,H  15)          109.09 -0.000027   -0.10    108.99   
    32. A(C   3,C   2,H  14)          110.20  0.000580    0.01    110.21   
    33. A(C   1,C   2,H  14)          108.30  0.000023    0.19    108.48   
    34. A(H  14,C   2,H  15)          108.37  0.000106   -0.02    108.36   
    35. A(C   1,C   2,C   3)          112.97 -0.000890    0.04    113.01   
    36. A(C   1,C   2,H  15)          107.78  0.000234   -0.13    107.65   
    37. A(C   4,C   3,N   7)          104.97 -0.000336    0.18    105.14   
    38. A(C   2,C   3,N   7)          121.66  0.001405   -0.40    121.26   
    39. A(C   2,C   3,C   4)          133.38 -0.001068    0.22    133.60   
    40. A(N   5,C   4,H  16)          120.25  0.000606   -0.15    120.10   
    41. A(C   3,C   4,H  16)          129.19 -0.000914    0.28    129.47   
    42. A(C   3,C   4,N   5)          110.55  0.000307   -0.13    110.42   
    43. A(C   4,N   5,C   6)          105.40 -0.000241    0.08    105.48   
    44. A(N   5,C   6,H  17)          124.39 -0.000467    0.15    124.54   
    45. A(N   5,C   6,N   7)          112.05  0.000648   -0.16    111.89   
    46. A(N   7,C   6,H  17)          123.56 -0.000181    0.01    123.57   
    47. A(C   3,N   7,H  18)          126.02  0.000401   -0.06    125.96   
    48. A(C   6,N   7,H  18)          126.94 -0.000023    0.04    126.98   
    49. A(C   3,N   7,C   6)          107.04 -0.000378    0.02    107.06   
    50. A(O   9,C   8,O  10)          122.94  0.000957   -0.08    122.87   
    51. A(C   1,C   8,O  10)          114.44 -0.000916    0.20    114.63   
    52. A(C   1,C   8,O   9)          122.61 -0.000081   -0.11    122.50   
    53. A(C   8,O  10,H  19)          112.74  0.000042   -0.18    112.56   
    54. D(C   2,C   1,N   0,H  11)      3.31 -0.000626    2.14      5.45   
    55. D(C   8,C   1,N   0,H  11)   -122.64 -0.000338    2.38   -120.26   
    56. D(C   8,C   1,N   0,H  12)     -3.20 -0.000167    1.73     -1.47   
    57. D(H  13,C   1,N   0,H  11)    121.21 -0.000941    2.43    123.64   
    58. D(C   2,C   1,N   0,H  12)    122.75 -0.000455    1.49    124.25   
    59. D(C   3,C   2,C   1,N   0)    -65.83 -0.000308   -0.20    -66.03   
    60. D(C   3,C   2,C   1,C   8)     63.60  0.000025   -0.47     63.14   
    61. D(H  14,C   2,C   1,C   8)   -174.04  0.000191   -0.31   -174.35   
    62. D(H  14,C   2,C   1,N   0)     56.53 -0.000142   -0.05     56.48   
    63. D(H  14,C   2,C   1,H  13)    -62.08 -0.000123   -0.21    -62.29   
    64. D(C   3,C   2,C   1,H  13)    175.56 -0.000289   -0.37    175.20   
    65. D(C   4,C   3,C   2,H  15)    122.84 -0.000373   -0.05    122.78   
    66. D(C   4,C   3,C   2,H  14)   -118.30  0.000087   -0.14   -118.43   
    67. D(C   4,C   3,C   2,C   1)      2.99 -0.000078    0.12      3.11   
    68. D(N   7,C   3,C   2,C   1)   -176.86 -0.000147    0.32   -176.54   
    69. D(N   7,C   3,C   2,H  14)     61.85  0.000018    0.06     61.92   
    70. D(H  16,C   4,C   3,N   7)    179.84 -0.000111    0.15    179.99   
    71. D(H  16,C   4,C   3,C   2)     -0.03 -0.000174    0.32      0.30   
    72. D(N   5,C   4,C   3,N   7)      0.23  0.000030    0.05      0.28   
    73. D(N   5,C   4,C   3,C   2)   -179.63 -0.000033    0.23   -179.41   
    74. D(C   6,N   5,C   4,H  16)   -179.79  0.000090   -0.09   -179.89   
    75. D(C   6,N   5,C   4,C   3)     -0.15 -0.000044    0.00     -0.14   
    76. D(H  17,C   6,N   5,C   4)    179.97 -0.000011    0.04    180.01   
    77. D(N   7,C   6,N   5,C   4)     -0.01  0.000040   -0.06     -0.06   
    78. D(C   3,N   7,C   6,H  17)   -179.82  0.000028   -0.01   -179.83   
    79. D(C   3,N   7,C   6,N   5)      0.15 -0.000023    0.09      0.24   
    80. D(H  18,N   7,C   3,C   4)   -179.63 -0.000042    0.10   -179.53   
    81. D(H  18,N   7,C   3,C   2)      0.26  0.000007   -0.06      0.20   
    82. D(C   6,N   7,C   3,C   4)     -0.23 -0.000003   -0.08     -0.31   
    83. D(H  18,N   7,C   6,N   5)    179.55  0.000020   -0.10    179.45   
    84. D(C   6,N   7,C   3,C   2)    179.66  0.000047   -0.24    179.42   
    85. D(H  18,N   7,C   6,H  17)     -0.43  0.000071   -0.19     -0.62   
    86. D(O  10,C   8,C   1,C   2)   -128.37  0.001149   -1.53   -129.90   
    87. D(O  10,C   8,C   1,N   0)      0.62  0.001267   -1.82     -1.20   
    88. D(O   9,C   8,C   1,H  13)    -62.62 -0.000481    1.83    -60.79   
    89. D(O   9,C   8,C   1,C   2)     50.53 -0.001152    2.11     52.64   
    90. D(O   9,C   8,C   1,N   0)    179.52 -0.001033    1.82    181.34   
    91. D(H  19,O  10,C   8,O   9)      3.21  0.001335   -0.50      2.71   
    92. D(H  19,O  10,C   8,C   1)   -177.89 -0.000987    2.80   -175.09   
    ----------------------------------------------------------------------------

Geometry step timings:
Preparation and reading OPT file:      0.000 s ( 0.887 %)
Internal coordinates            :      0.000 s ( 0.799 %)
B/P matrices and projection     :      0.000 s (38.243 %)
Hessian update/contruction      :      0.000 s (10.559 %)
Making the step                 :      0.000 s (30.701 %)
Converting the step to Cartesian:      0.000 s ( 3.194 %)
Storing new data                :      0.000 s ( 0.976 %)
Checking convergence            :      0.000 s ( 1.420 %)
Final printing                  :      0.000 s (13.132 %)
Total time                      :      0.001 s

Time for energy+gradient        :      0.018 s
Time for complete geometry iter :      0.019 s

         *************************************************************
         *                GEOMETRY OPTIMIZATION CYCLE   6            *
         *************************************************************
---------------------------------
CARTESIAN COORDINATES (ANGSTROEM)
---------------------------------
  N    -1.515786   -1.550062    0.750653
  C    -1.416669   -0.739016   -0.451935
  C    -0.010730   -0.714021   -1.077679
  C     1.000338   -0.041590   -0.212746
  C     0.954583    0.508827    1.038811
  N     2.172859    1.018391    1.379437
  C     2.949200    0.780454    0.355443
  N     2.292733    0.137969   -0.636154
  C    -1.893266    0.699753   -0.296204
  O    -1.893050    1.490599   -1.218421
  O    -2.351854    1.000444    0.905440
  H    -0.599179   -1.891017    1.016475
  H    -1.874910   -1.000367    1.523206
  H    -2.091771   -1.175539   -1.208004
  H     0.294674   -1.743470   -1.285279
  H    -0.079895   -0.176911   -2.027936
  H     0.132573    0.580736    1.721134
  H     3.983137    1.056415    0.299761
  H     2.668944   -0.147689   -1.526666
  H    -2.721932    1.906093    0.950663

----------------------------
CARTESIAN COORDINATES (A.U.)
----------------------------
  NO LB    ZA    FRAG    MASS        X           Y           Z
   0 N   7.0000    0    14.007   -2.864420   -2.929193    1.418529
   1 C   6.0000    0    12.011   -2.677116   -1.396538   -0.854033
   2 C   6.0000    0    12.011   -0.020277   -1.349305   -2.036518
   3 C   6.0000    0    12.011    1.890364   -0.078595   -0.402032
   4 C   6.0000    0    12.011    1.803900    0.961544    1.963069
   5 N   7.0000    0    14.007    4.106108    1.924479    2.606758
   6 C   6.0000    0    12.011    5.573179    1.474845    0.671690
   7 N   7.0000    0    14.007    4.332638    0.260723   -1.202157
   8 C   6.0000    0    12.011   -3.577753    1.322342   -0.559744
   9 O   8.0000    0    15.999   -3.577346    2.816825   -2.302482
  10 O   8.0000    0    15.999   -4.444359    1.890564    1.711034
  11 H   1.0000    0     1.008   -1.132284   -3.573505    1.920860
  12 H   1.0000    0     1.008   -3.543066   -1.890419    2.878442
  13 H   1.0000    0     1.008   -3.952875   -2.221446   -2.282797
  14 H   1.0000    0     1.008    0.556854   -3.294681   -2.428825
  15 H   1.0000    0     1.008   -0.150979   -0.334313   -3.832243
  16 H   1.0000    0     1.008    0.250526    1.097432    3.252471
  17 H   1.0000    0     1.008    7.527038    1.996335    0.566466
  18 H   1.0000    0     1.008    5.043574   -0.279091   -2.884980
  19 H   1.0000    0     1.008   -5.143706    3.601994    1.796493

      -----------------------------------------------------------      
     |                   =====================                   |     
     |                           x T B                           |     
     |                   =====================                   |     
     |                         S. Grimme                         |     
     |          Mulliken Center for Theoretical Chemistry        |     
     |                    University of Bonn                     |     
      -----------------------------------------------------------      

   * xtb version 6.7.1 (edcfbbe) compiled by 'albert@albert-system' on 2024-07-22

   xtb is free software: you can redistribute it and/or modify it under
   the terms of the GNU Lesser General Public License as published by
   the Free Software Foundation, either version 3 of the License, or
   (at your option) any later version.
   
   xtb is distributed in the hope that it will be useful,
   but WITHOUT ANY WARRANTY; without even the implied warranty of
   MERCHANTABILITY or FITNESS FOR A PARTICULAR PURPOSE.  See the
   GNU Lesser General Public License for more details.
   
   Cite this work as:
   * C. Bannwarth, E. Caldeweyher, S. Ehlert, A. Hansen, P. Pracht,
     J. Seibert, S. Spicher, S. Grimme, WIREs Comput. Mol. Sci., 2020, 11,
     e01493. DOI: 10.1002/wcms.1493
   
   for GFN2-xTB:
   * C. Bannwarth, S. Ehlert and S. Grimme., J. Chem. Theory Comput., 2019,
     15, 1652-1671. DOI: 10.1021/acs.jctc.8b01176
   for GFN1-xTB:
   * S. Grimme, C. Bannwarth, P. Shushkov, J. Chem. Theory Comput., 2017,
     13, 1989-2009. DOI: 10.1021/acs.jctc.7b00118
   for GFN0-xTB:
   * P. Pracht, E. Caldeweyher, S. Ehlert, S. Grimme, ChemRxiv, 2019, preprint.
     DOI: 10.26434/chemrxiv.8326202.v1
   for GFN-FF:
   * S. Spicher and S. Grimme, Angew. Chem. Int. Ed., 2020, 59, 15665-15673.
     DOI: 10.1002/anie.202004239
   
   for ALPB and GBSA implicit solvation:
   * S. Ehlert, M. Stahn, S. Spicher, S. Grimme, J. Chem. Theory Comput.,
     2021, 17, 4250-4261. DOI: 10.1021/acs.jctc.1c00471
   
   for ddCOSMO and CPCM-X implicit solvation:
   * M. Stahn, S. Ehlert, S. Grimme, J. Phys. Chem. A,
     2023, XX, XXXX-XXXX. DOI: 10.1021/acs.jpca.3c04382
   
   for DFT-D4:
   * E. Caldeweyher, C. Bannwarth and S. Grimme, J. Chem. Phys., 2017,
     147, 034112. DOI: 10.1063/1.4993215
   * E. Caldeweyher, S. Ehlert, A. Hansen, H. Neugebauer, S. Spicher,
     C. Bannwarth and S. Grimme, J. Chem. Phys., 2019, 150, 154122.
     DOI: 10.1063/1.5090222
   * E. Caldeweyher, J.-M. Mewes, S. Ehlert and S. Grimme, Phys. Chem. Chem. Phys.
     2020, 22, 8499-8512. DOI: 10.1039/D0CP00502A
   
   for sTDA-xTB:
   * S. Grimme and C. Bannwarth, J. Chem. Phys., 2016, 145, 054103.
     DOI: 10.1063/1.4959605
   
   in the mass-spec context:
   * V. Asgeirsson, C. Bauer and S. Grimme, Chem. Sci., 2017, 8, 4879.
     DOI: 10.1039/c7sc00601b
   * J. Koopman and S. Grimme, ACS Omega 2019, 4, 12, 15120-15133.
     DOI: 10.1021/acsomega.9b02011
   
   for metadynamics refer to:
   * S. Grimme, J. Chem. Theory Comput., 2019, 155, 2847-2862
     DOI: 10.1021/acs.jctc.9b00143
   
   for SPH calculations refer to:
   * S. Spicher and S. Grimme, J. Chem. Theory Comput., 2021, 17, 1701-1714
     DOI: 10.1021/acs.jctc.0c01306
   
   for ONIOM refer to:
   * C. Plett, A. Katbashev, S. Ehlert, S. Grimme, M. Bursch,
     Phys. Chem. Chem. Phys., 2023, 25, 17860-17868. DOI: 10.1039/D3CP02178E
   
   for DIPRO refer to:
   * J. Kohn, N. Gildemeister, S. Grimme, D. Fazzi, A. Hansen,
     J. Chem. Phys., 2023, just accepted.
   
   for PTB refer to:
   * S. Grimme, M. Mueller, A. Hansen, J. Chem. Phys., 2023, 158, 124111.
     DOI: 10.1063/5.0137838
   
   with help from (in alphabetical order)
   P. Atkinson, C. Bannwarth, F. Bohle, G. Brandenburg, E. Caldeweyher
   M. Checinski, S. Dohm, S. Ehlert, S. Ehrlich, I. Gerasimov, C. Hölzer
   A. Katbashev, J. Kohn, J. Koopman, C. Lavigne, S. Lehtola, F. März, M. Müller,
   F. Musil, H. Neugebauer, J. Pisarek, C. Plett, P. Pracht, F. Pultar,
   J. Seibert, P. Shushkov, S. Spicher, M. Stahn, M. Steiner, T. Strunk,
   J. Stückrath, T. Rose, and J. Unsleber
   
 * started run on 2026/04/09 at 16:06:43.528     
   ID    Z sym.   atoms
    1    7 N      1, 6, 8
    2    6 C      2-5, 7, 9
    3    8 O      10, 11
    4    1 H      12-20

           -------------------------------------------------
          |                Calculation Setup                |
           -------------------------------------------------

          program call               : /home/analima/Programs/orca-6.1.0-f.0_linux_x86-64/bin/otool_xtb geo_opt_XTB.xyz --grad -c 0 -u 0 -P 1 --namespace geo_opt --input geo_opt_XTB.input.tmp --alpb WATER --acc 0.200000
          calculation namespace      : geo_opt
          coordinate file            : geo_opt_XTB.xyz
          omp threads                :                     1


           -------------------------------------------------
          |                 G F N 2 - x T B                 |
           -------------------------------------------------

        Reference                      10.1021/acs.jctc.8b01176
      * Hamiltonian:
        H0-scaling (s, p, d)           1.850000    2.230000    2.230000
        zeta-weighting                 0.500000
      * Dispersion:
        s8                             2.700000
        a1                             0.520000
        a2                             5.000000
        s9                             5.000000
      * Repulsion:
        kExp                           1.500000    1.000000
        rExp                           1.000000
      * Coulomb:
        alpha                          2.000000
        third order                    shell-resolved
        anisotropic                    true
        a3                             3.000000
        a5                             4.000000
        cn-shift                       1.200000
        cn-exp                         4.000000
        max-rad                        5.000000

      * Solvation model:               ALPB
        Solvent                        WATER
        Parameter file                 internal GFN2-xTB/ALPB
        Dielectric constant                8.0200E+01
        Reference state                gsolv [1 M gas/solution]
        Free energy shift                  1.0808E-03 Eh       6.7819E-01 kcal/mol
        Temperature                        2.9815E+02 K
        Density                            1.0000E+00 kg/L
        Solvent mass                       1.8000E+01 g/mol
        Interaction kernel             P16
        Born radius scaling (c1)           1.4744E+00
        Born radii integrator          GBOBC
        Born offset                        0.0000E+00 a0       0.0000E+00 AA
        H-bond correction              true
        Ion screening                  false
        Surface tension                    1.0000E-05 Eh       1.5569E+01 dyn/cm
        Grid points                               230 per atom
q/qsh data taken from xtbrestart
CAMM data taken from xtbrestart

          ...................................................
          :                      SETUP                      :
          :.................................................:
          :  # basis functions                  53          :
          :  # atomic orbitals                  53          :
          :  # shells                           31          :
          :  # electrons                        60          :
          :  max. iterations                   250          :
          :  Hamiltonian                  GFN2-xTB          :
          :  restarted?                       true          :
          :  GBSA solvation                   true          :
          :  PC potential                    false          :
          :  electronic temp.          300.0000000     K    :
          :  accuracy                    0.2000000          :
          :  -> integral cutoff          0.3198970E+02      :
          :  -> integral neglect         0.2000000E-08      :
          :  -> SCF convergence          0.2000000E-06 Eh   :
          :  -> wf. convergence          0.2000000E-04 e    :
          :  Broyden damping             0.4000000          :
          :  net charge                          0          :
          :  unpaired electrons                  0          :
          ...................................................

 iter      E             dE          RMSdq      gap      omega  full diag
   1    -34.7589027 -0.347589E+02  0.653E-02    3.40       0.0  T
   2    -34.7589063 -0.354039E-05  0.394E-02    3.41       1.0  T
   3    -34.7589057  0.602856E-06  0.111E-02    3.41       2.0  T
   4    -34.7589067 -0.108062E-05  0.234E-03    3.41       9.5  T
   5    -34.7589068 -0.353898E-07  0.123E-03    3.41      18.1  T
   6    -34.7589068 -0.571077E-08  0.540E-04    3.41      41.4  T
   7    -34.7589068 -0.112649E-08  0.175E-04    3.41     127.8  T
   8    -34.7589068 -0.959020E-10  0.821E-05    3.41     272.2  T

   *** convergence criteria satisfied after 8 iterations ***

         #    Occupation            Energy/Eh            Energy/eV
      -------------------------------------------------------------
         1        2.0000           -0.7534457             -20.5023
       ...           ...                  ...                  ...
        24        2.0000           -0.4671815             -12.7127
        25        2.0000           -0.4647330             -12.6460
        26        2.0000           -0.4316289             -11.7452
        27        2.0000           -0.4295187             -11.6878
        28        2.0000           -0.3836813             -10.4405
        29        2.0000           -0.3816381             -10.3849
        30        2.0000           -0.3711952             -10.1007 (HOMO)
        31                         -0.2457950              -6.6884 (LUMO)
        32                         -0.2020575              -5.4983
        33                         -0.1675413              -4.5590
        34                          0.0142814               0.3886
        35                          0.0260926               0.7100
       ...                                ...                  ...
        53                          0.6264171              17.0457
      -------------------------------------------------------------
                  HL-Gap            0.1254003 Eh            3.4123 eV
             Fermi-level           -0.3084951 Eh           -8.3946 eV

 SCC (total)                   0 d,  0 h,  0 min,  0.010 sec
 SCC setup                      ...        0 min,  0.000 sec (  3.800%)
 Dispersion                     ...        0 min,  0.000 sec (  1.029%)
 classical contributions        ...        0 min,  0.000 sec (  0.214%)
 integral evaluation            ...        0 min,  0.002 sec ( 17.843%)
 iterations                     ...        0 min,  0.005 sec ( 50.906%)
 molecular gradient             ...        0 min,  0.003 sec ( 25.724%)
 printout                       ...        0 min,  0.000 sec (  0.357%)

         :::::::::::::::::::::::::::::::::::::::::::::::::::::
         ::                     SUMMARY                     ::
         :::::::::::::::::::::::::::::::::::::::::::::::::::::
         :: total energy             -34.360999684400 Eh    ::
         :: total w/o Gsasa/hb       -34.346405481270 Eh    ::
         :: gradient norm              0.006020784203 Eh/a0 ::
         :: HOMO-LUMO gap              3.412314515754 eV    ::
         ::.................................................::
         :: SCC energy               -34.758792936596 Eh    ::
         :: -> isotropic ES            0.095819181337 Eh    ::
         :: -> anisotropic ES          0.003787186243 Eh    ::
         :: -> anisotropic XC          0.015652595589 Eh    ::
         :: -> dispersion             -0.016898673894 Eh    ::
         :: -> Gsolv                  -0.030151283105 Eh    ::
         ::    -> Gelec               -0.015557079975 Eh    ::
         ::    -> Gsasa               -0.002671002642 Eh    ::
         ::    -> Ghb                 -0.013003960186 Eh    ::
         ::    -> Gshift               0.001080759698 Eh    ::
         :: repulsion energy           0.397793252196 Eh    ::
         :: add. restraining           0.000000000000 Eh    ::
         :: total charge               0.000000000000 e     ::
         :::::::::::::::::::::::::::::::::::::::::::::::::::::


Property printout bound to 'properties.out'

           -------------------------------------------------
          | TOTAL ENERGY              -34.360999684400 Eh   |
          | GRADIENT NORM               0.006020784203 Eh/α |
          | HOMO-LUMO GAP               3.412314515754 eV   |
           -------------------------------------------------

------------------------------------------------------------------------
 * finished run on 2026/04/09 at 16:06:43.543     
------------------------------------------------------------------------
 total:
 * wall-time:     0 d,  0 h,  0 min,  0.015 sec
 *  cpu-time:     0 d,  0 h,  0 min,  0.013 sec
 * ratio c/w:     0.876 speedup
 SCF:
 * wall-time:     0 d,  0 h,  0 min,  0.010 sec
 *  cpu-time:     0 d,  0 h,  0 min,  0.008 sec
 * ratio c/w:     0.813 speedup


-------------------------   --------------------
FINAL SINGLE POINT ENERGY       -34.360999684400
-------------------------   --------------------


-------------
DIPOLE MOMENT
-------------
                                X             Y             Z
Total Dipole Moment    :      0.33900      -0.70500      -0.71300
                        -----------------------------------------
Magnitude (a.u.)       :      1.05845
Magnitude (Debye)      :      2.69036


------------------
CARTESIAN GRADIENT
------------------

   1   N   :   -0.001234142    0.000458933   -0.000101086
   2   C   :   -0.000894591   -0.001272825   -0.000033402
   3   C   :    0.000927202    0.000751529    0.000661569
   4   C   :   -0.000425671    0.000707861    0.000509478
   5   C   :   -0.000663454   -0.000342958    0.000375576
   6   N   :   -0.001159342    0.000231130    0.001188277
   7   C   :    0.000630416   -0.000475271   -0.001463459
   8   N   :    0.000221214   -0.000068644   -0.000141773
   9   C   :    0.001541127    0.000250733    0.001442060
  10   O   :   -0.000166374    0.000925494   -0.002217562
  11   O   :    0.000539016   -0.001437982    0.001508079
  12   H   :    0.000466823   -0.000764832   -0.000774124
  13   H   :    0.000253456    0.000809293    0.000771785
  14   H   :    0.000357377   -0.000616380   -0.000462721
  15   H   :    0.000017157   -0.000385253   -0.000131930
  16   H   :   -0.000083785    0.000236837    0.000223299
  17   H   :   -0.000201185   -0.000157202   -0.000422876
  18   H   :    0.000667777    0.000155498   -0.000188302
  19   H   :    0.000475367   -0.000164574   -0.000501359
  20   H   :   -0.001268390    0.001158613   -0.000241528

Difference to translation invariance:
           :    0.0000000000    0.0000000000   -0.0000000000

Difference to rotation invariance:
           :    0.0001870713   -0.0005049452   -0.0002852810

Norm of the Cartesian gradient     ...    0.0060207842
RMS gradient                       ...    0.0007772799
MAX gradient                       ...    0.0022175624
------------------------------------------------------------------------------
                         ORCA GEOMETRY RELAXATION STEP
------------------------------------------------------------------------------

Reading the OPT-File                    .... done
Getting information on internals        .... done
Copying old internal coords+grads       .... done
Making the new internal coordinates     .... (2022 redundants) done
Validating the new internal coordinates .... (2022 redundants) done
Calculating the B-matrix                .... done
Calculating the G,G- and P matrices     .... done
Transforming gradient to internals      .... done
Projecting the internal gradient        .... done
Number of atoms                         ....  20
Number of internal coordinates          ....  92
Current Energy                          ....   -34.360999684 Eh
Current gradient norm                   ....     0.006020784 Eh/bohr
Maximum allowed component of the step   ....  0.300
Current trust radius                    ....  0.700
Updating the Hessian (BFGS)             .... done
Forming the augmented Hessian           .... done
Diagonalizing the augmented Hessian     .... done
Last element of RFO vector              ....  0.996548716
Lowest eigenvalues of augmented Hessian:
 -0.000166169  0.009400700  0.014415057  0.015435006  0.016807220
Length of the computed step             ....  0.083297463
The final length of the internal step   ....  0.083297463
Converting the step to Cartesian space:
 Initial RMS(Int)=    0.0086843608
Transforming coordinates:
 Iter   0:  RMS(Cart)=    0.0130608764 RMS(Int)=    0.6549209449
done
Storing new coordinates                 .... done
The predicted energy change is          ....    -0.000083661
Previously predicted energy change      ....    -0.000188884
Actually observed energy change         ....    -0.000150846
Ratio of predicted to observed change   ....     0.798618219
New trust radius                        ....     0.700000000

                                .--------------------.
          ----------------------|Geometry convergence|-------------------------
          Item                value                   Tolerance       Converged
          ---------------------------------------------------------------------
          Energy change      -0.0001508465            0.0000050000      NO
          RMS gradient        0.0005513473            0.0001000000      NO
          MAX gradient        0.0022805694            0.0003000000      NO
          RMS step            0.0086843608            0.0020000000      NO
          MAX step            0.0362292276            0.0040000000      NO
          -------------------------------------------------------------------------
          ........................................................
          Max(Bonds)      0.0011      Max(Angles)    0.14
          Max(Dihed)        2.08      Max(Improp)    0.00
          ---------------------------------------------------------------------

The optimization has not yet converged - more geometry cycles are needed


    ---------------------------------------------------------------------------
                         Redundant Internal Coordinates
                            (Angstroem and degrees)

        Definition                    Value    dE/dq     Step     New-Value
    ----------------------------------------------------------------------------
     1. B(C   1,N   0)                1.4539 -0.000250  0.0001    1.4540   
     2. B(C   2,C   1)                1.5391  0.000347 -0.0011    1.5380   
     3. B(C   3,C   2)                1.4908 -0.000748  0.0003    1.4911   
     4. B(C   4,C   3)                1.3680 -0.000544  0.0000    1.3681   
     5. B(N   5,C   4)                1.3638  0.000158 -0.0001    1.3637   
     6. B(C   6,N   5)                1.3069  0.002090 -0.0007    1.3061   
     7. B(N   7,C   3)                1.3718  0.000732 -0.0006    1.3712   
     8. B(N   7,C   6)                1.3517 -0.000206 -0.0001    1.3516   
     9. B(C   8,C   1)                1.5236  0.000768 -0.0007    1.5230   
    10. B(O   9,C   8)                1.2149  0.002281 -0.0005    1.2143   
    11. B(O  10,C   8)                1.3209  0.001350 -0.0002    1.3206   
    12. B(H  11,N   0)                1.0134  0.000483 -0.0001    1.0133   
    13. B(H  12,N   0)                1.0139  0.000907 -0.0004    1.0135   
    14. B(H  12,O  10)                2.1476 -0.000089 -0.0001    2.1475   
    15. B(H  13,C   1)                1.1036  0.000340 -0.0002    1.1034   
    16. B(H  14,C   2)                1.0937  0.000394 -0.0003    1.0934   
    17. B(H  15,C   2)                1.0937 -0.000074  0.0001    1.0939   
    18. B(H  16,C   4)                1.0707 -0.000129  0.0000    1.0707   
    19. B(H  17,C   6)                1.0716  0.000696 -0.0005    1.0710   
    20. B(H  18,N   7)                1.0080  0.000671 -0.0001    1.0080   
    21. B(H  19,O  10)                0.9794  0.001537 -0.0010    0.9784   
    22. A(C   1,N   0,H  12)          110.61 -0.000052    0.05    110.66   
    23. A(H  11,N   0,H  12)          107.63  0.000214   -0.08    107.55   
    24. A(C   1,N   0,H  11)          110.06 -0.000723    0.10    110.15   
    25. A(N   0,C   1,C   8)          114.89  0.000018   -0.00    114.89   
    26. A(C   8,C   1,H  13)          104.61  0.000467   -0.13    104.48   
    27. A(N   0,C   1,H  13)          107.72 -0.000174   -0.01    107.71   
    28. A(C   2,C   1,H  13)          106.66 -0.000140    0.07    106.73   
    29. A(C   2,C   1,C   8)          108.18 -0.000545    0.13    108.31   
    30. A(N   0,C   1,C   2)          114.06  0.000382   -0.07    113.98   
    31. A(C   3,C   2,H  15)          108.99 -0.000261    0.06    109.06   
    32. A(C   3,C   2,H  14)          110.20  0.000172   -0.11    110.09   
    33. A(C   1,C   2,H  14)          108.48  0.000059   -0.01    108.47   
    34. A(H  14,C   2,H  15)          108.36  0.000269   -0.06    108.30   
    35. A(C   1,C   2,C   3)          113.01 -0.000104    0.06    113.08   
    36. A(C   1,C   2,H  15)          107.66 -0.000123    0.05    107.72   
    37. A(C   4,C   3,N   7)          105.14  0.000909   -0.05    105.10   
    38. A(C   2,C   3,N   7)          121.26 -0.000148   -0.08    121.18   
    39. A(C   2,C   3,C   4)          133.60 -0.000761    0.13    133.72   
    40. A(N   5,C   4,H  16)          120.10  0.000641   -0.12    119.99   
    41. A(C   3,C   4,H  16)          129.47 -0.000306    0.11    129.58   
    42. A(C   3,C   4,N   5)          110.42 -0.000336    0.01    110.43   
    43. A(C   4,N   5,C   6)          105.48  0.000071    0.02    105.50   
    44. A(N   5,C   6,H  17)          124.54  0.000296    0.01    124.55   
    45. A(N   5,C   6,N   7)          111.89 -0.000275   -0.03    111.86   
    46. A(N   7,C   6,H  17)          123.57 -0.000021    0.02    123.59   
    47. A(C   3,N   7,H  18)          125.96  0.000403   -0.07    125.89   
    48. A(C   6,N   7,H  18)          126.98 -0.000033    0.02    126.99   
    49. A(C   3,N   7,C   6)          107.06 -0.000370    0.05    107.11   
    50. A(O   9,C   8,O  10)          122.85  0.000780   -0.14    122.71   
    51. A(C   1,C   8,O  10)          114.62 -0.000143    0.09    114.71   
    52. A(C   1,C   8,O   9)          122.48 -0.000671    0.04    122.53   
    53. A(C   8,O  10,H  19)          112.56 -0.000206    0.03    112.59   
    54. D(C   2,C   1,N   0,H  11)      5.45 -0.000652    2.03      7.48   
    55. D(C   8,C   1,N   0,H  11)   -120.26 -0.000238    1.91   -118.36   
    56. D(C   8,C   1,N   0,H  12)     -1.46 -0.000461    1.91      0.45   
    57. D(H  13,C   1,N   0,H  11)    123.63 -0.000715    2.08    125.70   
    58. D(C   2,C   1,N   0,H  12)    124.25 -0.000875    2.03    126.29   
    59. D(C   3,C   2,C   1,N   0)    -66.03 -0.000092    0.16    -65.87   
    60. D(C   3,C   2,C   1,C   8)     63.14 -0.000227    0.22     63.36   
    61. D(H  14,C   2,C   1,C   8)   -174.34 -0.000035    0.10   -174.24   
    62. D(H  14,C   2,C   1,N   0)     56.48  0.000100    0.05     56.53   
    63. D(H  14,C   2,C   1,H  13)    -62.30  0.000186    0.05    -62.25   
    64. D(C   3,C   2,C   1,H  13)    175.19 -0.000006    0.16    175.35   
    65. D(C   4,C   3,C   2,H  15)    122.78 -0.000240    0.18    122.96   
    66. D(C   4,C   3,C   2,H  14)   -118.43  0.000032    0.07   -118.36   
    67. D(C   4,C   3,C   2,C   1)      3.12  0.000160    0.01      3.13   
    68. D(N   7,C   3,C   2,C   1)   -176.53  0.000074    0.13   -176.40   
    69. D(N   7,C   3,C   2,H  14)     61.92 -0.000055    0.18     62.10   
    70. D(H  16,C   4,C   3,N   7)    179.99 -0.000012    0.11    180.10   
    71. D(H  16,C   4,C   3,C   2)      0.30 -0.000086    0.21      0.51   
    72. D(N   5,C   4,C   3,N   7)      0.29  0.000091   -0.12      0.17   
    73. D(N   5,C   4,C   3,C   2)   -179.40  0.000016   -0.02   -179.42   
    74. D(C   6,N   5,C   4,H  16)   -179.88  0.000038   -0.12   -180.00   
    75. D(C   6,N   5,C   4,C   3)     -0.14 -0.000057    0.09     -0.05   
    76. D(H  17,C   6,N   5,C   4)   -179.99 -0.000004    0.02   -179.97   
    77. D(N   7,C   6,N   5,C   4)     -0.06 -0.000001   -0.03     -0.09   
    78. D(C   3,N   7,C   6,H  17)   -179.83  0.000058   -0.09   -179.92   
    79. D(C   3,N   7,C   6,N   5)      0.24  0.000055   -0.05      0.20   
    80. D(H  18,N   7,C   3,C   4)   -179.53 -0.000054    0.10   -179.44   
    81. D(H  18,N   7,C   3,C   2)      0.20  0.000006    0.00      0.21   
    82. D(C   6,N   7,C   3,C   4)     -0.31 -0.000089    0.10     -0.21   
    83. D(H  18,N   7,C   6,N   5)    179.45  0.000024   -0.04    179.41   
    84. D(C   6,N   7,C   3,C   2)    179.43 -0.000029    0.01    179.43   
    85. D(H  18,N   7,C   6,H  17)     -0.62  0.000027   -0.09     -0.71   
    86. D(O  10,C   8,C   1,C   2)   -129.84 -0.000583    0.31   -129.53   
    87. D(O  10,C   8,C   1,N   0)     -1.14 -0.000518    0.34     -0.80   
    88. D(O   9,C   8,C   1,H  13)    -60.83  0.000458   -0.09    -60.92   
    89. D(O   9,C   8,C   1,C   2)     52.59  0.000286   -0.03     52.56   
    90. D(O   9,C   8,C   1,N   0)   -178.71  0.000351   -0.00   -178.71   
    91. D(H  19,O  10,C   8,O   9)      2.59  0.000220   -0.90      1.69   
    92. D(H  19,O  10,C   8,C   1)   -174.97  0.001133   -1.15   -176.11   
    ----------------------------------------------------------------------------

Geometry step timings:
Preparation and reading OPT file:      0.000 s ( 1.017 %)
Internal coordinates            :      0.000 s ( 1.356 %)
B/P matrices and projection     :      0.000 s (38.898 %)
Hessian update/contruction      :      0.000 s (10.254 %)
Making the step                 :      0.000 s (30.763 %)
Converting the step to Cartesian:      0.000 s ( 3.051 %)
Storing new data                :      0.000 s ( 0.847 %)
Checking convergence            :      0.000 s ( 1.102 %)
Final printing                  :      0.000 s (12.627 %)
Total time                      :      0.001 s

Time for energy+gradient        :      0.019 s
Time for complete geometry iter :      0.020 s

         *************************************************************
         *                GEOMETRY OPTIMIZATION CYCLE   7            *
         *************************************************************
---------------------------------
CARTESIAN COORDINATES (ANGSTROEM)
---------------------------------
  N    -1.512958   -1.551197    0.748621
  C    -1.415549   -0.740028   -0.454008
  C    -0.010037   -0.712788   -1.077987
  C     1.001208   -0.041977   -0.211544
  C     0.958486    0.506300    1.041114
  N     2.177765    1.014185    1.380281
  C     2.951245    0.779457    0.354308
  N     2.291894    0.139998   -0.637212
  C    -1.898233    0.695932   -0.298691
  O    -1.900940    1.487422   -1.219643
  O    -2.353685    0.997879    0.903569
  H    -0.592368   -1.863174    1.034977
  H    -1.904456   -1.012086    1.512403
  H    -2.090078   -1.177630   -1.209644
  H     0.296715   -1.741521   -1.285735
  H    -0.078163   -0.176134   -2.028712
  H     0.139978    0.575765    1.727900
  H     3.984708    1.054790    0.297121
  H     2.665089   -0.142726   -1.529831
  H    -2.710621    1.907534    0.952714

----------------------------
CARTESIAN COORDINATES (A.U.)
----------------------------
  NO LB    ZA    FRAG    MASS        X           Y           Z
   0 N   7.0000    0    14.007   -2.859077   -2.931338    1.414688
   1 C   6.0000    0    12.011   -2.675000   -1.398450   -0.857952
   2 C   6.0000    0    12.011   -0.018968   -1.346974   -2.037100
   3 C   6.0000    0    12.011    1.892008   -0.079325   -0.399760
   4 C   6.0000    0    12.011    1.811276    0.956768    1.967421
   5 N   7.0000    0    14.007    4.115379    1.916532    2.608352
   6 C   6.0000    0    12.011    5.577045    1.472961    0.669546
   7 N   7.0000    0    14.007    4.331052    0.264559   -1.204156
   8 C   6.0000    0    12.011   -3.587140    1.315120   -0.564445
   9 O   8.0000    0    15.999   -3.592255    2.810819   -2.304792
  10 O   8.0000    0    15.999   -4.447820    1.885717    1.707498
  11 H   1.0000    0     1.008   -1.119413   -3.520888    1.955823
  12 H   1.0000    0     1.008   -3.598900   -1.912565    2.858028
  13 H   1.0000    0     1.008   -3.949675   -2.225398   -2.285896
  14 H   1.0000    0     1.008    0.560709   -3.290999   -2.429687
  15 H   1.0000    0     1.008   -0.147707   -0.332846   -3.833711
  16 H   1.0000    0     1.008    0.264520    1.088038    3.265258
  17 H   1.0000    0     1.008    7.530007    1.993264    0.561478
  18 H   1.0000    0     1.008    5.036289   -0.269713   -2.890962
  19 H   1.0000    0     1.008   -5.122331    3.604716    1.800368

      -----------------------------------------------------------      
     |                   =====================                   |     
     |                           x T B                           |     
     |                   =====================                   |     
     |                         S. Grimme                         |     
     |          Mulliken Center for Theoretical Chemistry        |     
     |                    University of Bonn                     |     
      -----------------------------------------------------------      

   * xtb version 6.7.1 (edcfbbe) compiled by 'albert@albert-system' on 2024-07-22

   xtb is free software: you can redistribute it and/or modify it under
   the terms of the GNU Lesser General Public License as published by
   the Free Software Foundation, either version 3 of the License, or
   (at your option) any later version.
   
   xtb is distributed in the hope that it will be useful,
   but WITHOUT ANY WARRANTY; without even the implied warranty of
   MERCHANTABILITY or FITNESS FOR A PARTICULAR PURPOSE.  See the
   GNU Lesser General Public License for more details.
   
   Cite this work as:
   * C. Bannwarth, E. Caldeweyher, S. Ehlert, A. Hansen, P. Pracht,
     J. Seibert, S. Spicher, S. Grimme, WIREs Comput. Mol. Sci., 2020, 11,
     e01493. DOI: 10.1002/wcms.1493
   
   for GFN2-xTB:
   * C. Bannwarth, S. Ehlert and S. Grimme., J. Chem. Theory Comput., 2019,
     15, 1652-1671. DOI: 10.1021/acs.jctc.8b01176
   for GFN1-xTB:
   * S. Grimme, C. Bannwarth, P. Shushkov, J. Chem. Theory Comput., 2017,
     13, 1989-2009. DOI: 10.1021/acs.jctc.7b00118
   for GFN0-xTB:
   * P. Pracht, E. Caldeweyher, S. Ehlert, S. Grimme, ChemRxiv, 2019, preprint.
     DOI: 10.26434/chemrxiv.8326202.v1
   for GFN-FF:
   * S. Spicher and S. Grimme, Angew. Chem. Int. Ed., 2020, 59, 15665-15673.
     DOI: 10.1002/anie.202004239
   
   for ALPB and GBSA implicit solvation:
   * S. Ehlert, M. Stahn, S. Spicher, S. Grimme, J. Chem. Theory Comput.,
     2021, 17, 4250-4261. DOI: 10.1021/acs.jctc.1c00471
   
   for ddCOSMO and CPCM-X implicit solvation:
   * M. Stahn, S. Ehlert, S. Grimme, J. Phys. Chem. A,
     2023, XX, XXXX-XXXX. DOI: 10.1021/acs.jpca.3c04382
   
   for DFT-D4:
   * E. Caldeweyher, C. Bannwarth and S. Grimme, J. Chem. Phys., 2017,
     147, 034112. DOI: 10.1063/1.4993215
   * E. Caldeweyher, S. Ehlert, A. Hansen, H. Neugebauer, S. Spicher,
     C. Bannwarth and S. Grimme, J. Chem. Phys., 2019, 150, 154122.
     DOI: 10.1063/1.5090222
   * E. Caldeweyher, J.-M. Mewes, S. Ehlert and S. Grimme, Phys. Chem. Chem. Phys.
     2020, 22, 8499-8512. DOI: 10.1039/D0CP00502A
   
   for sTDA-xTB:
   * S. Grimme and C. Bannwarth, J. Chem. Phys., 2016, 145, 054103.
     DOI: 10.1063/1.4959605
   
   in the mass-spec context:
   * V. Asgeirsson, C. Bauer and S. Grimme, Chem. Sci., 2017, 8, 4879.
     DOI: 10.1039/c7sc00601b
   * J. Koopman and S. Grimme, ACS Omega 2019, 4, 12, 15120-15133.
     DOI: 10.1021/acsomega.9b02011
   
   for metadynamics refer to:
   * S. Grimme, J. Chem. Theory Comput., 2019, 155, 2847-2862
     DOI: 10.1021/acs.jctc.9b00143
   
   for SPH calculations refer to:
   * S. Spicher and S. Grimme, J. Chem. Theory Comput., 2021, 17, 1701-1714
     DOI: 10.1021/acs.jctc.0c01306
   
   for ONIOM refer to:
   * C. Plett, A. Katbashev, S. Ehlert, S. Grimme, M. Bursch,
     Phys. Chem. Chem. Phys., 2023, 25, 17860-17868. DOI: 10.1039/D3CP02178E
   
   for DIPRO refer to:
   * J. Kohn, N. Gildemeister, S. Grimme, D. Fazzi, A. Hansen,
     J. Chem. Phys., 2023, just accepted.
   
   for PTB refer to:
   * S. Grimme, M. Mueller, A. Hansen, J. Chem. Phys., 2023, 158, 124111.
     DOI: 10.1063/5.0137838
   
   with help from (in alphabetical order)
   P. Atkinson, C. Bannwarth, F. Bohle, G. Brandenburg, E. Caldeweyher
   M. Checinski, S. Dohm, S. Ehlert, S. Ehrlich, I. Gerasimov, C. Hölzer
   A. Katbashev, J. Kohn, J. Koopman, C. Lavigne, S. Lehtola, F. März, M. Müller,
   F. Musil, H. Neugebauer, J. Pisarek, C. Plett, P. Pracht, F. Pultar,
   J. Seibert, P. Shushkov, S. Spicher, M. Stahn, M. Steiner, T. Strunk,
   J. Stückrath, T. Rose, and J. Unsleber
   
 * started run on 2026/04/09 at 16:06:43.548     
   ID    Z sym.   atoms
    1    7 N      1, 6, 8
    2    6 C      2-5, 7, 9
    3    8 O      10, 11
    4    1 H      12-20

           -------------------------------------------------
          |                Calculation Setup                |
           -------------------------------------------------

          program call               : /home/analima/Programs/orca-6.1.0-f.0_linux_x86-64/bin/otool_xtb geo_opt_XTB.xyz --grad -c 0 -u 0 -P 1 --namespace geo_opt --input geo_opt_XTB.input.tmp --alpb WATER --acc 0.200000
          calculation namespace      : geo_opt
          coordinate file            : geo_opt_XTB.xyz
          omp threads                :                     1


           -------------------------------------------------
          |                 G F N 2 - x T B                 |
           -------------------------------------------------

        Reference                      10.1021/acs.jctc.8b01176
      * Hamiltonian:
        H0-scaling (s, p, d)           1.850000    2.230000    2.230000
        zeta-weighting                 0.500000
      * Dispersion:
        s8                             2.700000
        a1                             0.520000
        a2                             5.000000
        s9                             5.000000
      * Repulsion:
        kExp                           1.500000    1.000000
        rExp                           1.000000
      * Coulomb:
        alpha                          2.000000
        third order                    shell-resolved
        anisotropic                    true
        a3                             3.000000
        a5                             4.000000
        cn-shift                       1.200000
        cn-exp                         4.000000
        max-rad                        5.000000

      * Solvation model:               ALPB
        Solvent                        WATER
        Parameter file                 internal GFN2-xTB/ALPB
        Dielectric constant                8.0200E+01
        Reference state                gsolv [1 M gas/solution]
        Free energy shift                  1.0808E-03 Eh       6.7819E-01 kcal/mol
        Temperature                        2.9815E+02 K
        Density                            1.0000E+00 kg/L
        Solvent mass                       1.8000E+01 g/mol
        Interaction kernel             P16
        Born radius scaling (c1)           1.4744E+00
        Born radii integrator          GBOBC
        Born offset                        0.0000E+00 a0       0.0000E+00 AA
        H-bond correction              true
        Ion screening                  false
        Surface tension                    1.0000E-05 Eh       1.5569E+01 dyn/cm
        Grid points                               230 per atom
q/qsh data taken from xtbrestart
CAMM data taken from xtbrestart

          ...................................................
          :                      SETUP                      :
          :.................................................:
          :  # basis functions                  53          :
          :  # atomic orbitals                  53          :
          :  # shells                           31          :
          :  # electrons                        60          :
          :  max. iterations                   250          :
          :  Hamiltonian                  GFN2-xTB          :
          :  restarted?                       true          :
          :  GBSA solvation                   true          :
          :  PC potential                    false          :
          :  electronic temp.          300.0000000     K    :
          :  accuracy                    0.2000000          :
          :  -> integral cutoff          0.3198970E+02      :
          :  -> integral neglect         0.2000000E-08      :
          :  -> SCF convergence          0.2000000E-06 Eh   :
          :  -> wf. convergence          0.2000000E-04 e    :
          :  Broyden damping             0.4000000          :
          :  net charge                          0          :
          :  unpaired electrons                  0          :
          ...................................................

 iter      E             dE          RMSdq      gap      omega  full diag
   1    -34.7599888 -0.347600E+02  0.387E-02    3.42       0.0  T
   2    -34.7599890 -0.280965E-06  0.229E-02    3.42       1.0  T
   3    -34.7599891 -0.453243E-07  0.230E-03    3.42       9.7  T
   4    -34.7599891 -0.413910E-07  0.114E-03    3.42      19.6  T
   5    -34.7599891 -0.378850E-08  0.611E-04    3.42      36.6  T
   6    -34.7599891 -0.159729E-08  0.172E-04    3.42     130.3  T
   7    -34.7599891 -0.129461E-09  0.955E-05    3.42     234.2  T

   *** convergence criteria satisfied after 7 iterations ***

         #    Occupation            Energy/Eh            Energy/eV
      -------------------------------------------------------------
         1        2.0000           -0.7536105             -20.5068
       ...           ...                  ...                  ...
        24        2.0000           -0.4672327             -12.7140
        25        2.0000           -0.4647389             -12.6462
        26        2.0000           -0.4320765             -11.7574
        27        2.0000           -0.4295397             -11.6884
        28        2.0000           -0.3836935             -10.4408
        29        2.0000           -0.3816304             -10.3847
        30        2.0000           -0.3710806             -10.0976 (HOMO)
        31                         -0.2455193              -6.6809 (LUMO)
        32                         -0.2018634              -5.4930
        33                         -0.1674730              -4.5572
        34                          0.0149449               0.4067
        35                          0.0264596               0.7200
       ...                                ...                  ...
        53                          0.6270049              17.0617
      -------------------------------------------------------------
                  HL-Gap            0.1255612 Eh            3.4167 eV
             Fermi-level           -0.3082999 Eh           -8.3893 eV

 SCC (total)                   0 d,  0 h,  0 min,  0.009 sec
 SCC setup                      ...        0 min,  0.000 sec (  2.502%)
 Dispersion                     ...        0 min,  0.000 sec (  0.602%)
 classical contributions        ...        0 min,  0.000 sec (  0.116%)
 integral evaluation            ...        0 min,  0.001 sec (  9.828%)
 iterations                     ...        0 min,  0.005 sec ( 53.217%)
 molecular gradient             ...        0 min,  0.003 sec ( 33.160%)
 printout                       ...        0 min,  0.000 sec (  0.496%)

         :::::::::::::::::::::::::::::::::::::::::::::::::::::
         ::                     SUMMARY                     ::
         :::::::::::::::::::::::::::::::::::::::::::::::::::::
         :: total energy             -34.361152727708 Eh    ::
         :: total w/o Gsasa/hb       -34.346594341999 Eh    ::
         :: gradient norm              0.004097345003 Eh/a0 ::
         :: HOMO-LUMO gap              3.416695215261 eV    ::
         ::.................................................::
         :: SCC energy               -34.759875271479 Eh    ::
         :: -> isotropic ES            0.095779819501 Eh    ::
         :: -> anisotropic ES          0.003699730162 Eh    ::
         :: -> anisotropic XC          0.015617008772 Eh    ::
         :: -> dispersion             -0.016888198778 Eh    ::
         :: -> Gsolv                  -0.030071393203 Eh    ::
         ::    -> Gelec               -0.015513007493 Eh    ::
         ::    -> Gsasa               -0.002664216995 Eh    ::
         ::    -> Ghb                 -0.012974928412 Eh    ::
         ::    -> Gshift               0.001080759698 Eh    ::
         :: repulsion energy           0.398722543771 Eh    ::
         :: add. restraining           0.000000000000 Eh    ::
         :: total charge              -0.000000000000 e     ::
         :::::::::::::::::::::::::::::::::::::::::::::::::::::


Property printout bound to 'properties.out'

           -------------------------------------------------
          | TOTAL ENERGY              -34.361152727708 Eh   |
          | GRADIENT NORM               0.004097345003 Eh/α |
          | HOMO-LUMO GAP               3.416695215261 eV   |
           -------------------------------------------------

------------------------------------------------------------------------
 * finished run on 2026/04/09 at 16:06:43.562     
------------------------------------------------------------------------
 total:
 * wall-time:     0 d,  0 h,  0 min,  0.014 sec
 *  cpu-time:     0 d,  0 h,  0 min,  0.013 sec
 * ratio c/w:     0.906 speedup
 SCF:
 * wall-time:     0 d,  0 h,  0 min,  0.010 sec
 *  cpu-time:     0 d,  0 h,  0 min,  0.008 sec
 * ratio c/w:     0.867 speedup


-------------------------   --------------------
FINAL SINGLE POINT ENERGY       -34.361152727710
-------------------------   --------------------


-------------
DIPOLE MOMENT
-------------
                                X             Y             Z
Total Dipole Moment    :      0.33500      -0.68700      -0.70700
                        -----------------------------------------
Magnitude (a.u.)       :      1.04117
Magnitude (Debye)      :      2.64645


------------------
CARTESIAN GRADIENT
------------------

   1   N   :   -0.001356223    0.000942681    0.000041286
   2   C   :   -0.000155553   -0.000956522   -0.000380094
   3   C   :    0.000652319    0.000730208    0.000646018
   4   C   :   -0.000036320    0.000368360    0.000501783
   5   C   :   -0.000478643   -0.000140212    0.000045100
   6   N   :   -0.000791044   -0.000002811    0.000612967
   7   C   :    0.000543221   -0.000292033   -0.001012712
   8   N   :   -0.000237056    0.000086110    0.000302094
   9   C   :    0.000847253   -0.000291689    0.000941625
  10   O   :   -0.000187197    0.000426237   -0.001187074
  11   O   :    0.000109716   -0.000654367    0.000823688
  12   H   :    0.000296088   -0.000829303   -0.000650018
  13   H   :    0.000405411    0.000578503    0.000662629
  14   H   :    0.000365201   -0.000351284   -0.000305011
  15   H   :    0.000052748   -0.000163545   -0.000137253
  16   H   :   -0.000064049    0.000128523    0.000054928
  17   H   :   -0.000015932   -0.000134872   -0.000275219
  18   H   :    0.000317951    0.000047358   -0.000124487
  19   H   :    0.000378091   -0.000128076   -0.000442831
  20   H   :   -0.000645982    0.000636735   -0.000117416

Difference to translation invariance:
           :   -0.0000000000    0.0000000000    0.0000000000

Difference to rotation invariance:
           :    0.0001998783   -0.0005710173   -0.0002902173

Norm of the Cartesian gradient     ...    0.0040973450
RMS gradient                       ...    0.0005289650
MAX gradient                       ...    0.0013562231
------------------------------------------------------------------------------
                         ORCA GEOMETRY RELAXATION STEP
------------------------------------------------------------------------------

Reading the OPT-File                    .... done
Getting information on internals        .... done
Copying old internal coords+grads       .... done
Making the new internal coordinates     .... (2022 redundants) done
Validating the new internal coordinates .... (2022 redundants) done
Calculating the B-matrix                .... done
Calculating the G,G- and P matrices     .... done
Transforming gradient to internals      .... done
Projecting the internal gradient        .... done
Number of atoms                         ....  20
Number of internal coordinates          ....  92
Current Energy                          ....   -34.361152728 Eh
Current gradient norm                   ....     0.004097345 Eh/bohr
Maximum allowed component of the step   ....  0.300
Current trust radius                    ....  0.700
Updating the Hessian (BFGS)             .... done
Forming the augmented Hessian           .... done
Diagonalizing the augmented Hessian     .... done
Last element of RFO vector              ....  0.835551870
Lowest eigenvalues of augmented Hessian:
 -0.001037604  0.002295494  0.014395089  0.015076194  0.016928040
Length of the computed step             ....  0.657543342
The final length of the internal step   ....  0.656752416
Converting the step to Cartesian space:
 Initial RMS(Int)=    0.0684711726
Transforming coordinates:
 Iter   0:  RMS(Cart)=    0.0953898487 RMS(Int)=    1.1305272247
 Iter   5:  RMS(Cart)=    0.0001091893 RMS(Int)=    0.0000755807
 Iter  10:  RMS(Cart)=    0.0000002375 RMS(Int)=    0.0000001739
done
Storing new coordinates                 .... done
The predicted energy change is          ....    -0.000030528
Previously predicted energy change      ....    -0.000083661
Actually observed energy change         ....    -0.000153043
Ratio of predicted to observed change   ....     1.829329101
New trust radius                        ....     0.466666667

                                .--------------------.
          ----------------------|Geometry convergence|-------------------------
          Item                value                   Tolerance       Converged
          ---------------------------------------------------------------------
          Energy change      -0.0001530433            0.0000050000      NO
          RMS gradient        0.0003523818            0.0001000000      NO
          MAX gradient        0.0012264479            0.0003000000      NO
          RMS step            0.0684711726            0.0020000000      NO
          MAX step            0.3000000000            0.0040000000      NO
          -------------------------------------------------------------------------
          ........................................................
          Max(Bonds)      0.0076      Max(Angles)    0.95
          Max(Dihed)       17.19      Max(Improp)    0.00
          ---------------------------------------------------------------------

The optimization has not yet converged - more geometry cycles are needed


    ---------------------------------------------------------------------------
                         Redundant Internal Coordinates
                            (Angstroem and degrees)

        Definition                    Value    dE/dq     Step     New-Value
    ----------------------------------------------------------------------------
     1. B(C   1,N   0)                1.4539 -0.000193  0.0004    1.4543   
     2. B(C   2,C   1)                1.5380  0.000247 -0.0076    1.5305   
     3. B(C   3,C   2)                1.4911 -0.000551  0.0014    1.4925   
     4. B(C   4,C   3)                1.3681 -0.000565 -0.0004    1.3677   
     5. B(N   5,C   4)                1.3637  0.000030  0.0004    1.3641   
     6. B(C   6,N   5)                1.3061  0.001226 -0.0031    1.3031   
     7. B(N   7,C   3)                1.3712  0.000189 -0.0022    1.3690   
     8. B(N   7,C   6)                1.3516 -0.000331 -0.0003    1.3512   
     9. B(C   8,C   1)                1.5229  0.000218 -0.0015    1.5213   
    10. B(O   9,C   8)                1.2143  0.001173 -0.0019    1.2124   
    11. B(O  10,C   8)                1.3206  0.000834 -0.0009    1.3198   
    12. B(H  11,N   0)                1.0133  0.000348 -0.0000    1.0133   
    13. B(H  12,N   0)                1.0135  0.000610 -0.0013    1.0123   
    14. B(H  12,O  10)                2.1477 -0.000120  0.0029    2.1505   
    15. B(H  13,C   1)                1.1034  0.000122 -0.0010    1.1024   
    16. B(H  14,C   2)                1.0934  0.000196 -0.0012    1.0922   
    17. B(H  15,C   2)                1.0939  0.000017  0.0007    1.0945   
    18. B(H  16,C   4)                1.0707 -0.000177  0.0004    1.0711   
    19. B(H  17,C   6)                1.0710  0.000327 -0.0022    1.0688   
    20. B(H  18,N   7)                1.0080  0.000573 -0.0009    1.0071   
    21. B(H  19,O  10)                0.9784  0.000819 -0.0040    0.9744   
    22. A(C   1,N   0,H  12)          110.64  0.000183   -0.02    110.61   
    23. A(H  11,N   0,H  12)          107.56  0.000045   -0.72    106.84   
    24. A(C   1,N   0,H  11)          110.16 -0.000408    0.28    110.44   
    25. A(N   0,C   1,C   8)          114.87 -0.000280    0.12    114.99   
    26. A(C   8,C   1,H  13)          104.48  0.000265   -0.68    103.80   
    27. A(N   0,C   1,H  13)          107.71 -0.000070    0.03    107.74   
    28. A(C   2,C   1,H  13)          106.73 -0.000168    0.71    107.44   
    29. A(C   2,C   1,C   8)          108.32 -0.000255    0.63    108.95   
    30. A(N   0,C   1,C   2)          114.00  0.000497   -0.77    113.23   
    31. A(C   3,C   2,H  15)          109.06 -0.000147    0.23    109.30   
    32. A(C   3,C   2,H  14)          110.08 -0.000040   -0.50    109.58   
    33. A(C   1,C   2,H  14)          108.47  0.000023    0.11    108.58   
    34. A(H  14,C   2,H  15)          108.30  0.000105   -0.23    108.06   
    35. A(C   1,C   2,C   3)          113.08  0.000232    0.14    113.22   
    36. A(C   1,C   2,H  15)          107.72 -0.000178    0.25    107.97   
    37. A(C   4,C   3,N   7)          105.10  0.000588   -0.18    104.92   
    38. A(C   2,C   3,N   7)          121.18 -0.000306   -0.77    120.41   
    39. A(C   2,C   3,C   4)          133.72 -0.000282    0.95    134.67   
    40. A(N   5,C   4,H  16)          119.99  0.000386   -0.90    119.08   
    41. A(C   3,C   4,H  16)          129.58 -0.000121    0.90    130.48   
    42. A(C   3,C   4,N   5)          110.43 -0.000265    0.01    110.44   
    43. A(C   4,N   5,C   6)          105.50  0.000087    0.09    105.59   
    44. A(N   5,C   6,H  17)          124.55  0.000272    0.08    124.64   
    45. A(N   5,C   6,N   7)          111.86 -0.000296   -0.16    111.70   
    46. A(N   7,C   6,H  17)          123.59  0.000024    0.08    123.66   
    47. A(C   3,N   7,H  18)          125.89  0.000221   -0.45    125.44   
    48. A(C   6,N   7,H  18)          126.99 -0.000106    0.20    127.20   
    49. A(C   3,N   7,C   6)          107.11 -0.000115    0.25    107.36   
    50. A(O   9,C   8,O  10)          122.73  0.000250   -0.59    122.14   
    51. A(C   1,C   8,O  10)          114.69  0.000282    0.36    115.05   
    52. A(C   1,C   8,O   9)          122.54 -0.000552    0.30    122.84   
    53. A(C   8,O  10,H  19)          112.59 -0.000100   -0.22    112.37   
    54. D(C   2,C   1,N   0,H  11)      7.49 -0.000662   16.82     24.31   
    55. D(C   8,C   1,N   0,H  11)   -118.36 -0.000499   16.50   -101.85   
    56. D(C   8,C   1,N   0,H  12)      0.44 -0.000586   15.78     16.22   
    57. D(H  13,C   1,N   0,H  11)    125.71 -0.000620   17.19    142.90   
    58. D(C   2,C   1,N   0,H  12)    126.28 -0.000749   16.10    142.38   
    59. D(C   3,C   2,C   1,N   0)    -65.87  0.000059    0.14    -65.72   
    60. D(C   3,C   2,C   1,C   8)     63.35 -0.000141    0.21     63.56   
    61. D(H  14,C   2,C   1,C   8)   -174.25 -0.000021   -0.23   -174.48   
    62. D(H  14,C   2,C   1,N   0)     56.54  0.000179   -0.30     56.24   
    63. D(H  14,C   2,C   1,H  13)    -62.25  0.000087   -0.38    -62.63   
    64. D(C   3,C   2,C   1,H  13)    175.35 -0.000033    0.06    175.40   
    65. D(C   4,C   3,C   2,H  15)    122.95 -0.000054    0.51    123.47   
    66. D(C   4,C   3,C   2,H  14)   -118.36 -0.000039    0.07   -118.29   
    67. D(C   4,C   3,C   2,C   1)      3.13  0.000122   -0.02      3.11   
    68. D(N   7,C   3,C   2,C   1)   -176.40  0.000105    0.66   -175.74   
    69. D(N   7,C   3,C   2,H  14)     62.10 -0.000056    0.75     62.85   
    70. D(H  16,C   4,C   3,N   7)   -179.90  0.000010    0.60   -179.30   
    71. D(H  16,C   4,C   3,C   2)      0.52 -0.000002    1.21      1.72   
    72. D(N   5,C   4,C   3,N   7)      0.17  0.000008   -0.37     -0.20   
    73. D(N   5,C   4,C   3,C   2)   -179.42 -0.000005    0.24   -179.18   
    74. D(C   6,N   5,C   4,H  16)   -180.00  0.000003   -0.56   -180.56   
    75. D(C   6,N   5,C   4,C   3)     -0.05  0.000005    0.28      0.22   
    76. D(H  17,C   6,N   5,C   4)   -179.97 -0.000009    0.19   -179.78   
    77. D(N   7,C   6,N   5,C   4)     -0.09 -0.000016   -0.06     -0.15   
    78. D(C   3,N   7,C   6,H  17)   -179.92  0.000014   -0.42   -180.34   
    79. D(C   3,N   7,C   6,N   5)      0.19  0.000020   -0.17      0.03   
    80. D(H  18,N   7,C   3,C   4)   -179.44 -0.000014    0.54   -178.90   
    81. D(H  18,N   7,C   3,C   2)      0.21 -0.000004    0.05      0.26   
    82. D(C   6,N   7,C   3,C   4)     -0.21 -0.000018    0.31      0.10   
    83. D(H  18,N   7,C   6,N   5)    179.41  0.000020   -0.40    179.01   
    84. D(C   6,N   7,C   3,C   2)    179.44 -0.000008   -0.17    179.27   
    85. D(H  18,N   7,C   6,H  17)     -0.71  0.000013   -0.65     -1.35   
    86. D(O  10,C   8,C   1,C   2)   -129.54 -0.000473    1.92   -127.62   
    87. D(O  10,C   8,C   1,N   0)     -0.82 -0.000238    1.53      0.71   
    88. D(O   9,C   8,C   1,H  13)    -60.92  0.000278    0.04    -60.87   
    89. D(O   9,C   8,C   1,C   2)     52.58  0.000104    0.81     53.39   
    90. D(O   9,C   8,C   1,N   0)   -178.69  0.000338    0.42   -178.27   
    91. D(H  19,O  10,C   8,O   9)      1.73  0.000041   -3.62     -1.89   
    92. D(H  19,O  10,C   8,C   1)   -176.15  0.000638   -4.82   -180.96   
    ----------------------------------------------------------------------------

Geometry step timings:
Preparation and reading OPT file:      0.000 s ( 0.830 %)
Internal coordinates            :      0.000 s ( 0.830 %)
B/P matrices and projection     :      0.000 s (37.427 %)
Hessian update/contruction      :      0.000 s (11.950 %)
Making the step                 :      0.000 s (29.959 %)
Converting the step to Cartesian:      0.000 s ( 4.315 %)
Storing new data                :      0.000 s ( 0.913 %)
Checking convergence            :      0.000 s ( 1.079 %)
Final printing                  :      0.000 s (12.697 %)
Total time                      :      0.001 s

Time for energy+gradient        :      0.017 s
Time for complete geometry iter :      0.019 s

         *************************************************************
         *                GEOMETRY OPTIMIZATION CYCLE   8            *
         *************************************************************
---------------------------------
CARTESIAN COORDINATES (ANGSTROEM)
---------------------------------
  N    -1.494213   -1.558940    0.728947
  C    -1.404053   -0.745806   -0.470530
  C    -0.000917   -0.713184   -1.080868
  C     1.006335   -0.045318   -0.205083
  C     0.978445    0.502566    1.047751
  N     2.202832    1.007608    1.374002
  C     2.962888    0.778107    0.340768
  N     2.289525    0.142892   -0.643576
  C    -1.909530    0.676035   -0.302116
  O    -1.936749    1.481109   -1.208259
  O    -2.339682    0.962788    0.912084
  H    -0.587629   -1.636124    1.174975
  H    -2.118107   -1.123584    1.398487
  H    -2.080414   -1.180288   -1.224820
  H     0.313952   -1.738863   -1.284973
  H    -0.060286   -0.180289   -2.035036
  H     0.181101    0.569535    1.759787
  H     3.994498    1.049397    0.273264
  H     2.645093   -0.133091   -1.544493
  H    -2.643089    1.885451    0.989689

----------------------------
CARTESIAN COORDINATES (A.U.)
----------------------------
  NO LB    ZA    FRAG    MASS        X           Y           Z
   0 N   7.0000    0    14.007   -2.823653   -2.945970    1.377510
   1 C   6.0000    0    12.011   -2.653275   -1.409369   -0.889174
   2 C   6.0000    0    12.011   -0.001734   -1.347723   -2.042544
   3 C   6.0000    0    12.011    1.901698   -0.085639   -0.387552
   4 C   6.0000    0    12.011    1.848993    0.949713    1.979962
   5 N   7.0000    0    14.007    4.162748    1.904103    2.596488
   6 C   6.0000    0    12.011    5.599048    1.470409    0.643959
   7 N   7.0000    0    14.007    4.326576    0.270027   -1.216183
   8 C   6.0000    0    12.011   -3.608489    1.277522   -0.570917
   9 O   8.0000    0    15.999   -3.659926    2.798890   -2.283278
  10 O   8.0000    0    15.999   -4.421359    1.819406    1.723589
  11 H   1.0000    0     1.008   -1.110457   -3.091826    2.220382
  12 H   1.0000    0     1.008   -4.002642   -2.123266    2.642758
  13 H   1.0000    0     1.008   -3.931413   -2.230422   -2.314574
  14 H   1.0000    0     1.008    0.593284   -3.285974   -2.428247
  15 H   1.0000    0     1.008   -0.113924   -0.340696   -3.845661
  16 H   1.0000    0     1.008    0.342231    1.076265    3.325516
  17 H   1.0000    0     1.008    7.548508    1.983072    0.516393
  18 H   1.0000    0     1.008    4.998501   -0.251506   -2.918669
  19 H   1.0000    0     1.008   -4.994715    3.562985    1.870241

      -----------------------------------------------------------      
     |                   =====================                   |     
     |                           x T B                           |     
     |                   =====================                   |     
     |                         S. Grimme                         |     
     |          Mulliken Center for Theoretical Chemistry        |     
     |                    University of Bonn                     |     
      -----------------------------------------------------------      

   * xtb version 6.7.1 (edcfbbe) compiled by 'albert@albert-system' on 2024-07-22

   xtb is free software: you can redistribute it and/or modify it under
   the terms of the GNU Lesser General Public License as published by
   the Free Software Foundation, either version 3 of the License, or
   (at your option) any later version.
   
   xtb is distributed in the hope that it will be useful,
   but WITHOUT ANY WARRANTY; without even the implied warranty of
   MERCHANTABILITY or FITNESS FOR A PARTICULAR PURPOSE.  See the
   GNU Lesser General Public License for more details.
   
   Cite this work as:
   * C. Bannwarth, E. Caldeweyher, S. Ehlert, A. Hansen, P. Pracht,
     J. Seibert, S. Spicher, S. Grimme, WIREs Comput. Mol. Sci., 2020, 11,
     e01493. DOI: 10.1002/wcms.1493
   
   for GFN2-xTB:
   * C. Bannwarth, S. Ehlert and S. Grimme., J. Chem. Theory Comput., 2019,
     15, 1652-1671. DOI: 10.1021/acs.jctc.8b01176
   for GFN1-xTB:
   * S. Grimme, C. Bannwarth, P. Shushkov, J. Chem. Theory Comput., 2017,
     13, 1989-2009. DOI: 10.1021/acs.jctc.7b00118
   for GFN0-xTB:
   * P. Pracht, E. Caldeweyher, S. Ehlert, S. Grimme, ChemRxiv, 2019, preprint.
     DOI: 10.26434/chemrxiv.8326202.v1
   for GFN-FF:
   * S. Spicher and S. Grimme, Angew. Chem. Int. Ed., 2020, 59, 15665-15673.
     DOI: 10.1002/anie.202004239
   
   for ALPB and GBSA implicit solvation:
   * S. Ehlert, M. Stahn, S. Spicher, S. Grimme, J. Chem. Theory Comput.,
     2021, 17, 4250-4261. DOI: 10.1021/acs.jctc.1c00471
   
   for ddCOSMO and CPCM-X implicit solvation:
   * M. Stahn, S. Ehlert, S. Grimme, J. Phys. Chem. A,
     2023, XX, XXXX-XXXX. DOI: 10.1021/acs.jpca.3c04382
   
   for DFT-D4:
   * E. Caldeweyher, C. Bannwarth and S. Grimme, J. Chem. Phys., 2017,
     147, 034112. DOI: 10.1063/1.4993215
   * E. Caldeweyher, S. Ehlert, A. Hansen, H. Neugebauer, S. Spicher,
     C. Bannwarth and S. Grimme, J. Chem. Phys., 2019, 150, 154122.
     DOI: 10.1063/1.5090222
   * E. Caldeweyher, J.-M. Mewes, S. Ehlert and S. Grimme, Phys. Chem. Chem. Phys.
     2020, 22, 8499-8512. DOI: 10.1039/D0CP00502A
   
   for sTDA-xTB:
   * S. Grimme and C. Bannwarth, J. Chem. Phys., 2016, 145, 054103.
     DOI: 10.1063/1.4959605
   
   in the mass-spec context:
   * V. Asgeirsson, C. Bauer and S. Grimme, Chem. Sci., 2017, 8, 4879.
     DOI: 10.1039/c7sc00601b
   * J. Koopman and S. Grimme, ACS Omega 2019, 4, 12, 15120-15133.
     DOI: 10.1021/acsomega.9b02011
   
   for metadynamics refer to:
   * S. Grimme, J. Chem. Theory Comput., 2019, 155, 2847-2862
     DOI: 10.1021/acs.jctc.9b00143
   
   for SPH calculations refer to:
   * S. Spicher and S. Grimme, J. Chem. Theory Comput., 2021, 17, 1701-1714
     DOI: 10.1021/acs.jctc.0c01306
   
   for ONIOM refer to:
   * C. Plett, A. Katbashev, S. Ehlert, S. Grimme, M. Bursch,
     Phys. Chem. Chem. Phys., 2023, 25, 17860-17868. DOI: 10.1039/D3CP02178E
   
   for DIPRO refer to:
   * J. Kohn, N. Gildemeister, S. Grimme, D. Fazzi, A. Hansen,
     J. Chem. Phys., 2023, just accepted.
   
   for PTB refer to:
   * S. Grimme, M. Mueller, A. Hansen, J. Chem. Phys., 2023, 158, 124111.
     DOI: 10.1063/5.0137838
   
   with help from (in alphabetical order)
   P. Atkinson, C. Bannwarth, F. Bohle, G. Brandenburg, E. Caldeweyher
   M. Checinski, S. Dohm, S. Ehlert, S. Ehrlich, I. Gerasimov, C. Hölzer
   A. Katbashev, J. Kohn, J. Koopman, C. Lavigne, S. Lehtola, F. März, M. Müller,
   F. Musil, H. Neugebauer, J. Pisarek, C. Plett, P. Pracht, F. Pultar,
   J. Seibert, P. Shushkov, S. Spicher, M. Stahn, M. Steiner, T. Strunk,
   J. Stückrath, T. Rose, and J. Unsleber
   
 * started run on 2026/04/09 at 16:06:43.566     
   ID    Z sym.   atoms
    1    7 N      1, 6, 8
    2    6 C      2-5, 7, 9
    3    8 O      10, 11
    4    1 H      12-20

           -------------------------------------------------
          |                Calculation Setup                |
           -------------------------------------------------

          program call               : /home/analima/Programs/orca-6.1.0-f.0_linux_x86-64/bin/otool_xtb geo_opt_XTB.xyz --grad -c 0 -u 0 -P 1 --namespace geo_opt --input geo_opt_XTB.input.tmp --alpb WATER --acc 0.200000
          calculation namespace      : geo_opt
          coordinate file            : geo_opt_XTB.xyz
          omp threads                :                     1


           -------------------------------------------------
          |                 G F N 2 - x T B                 |
           -------------------------------------------------

        Reference                      10.1021/acs.jctc.8b01176
      * Hamiltonian:
        H0-scaling (s, p, d)           1.850000    2.230000    2.230000
        zeta-weighting                 0.500000
      * Dispersion:
        s8                             2.700000
        a1                             0.520000
        a2                             5.000000
        s9                             5.000000
      * Repulsion:
        kExp                           1.500000    1.000000
        rExp                           1.000000
      * Coulomb:
        alpha                          2.000000
        third order                    shell-resolved
        anisotropic                    true
        a3                             3.000000
        a5                             4.000000
        cn-shift                       1.200000
        cn-exp                         4.000000
        max-rad                        5.000000

      * Solvation model:               ALPB
        Solvent                        WATER
        Parameter file                 internal GFN2-xTB/ALPB
        Dielectric constant                8.0200E+01
        Reference state                gsolv [1 M gas/solution]
        Free energy shift                  1.0808E-03 Eh       6.7819E-01 kcal/mol
        Temperature                        2.9815E+02 K
        Density                            1.0000E+00 kg/L
        Solvent mass                       1.8000E+01 g/mol
        Interaction kernel             P16
        Born radius scaling (c1)           1.4744E+00
        Born radii integrator          GBOBC
        Born offset                        0.0000E+00 a0       0.0000E+00 AA
        H-bond correction              true
        Ion screening                  false
        Surface tension                    1.0000E-05 Eh       1.5569E+01 dyn/cm
        Grid points                               230 per atom
q/qsh data taken from xtbrestart
CAMM data taken from xtbrestart

          ...................................................
          :                      SETUP                      :
          :.................................................:
          :  # basis functions                  53          :
          :  # atomic orbitals                  53          :
          :  # shells                           31          :
          :  # electrons                        60          :
          :  max. iterations                   250          :
          :  Hamiltonian                  GFN2-xTB          :
          :  restarted?                       true          :
          :  GBSA solvation                   true          :
          :  PC potential                    false          :
          :  electronic temp.          300.0000000     K    :
          :  accuracy                    0.2000000          :
          :  -> integral cutoff          0.3198970E+02      :
          :  -> integral neglect         0.2000000E-08      :
          :  -> SCF convergence          0.2000000E-06 Eh   :
          :  -> wf. convergence          0.2000000E-04 e    :
          :  Broyden damping             0.4000000          :
          :  net charge                          0          :
          :  unpaired electrons                  0          :
          ...................................................

 iter      E             dE          RMSdq      gap      omega  full diag
   1    -34.7648577 -0.347649E+02  0.264E-01    3.44       0.0  T
   2    -34.7648708 -0.131728E-04  0.157E-01    3.45       1.0  T
   3    -34.7648733 -0.244388E-05  0.177E-02    3.44       1.3  T
   4    -34.7648760 -0.267615E-05  0.866E-03    3.44       2.6  T
   5    -34.7648761 -0.149077E-06  0.430E-03    3.44       5.2  T
   6    -34.7648762 -0.831675E-07  0.140E-03    3.44      16.0  T
   7    -34.7648762 -0.952826E-08  0.742E-04    3.44      30.1  T
   8    -34.7648762 -0.168146E-08  0.340E-04    3.44      65.7  T
   9    -34.7648762 -0.456616E-09  0.991E-05    3.44     225.7  T
  10    -34.7648762 -0.368345E-10  0.451E-05    3.44     495.4  T

   *** convergence criteria satisfied after 10 iterations ***

         #    Occupation            Energy/Eh            Energy/eV
      -------------------------------------------------------------
         1        2.0000           -0.7546019             -20.5338
       ...           ...                  ...                  ...
        24        2.0000           -0.4662032             -12.6860
        25        2.0000           -0.4633495             -12.6084
        26        2.0000           -0.4359782             -11.8636
        27        2.0000           -0.4294318             -11.6854
        28        2.0000           -0.3838188             -10.4442
        29        2.0000           -0.3816520             -10.3853
        30        2.0000           -0.3712215             -10.1014 (HOMO)
        31                         -0.2448125              -6.6617 (LUMO)
        32                         -0.2009688              -5.4686
        33                         -0.1672802              -4.5519
        34                          0.0195122               0.5310
        35                          0.0291693               0.7937
       ...                                ...                  ...
        53                          0.6320942              17.2002
      -------------------------------------------------------------
                  HL-Gap            0.1264090 Eh            3.4398 eV
             Fermi-level           -0.3080170 Eh           -8.3816 eV

 SCC (total)                   0 d,  0 h,  0 min,  0.009 sec
 SCC setup                      ...        0 min,  0.000 sec (  4.487%)
 Dispersion                     ...        0 min,  0.000 sec (  0.811%)
 classical contributions        ...        0 min,  0.000 sec (  0.185%)
 integral evaluation            ...        0 min,  0.001 sec ( 10.712%)
 iterations                     ...        0 min,  0.005 sec ( 53.960%)
 molecular gradient             ...        0 min,  0.003 sec ( 29.302%)
 printout                       ...        0 min,  0.000 sec (  0.450%)

         :::::::::::::::::::::::::::::::::::::::::::::::::::::
         ::                     SUMMARY                     ::
         :::::::::::::::::::::::::::::::::::::::::::::::::::::
         :: total energy             -34.361956146724 Eh    ::
         :: total w/o Gsasa/hb       -34.347626968531 Eh    ::
         :: gradient norm              0.010044968188 Eh/a0 ::
         :: HOMO-LUMO gap              3.439764053607 eV    ::
         ::.................................................::
         :: SCC energy               -34.764763700787 Eh    ::
         :: -> isotropic ES            0.095625804042 Eh    ::
         :: -> anisotropic ES          0.003216607244 Eh    ::
         :: -> anisotropic XC          0.015554014453 Eh    ::
         :: -> dispersion             -0.016860494261 Eh    ::
         :: -> Gsolv                  -0.029683947413 Eh    ::
         ::    -> Gelec               -0.015354769220 Eh    ::
         ::    -> Gsasa               -0.002621187202 Eh    ::
         ::    -> Ghb                 -0.012788750689 Eh    ::
         ::    -> Gshift               0.001080759698 Eh    ::
         :: repulsion energy           0.402807554063 Eh    ::
         :: add. restraining           0.000000000000 Eh    ::
         :: total charge              -0.000000000000 e     ::
         :::::::::::::::::::::::::::::::::::::::::::::::::::::


Property printout bound to 'properties.out'

           -------------------------------------------------
          | TOTAL ENERGY              -34.361956146724 Eh   |
          | GRADIENT NORM               0.010044968188 Eh/α |
          | HOMO-LUMO GAP               3.439764053607 eV   |
           -------------------------------------------------

------------------------------------------------------------------------
 * finished run on 2026/04/09 at 16:06:43.582     
------------------------------------------------------------------------
 total:
 * wall-time:     0 d,  0 h,  0 min,  0.015 sec
 *  cpu-time:     0 d,  0 h,  0 min,  0.013 sec
 * ratio c/w:     0.874 speedup
 SCF:
 * wall-time:     0 d,  0 h,  0 min,  0.009 sec
 *  cpu-time:     0 d,  0 h,  0 min,  0.007 sec
 * ratio c/w:     0.851 speedup


-------------------------   --------------------
FINAL SINGLE POINT ENERGY       -34.361956146720
-------------------------   --------------------


-------------
DIPOLE MOMENT
-------------
                                X             Y             Z
Total Dipole Moment    :      0.24800      -0.61300      -0.67400
                        -----------------------------------------
Magnitude (a.u.)       :      0.94422
Magnitude (Debye)      :      2.40001


------------------
CARTESIAN GRADIENT
------------------

   1   N   :   -0.001916951    0.003002442   -0.000273931
   2   C   :    0.003913446    0.001090093   -0.001645553
   3   C   :   -0.001041208    0.000374477    0.000664483
   4   C   :    0.001097138   -0.000674973    0.001445620
   5   C   :   -0.000240111   -0.000011381   -0.002120815
   6   N   :    0.000719786   -0.000624198   -0.001772662
   7   C   :    0.000322721    0.000587965    0.001029503
   8   N   :   -0.001955140    0.000292068    0.001609993
   9   C   :   -0.002273042   -0.003410626   -0.000261338
  10   O   :   -0.000242188   -0.001555999    0.002371687
  11   O   :   -0.001084441    0.001006936   -0.001556677
  12   H   :   -0.000382961   -0.000830688    0.000136987
  13   H   :    0.001071018    0.001159192    0.000587857
  14   H   :    0.000136601    0.001226916    0.000030689
  15   H   :    0.000350803    0.000765484   -0.000367241
  16   H   :   -0.000036029   -0.000299925   -0.000750903
  17   H   :    0.000938533   -0.000014554    0.000802212
  18   H   :   -0.001105138   -0.000467090    0.000129051
  19   H   :   -0.000365053    0.000130421    0.000100445
  20   H   :    0.002092217   -0.001746562   -0.000159407

Difference to translation invariance:
           :    0.0000000000   -0.0000000000    0.0000000000

Difference to rotation invariance:
           :    0.0003702788   -0.0002300169   -0.0001812139

Norm of the Cartesian gradient     ...    0.0100449682
RMS gradient                       ...    0.0012967998
MAX gradient                       ...    0.0039134460
------------------------------------------------------------------------------
                         ORCA GEOMETRY RELAXATION STEP
------------------------------------------------------------------------------

Reading the OPT-File                    .... done
Getting information on internals        .... done
Copying old internal coords+grads       .... done
Making the new internal coordinates     .... (2022 redundants) done
Validating the new internal coordinates .... (2022 redundants) done
Calculating the B-matrix                .... done
Calculating the G,G- and P matrices     .... done
Transforming gradient to internals      .... done
Projecting the internal gradient        .... done
Number of atoms                         ....  20
Number of internal coordinates          ....  92
Current Energy                          ....   -34.361956147 Eh
Current gradient norm                   ....     0.010044968 Eh/bohr
Maximum allowed component of the step   ....  0.300
Current trust radius                    ....  0.467
Updating the Hessian (BFGS)             .... done
Forming the augmented Hessian           .... done
Diagonalizing the augmented Hessian     .... done
Last element of RFO vector              ....  0.873781120
Lowest eigenvalues of augmented Hessian:
 -0.000744690  0.001428020  0.014596236  0.015370974  0.017119570
Length of the computed step             ....  0.556568898
Warning: the length of the step is outside the trust region - taking restricted step instead
The input lambda is                     ....    -0.000079
   iter:   5  x=   -0.001070  g=  215.873984 f(x)=     0.000365
The output lambda is                    ....    -0.001070 (7 iterations)
The final length of the internal step   ....  0.466666667
Converting the step to Cartesian space:
 Initial RMS(Int)=    0.0486533633
Transforming coordinates:
 Iter   0:  RMS(Cart)=    0.0706467732 RMS(Int)=    0.0485155562
 Iter   5:  RMS(Cart)=    0.0000123019 RMS(Int)=    0.0000081976
done
Storing new coordinates                 .... done
The predicted energy change is          ....    -0.000446612
Previously predicted energy change      ....    -0.000030528
Actually observed energy change         ....    -0.000803419
Ratio of predicted to observed change   ....    26.317605949
New trust radius                        ....     0.311111111

                                .--------------------.
          ----------------------|Geometry convergence|-------------------------
          Item                value                   Tolerance       Converged
          ---------------------------------------------------------------------
          Energy change      -0.0008034190            0.0000050000      NO
          RMS gradient        0.0009739138            0.0001000000      NO
          MAX gradient        0.0034036022            0.0003000000      NO
          RMS step            0.0486533633            0.0020000000      NO
          MAX step            0.2093322529            0.0040000000      NO
          -------------------------------------------------------------------------
          ........................................................
          Max(Bonds)      0.0322      Max(Angles)    0.60
          Max(Dihed)       11.99      Max(Improp)    0.00
          ---------------------------------------------------------------------

The optimization has not yet converged - more geometry cycles are needed


    ---------------------------------------------------------------------------
                         Redundant Internal Coordinates
                            (Angstroem and degrees)

        Definition                    Value    dE/dq     Step     New-Value
    ----------------------------------------------------------------------------
     1. B(C   1,N   0)                1.4519 -0.000299  0.0000    1.4519   
     2. B(C   2,C   1)                1.5305 -0.001504 -0.0032    1.5272   
     3. B(C   3,C   2)                1.4925 -0.000036  0.0011    1.4936   
     4. B(C   4,C   3)                1.3677 -0.001040  0.0001    1.3677   
     5. B(N   5,C   4)                1.3640 -0.000256  0.0005    1.3645   
     6. B(C   6,N   5)                1.3030 -0.002299 -0.0011    1.3019   
     7. B(N   7,C   3)                1.3690 -0.002205 -0.0001    1.3689   
     8. B(N   7,C   6)                1.3512 -0.000701  0.0000    1.3512   
     9. B(C   8,C   1)                1.5184 -0.003404  0.0016    1.5200   
    10. B(O   9,C   8)                1.2124 -0.002802 -0.0006    1.2118   
    11. B(O  10,C   8)                1.3197 -0.002018  0.0005    1.3202   
    12. B(H  11,N   0)                1.0133 -0.000213  0.0003    1.0136   
    13. B(H  12,N   0)                1.0134 -0.000274 -0.0005    1.0129   
    14. B(H  12,O  10)                2.1537 -0.001530  0.0322    2.1860   
    15. B(H  13,C   1)                1.1024 -0.000590 -0.0006    1.1018   
    16. B(H  14,C   2)                1.0922 -0.000546 -0.0006    1.0916   
    17. B(H  15,C   2)                1.0945  0.000506  0.0000    1.0945   
    18. B(H  16,C   4)                1.0711 -0.000168  0.0003    1.0714   
    19. B(H  17,C   6)                1.0688 -0.001192 -0.0005    1.0683   
    20. B(H  18,N   7)                1.0071 -0.000252 -0.0002    1.0069   
    21. B(H  19,O  10)                0.9744 -0.002317 -0.0010    0.9734   
    22. A(C   1,N   0,H  12)          110.09  0.001498   -0.28    109.80   
    23. A(H  11,N   0,H  12)          107.02 -0.000968   -0.32    106.70   
    24. A(C   1,N   0,H  11)          110.53  0.000909    0.06    110.60   
    25. A(N   0,C   1,C   8)          114.34 -0.001493    0.26    114.59   
    26. A(C   8,C   1,H  13)          103.93 -0.000911   -0.22    103.71   
    27. A(N   0,C   1,H  13)          107.85  0.000835   -0.18    107.67   
    28. A(C   2,C   1,H  13)          107.34 -0.000172    0.35    107.69   
    29. A(C   2,C   1,C   8)          109.24  0.000930    0.39    109.63   
    30. A(N   0,C   1,C   2)          113.47  0.000726   -0.60    112.87   
    31. A(C   3,C   2,H  15)          109.29  0.000633   -0.00    109.28   
    32. A(C   3,C   2,H  14)          109.59 -0.000673   -0.18    109.41   
    33. A(C   1,C   2,H  14)          108.59  0.000720   -0.02    108.57   
    34. A(H  14,C   2,H  15)          108.06 -0.000523   -0.09    107.97   
    35. A(C   1,C   2,C   3)          113.22 -0.000051    0.17    113.39   
    36. A(C   1,C   2,H  15)          107.96 -0.000125    0.09    108.04   
    37. A(C   4,C   3,N   7)          104.92 -0.000486   -0.09    104.83   
    38. A(C   2,C   3,N   7)          120.41 -0.001412   -0.46    119.95   
    39. A(C   2,C   3,C   4)          134.67  0.001896    0.54    135.21   
    40. A(N   5,C   4,H  16)          119.08 -0.001051   -0.54    118.54   
    41. A(C   3,C   4,H  16)          130.48  0.001135    0.53    131.01   
    42. A(C   3,C   4,N   5)          110.43 -0.000090    0.01    110.44   
    43. A(C   4,N   5,C   6)          105.59  0.000183    0.04    105.62   
    44. A(N   5,C   6,H  17)          124.64  0.000268    0.03    124.66   
    45. A(N   5,C   6,N   7)          111.70 -0.000491   -0.05    111.65   
    46. A(N   7,C   6,H  17)          123.66  0.000222    0.02    123.68   
    47. A(C   3,N   7,H  18)          125.43 -0.000686   -0.24    125.19   
    48. A(C   6,N   7,H  18)          127.20 -0.000196    0.15    127.34   
    49. A(C   3,N   7,C   6)          107.36  0.000883    0.09    107.45   
    50. A(O   9,C   8,O  10)          122.41 -0.001524   -0.19    122.22   
    51. A(C   1,C   8,O  10)          114.46  0.001922   -0.08    114.38   
    52. A(C   1,C   8,O   9)          123.12 -0.000382    0.29    123.41   
    53. A(C   8,O  10,H  19)          112.37 -0.000658   -0.13    112.23   
    54. D(C   2,C   1,N   0,H  11)     24.31 -0.000624   11.99     36.31   
    55. D(C   8,C   1,N   0,H  11)   -101.89 -0.001266   11.72    -90.17   
    56. D(C   8,C   1,N   0,H  12)     16.13 -0.000974   11.29     27.41   
    57. D(H  13,C   1,N   0,H  11)    143.08  0.000163   11.98    155.05   
    58. D(C   2,C   1,N   0,H  12)    142.33 -0.000332   11.56    153.90   
    59. D(C   3,C   2,C   1,N   0)    -65.52  0.001210   -1.40    -66.92   
    60. D(C   3,C   2,C   1,C   8)     63.34  0.000553   -1.18     62.16   
    61. D(H  14,C   2,C   1,C   8)   -174.70  0.000176   -1.32   -176.02   
    62. D(H  14,C   2,C   1,N   0)     56.44  0.000833   -1.53     54.91   
    63. D(H  14,C   2,C   1,H  13)    -62.61 -0.000525   -1.22    -63.84   
    64. D(C   3,C   2,C   1,H  13)    175.43 -0.000148   -1.09    174.34   
    65. D(C   4,C   3,C   2,H  15)    123.47  0.000517   -0.37    123.10   
    66. D(C   4,C   3,C   2,H  14)   -118.29 -0.000139   -0.58   -118.87   
    67. D(C   4,C   3,C   2,C   1)      3.11  0.000265   -0.63      2.48   
    68. D(N   7,C   3,C   2,C   1)   -175.75  0.000434   -0.22   -175.96   
    69. D(N   7,C   3,C   2,H  14)     62.86  0.000031   -0.17     62.69   
    70. D(H  16,C   4,C   3,N   7)   -179.30  0.000255    0.01   -179.30   
    71. D(H  16,C   4,C   3,C   2)      1.72  0.000419    0.38      2.10   
    72. D(N   5,C   4,C   3,N   7)     -0.20 -0.000179   -0.19     -0.40   
    73. D(N   5,C   4,C   3,C   2)   -179.18 -0.000015    0.18   -179.00   
    74. D(C   6,N   5,C   4,H  16)    179.44 -0.000230    0.01    179.45   
    75. D(C   6,N   5,C   4,C   3)      0.22  0.000127    0.16      0.38   
    76. D(H  17,C   6,N   5,C   4)   -179.78  0.000039    0.04   -179.74   
    77. D(N   7,C   6,N   5,C   4)     -0.15 -0.000018   -0.07     -0.22   
    78. D(C   3,N   7,C   6,H  17)    179.66 -0.000150   -0.16    179.51   
    79. D(C   3,N   7,C   6,N   5)      0.03 -0.000094   -0.05     -0.03   
    80. D(H  18,N   7,C   3,C   4)   -178.90  0.000107    0.30   -178.60   
    81. D(H  18,N   7,C   3,C   2)      0.26  0.000012    0.00      0.26   
    82. D(C   6,N   7,C   3,C   4)      0.11  0.000163    0.15      0.25   
    83. D(H  18,N   7,C   6,N   5)    179.01 -0.000042   -0.21    178.80   
    84. D(C   6,N   7,C   3,C   2)    179.26  0.000068   -0.15    179.12   
    85. D(H  18,N   7,C   6,H  17)     -1.35 -0.000098   -0.31     -1.67   
    86. D(O  10,C   8,C   1,C   2)   -127.63  0.000559   -0.13   -127.75   
    87. D(O  10,C   8,C   1,N   0)      0.75  0.001141   -0.34      0.42   
    88. D(O   9,C   8,C   1,H  13)    -60.93 -0.000182   -0.53    -61.46   
    89. D(O   9,C   8,C   1,C   2)     53.39 -0.000430   -0.07     53.32   
    90. D(O   9,C   8,C   1,N   0)   -178.23  0.000152   -0.27   -178.51   
    91. D(H  19,O  10,C   8,O   9)     -1.93 -0.000692   -1.11     -3.04   
    92. D(H  19,O  10,C   8,C   1)    179.08 -0.001686   -1.09    177.99   
    ----------------------------------------------------------------------------

Geometry step timings:
Preparation and reading OPT file:      0.000 s ( 0.614 %)
Internal coordinates            :      0.000 s ( 0.614 %)
B/P matrices and projection     :      0.000 s (29.673 %)
Hessian update/contruction      :      0.000 s ( 7.776 %)
Making the step                 :      0.001 s (46.453 %)
Converting the step to Cartesian:      0.000 s ( 3.001 %)
Storing new data                :      0.000 s ( 0.750 %)
Checking convergence            :      0.000 s ( 0.955 %)
Final printing                  :      0.000 s (10.164 %)
Total time                      :      0.001 s

Time for energy+gradient        :      0.018 s
Time for complete geometry iter :      0.020 s

         *************************************************************
         *                GEOMETRY OPTIMIZATION CYCLE   9            *
         *************************************************************
---------------------------------
CARTESIAN COORDINATES (ANGSTROEM)
---------------------------------
  N    -1.489757   -1.570457    0.709372
  C    -1.394896   -0.744395   -0.478246
  C     0.009153   -0.716858   -1.078526
  C     1.014566   -0.041471   -0.204497
  C     0.992594    0.530321    1.037796
  N     2.221880    1.031349    1.353645
  C     2.978105    0.779714    0.324212
  N     2.298066    0.132419   -0.647601
  C    -1.903348    0.672324   -0.286966
  O    -1.930310    1.501391   -1.170364
  O    -2.341153    0.921942    0.933120
  H    -0.643192   -1.500519    1.262455
  H    -2.249512   -1.235572    1.291328
  H    -2.073343   -1.166863   -1.236609
  H     0.325938   -1.743927   -1.269260
  H    -0.042871   -0.195477   -2.039487
  H     0.203208    0.619840    1.756615
  H     4.011297    1.041318    0.250818
  H     2.646402   -0.159707   -1.546001
  H    -2.632827    1.844630    1.038198

----------------------------
CARTESIAN COORDINATES (A.U.)
----------------------------
  NO LB    ZA    FRAG    MASS        X           Y           Z
   0 N   7.0000    0    14.007   -2.815233   -2.967734    1.340519
   1 C   6.0000    0    12.011   -2.635972   -1.406704   -0.903755
   2 C   6.0000    0    12.011    0.017297   -1.354665   -2.038120
   3 C   6.0000    0    12.011    1.917252   -0.078369   -0.386444
   4 C   6.0000    0    12.011    1.875730    1.002161    1.961150
   5 N   7.0000    0    14.007    4.198745    1.948967    2.558019
   6 C   6.0000    0    12.011    5.627803    1.473446    0.612671
   7 N   7.0000    0    14.007    4.342716    0.250235   -1.223788
   8 C   6.0000    0    12.011   -3.596806    1.270509   -0.542288
   9 O   8.0000    0    15.999   -3.647757    2.837218   -2.211668
  10 O   8.0000    0    15.999   -4.424138    1.742218    1.763341
  11 H   1.0000    0     1.008   -1.215456   -2.835570    2.385694
  12 H   1.0000    0     1.008   -4.250962   -2.334892    2.440257
  13 H   1.0000    0     1.008   -3.918050   -2.205052   -2.336852
  14 H   1.0000    0     1.008    0.615934   -3.295544   -2.398554
  15 H   1.0000    0     1.008   -0.081015   -0.369399   -3.854072
  16 H   1.0000    0     1.008    0.384007    1.171328    3.319522
  17 H   1.0000    0     1.008    7.580254    1.967806    0.473976
  18 H   1.0000    0     1.008    5.000974   -0.301803   -2.921519
  19 H   1.0000    0     1.008   -4.975321    3.485845    1.961909

      -----------------------------------------------------------      
     |                   =====================                   |     
     |                           x T B                           |     
     |                   =====================                   |     
     |                         S. Grimme                         |     
     |          Mulliken Center for Theoretical Chemistry        |     
     |                    University of Bonn                     |     
      -----------------------------------------------------------      

   * xtb version 6.7.1 (edcfbbe) compiled by 'albert@albert-system' on 2024-07-22

   xtb is free software: you can redistribute it and/or modify it under
   the terms of the GNU Lesser General Public License as published by
   the Free Software Foundation, either version 3 of the License, or
   (at your option) any later version.
   
   xtb is distributed in the hope that it will be useful,
   but WITHOUT ANY WARRANTY; without even the implied warranty of
   MERCHANTABILITY or FITNESS FOR A PARTICULAR PURPOSE.  See the
   GNU Lesser General Public License for more details.
   
   Cite this work as:
   * C. Bannwarth, E. Caldeweyher, S. Ehlert, A. Hansen, P. Pracht,
     J. Seibert, S. Spicher, S. Grimme, WIREs Comput. Mol. Sci., 2020, 11,
     e01493. DOI: 10.1002/wcms.1493
   
   for GFN2-xTB:
   * C. Bannwarth, S. Ehlert and S. Grimme., J. Chem. Theory Comput., 2019,
     15, 1652-1671. DOI: 10.1021/acs.jctc.8b01176
   for GFN1-xTB:
   * S. Grimme, C. Bannwarth, P. Shushkov, J. Chem. Theory Comput., 2017,
     13, 1989-2009. DOI: 10.1021/acs.jctc.7b00118
   for GFN0-xTB:
   * P. Pracht, E. Caldeweyher, S. Ehlert, S. Grimme, ChemRxiv, 2019, preprint.
     DOI: 10.26434/chemrxiv.8326202.v1
   for GFN-FF:
   * S. Spicher and S. Grimme, Angew. Chem. Int. Ed., 2020, 59, 15665-15673.
     DOI: 10.1002/anie.202004239
   
   for ALPB and GBSA implicit solvation:
   * S. Ehlert, M. Stahn, S. Spicher, S. Grimme, J. Chem. Theory Comput.,
     2021, 17, 4250-4261. DOI: 10.1021/acs.jctc.1c00471
   
   for ddCOSMO and CPCM-X implicit solvation:
   * M. Stahn, S. Ehlert, S. Grimme, J. Phys. Chem. A,
     2023, XX, XXXX-XXXX. DOI: 10.1021/acs.jpca.3c04382
   
   for DFT-D4:
   * E. Caldeweyher, C. Bannwarth and S. Grimme, J. Chem. Phys., 2017,
     147, 034112. DOI: 10.1063/1.4993215
   * E. Caldeweyher, S. Ehlert, A. Hansen, H. Neugebauer, S. Spicher,
     C. Bannwarth and S. Grimme, J. Chem. Phys., 2019, 150, 154122.
     DOI: 10.1063/1.5090222
   * E. Caldeweyher, J.-M. Mewes, S. Ehlert and S. Grimme, Phys. Chem. Chem. Phys.
     2020, 22, 8499-8512. DOI: 10.1039/D0CP00502A
   
   for sTDA-xTB:
   * S. Grimme and C. Bannwarth, J. Chem. Phys., 2016, 145, 054103.
     DOI: 10.1063/1.4959605
   
   in the mass-spec context:
   * V. Asgeirsson, C. Bauer and S. Grimme, Chem. Sci., 2017, 8, 4879.
     DOI: 10.1039/c7sc00601b
   * J. Koopman and S. Grimme, ACS Omega 2019, 4, 12, 15120-15133.
     DOI: 10.1021/acsomega.9b02011
   
   for metadynamics refer to:
   * S. Grimme, J. Chem. Theory Comput., 2019, 155, 2847-2862
     DOI: 10.1021/acs.jctc.9b00143
   
   for SPH calculations refer to:
   * S. Spicher and S. Grimme, J. Chem. Theory Comput., 2021, 17, 1701-1714
     DOI: 10.1021/acs.jctc.0c01306
   
   for ONIOM refer to:
   * C. Plett, A. Katbashev, S. Ehlert, S. Grimme, M. Bursch,
     Phys. Chem. Chem. Phys., 2023, 25, 17860-17868. DOI: 10.1039/D3CP02178E
   
   for DIPRO refer to:
   * J. Kohn, N. Gildemeister, S. Grimme, D. Fazzi, A. Hansen,
     J. Chem. Phys., 2023, just accepted.
   
   for PTB refer to:
   * S. Grimme, M. Mueller, A. Hansen, J. Chem. Phys., 2023, 158, 124111.
     DOI: 10.1063/5.0137838
   
   with help from (in alphabetical order)
   P. Atkinson, C. Bannwarth, F. Bohle, G. Brandenburg, E. Caldeweyher
   M. Checinski, S. Dohm, S. Ehlert, S. Ehrlich, I. Gerasimov, C. Hölzer
   A. Katbashev, J. Kohn, J. Koopman, C. Lavigne, S. Lehtola, F. März, M. Müller,
   F. Musil, H. Neugebauer, J. Pisarek, C. Plett, P. Pracht, F. Pultar,
   J. Seibert, P. Shushkov, S. Spicher, M. Stahn, M. Steiner, T. Strunk,
   J. Stückrath, T. Rose, and J. Unsleber
   
 * started run on 2026/04/09 at 16:06:43.586     
   ID    Z sym.   atoms
    1    7 N      1, 6, 8
    2    6 C      2-5, 7, 9
    3    8 O      10, 11
    4    1 H      12-20

           -------------------------------------------------
          |                Calculation Setup                |
           -------------------------------------------------

          program call               : /home/analima/Programs/orca-6.1.0-f.0_linux_x86-64/bin/otool_xtb geo_opt_XTB.xyz --grad -c 0 -u 0 -P 1 --namespace geo_opt --input geo_opt_XTB.input.tmp --alpb WATER --acc 0.200000
          calculation namespace      : geo_opt
          coordinate file            : geo_opt_XTB.xyz
          omp threads                :                     1


           -------------------------------------------------
          |                 G F N 2 - x T B                 |
           -------------------------------------------------

        Reference                      10.1021/acs.jctc.8b01176
      * Hamiltonian:
        H0-scaling (s, p, d)           1.850000    2.230000    2.230000
        zeta-weighting                 0.500000
      * Dispersion:
        s8                             2.700000
        a1                             0.520000
        a2                             5.000000
        s9                             5.000000
      * Repulsion:
        kExp                           1.500000    1.000000
        rExp                           1.000000
      * Coulomb:
        alpha                          2.000000
        third order                    shell-resolved
        anisotropic                    true
        a3                             3.000000
        a5                             4.000000
        cn-shift                       1.200000
        cn-exp                         4.000000
        max-rad                        5.000000

      * Solvation model:               ALPB
        Solvent                        WATER
        Parameter file                 internal GFN2-xTB/ALPB
        Dielectric constant                8.0200E+01
        Reference state                gsolv [1 M gas/solution]
        Free energy shift                  1.0808E-03 Eh       6.7819E-01 kcal/mol
        Temperature                        2.9815E+02 K
        Density                            1.0000E+00 kg/L
        Solvent mass                       1.8000E+01 g/mol
        Interaction kernel             P16
        Born radius scaling (c1)           1.4744E+00
        Born radii integrator          GBOBC
        Born offset                        0.0000E+00 a0       0.0000E+00 AA
        H-bond correction              true
        Ion screening                  false
        Surface tension                    1.0000E-05 Eh       1.5569E+01 dyn/cm
        Grid points                               230 per atom
q/qsh data taken from xtbrestart
CAMM data taken from xtbrestart

          ...................................................
          :                      SETUP                      :
          :.................................................:
          :  # basis functions                  53          :
          :  # atomic orbitals                  53          :
          :  # shells                           31          :
          :  # electrons                        60          :
          :  max. iterations                   250          :
          :  Hamiltonian                  GFN2-xTB          :
          :  restarted?                       true          :
          :  GBSA solvation                   true          :
          :  PC potential                    false          :
          :  electronic temp.          300.0000000     K    :
          :  accuracy                    0.2000000          :
          :  -> integral cutoff          0.3198970E+02      :
          :  -> integral neglect         0.2000000E-08      :
          :  -> SCF convergence          0.2000000E-06 Eh   :
          :  -> wf. convergence          0.2000000E-04 e    :
          :  Broyden damping             0.4000000          :
          :  net charge                          0          :
          :  unpaired electrons                  0          :
          ...................................................

 iter      E             dE          RMSdq      gap      omega  full diag
   1    -34.7663784 -0.347664E+02  0.181E-01    3.45       0.0  T
   2    -34.7663857 -0.728540E-05  0.107E-01    3.47       1.0  T
   3    -34.7663870 -0.138905E-05  0.135E-02    3.46       1.7  T
   4    -34.7663885 -0.147250E-05  0.643E-03    3.47       3.5  T
   5    -34.7663886 -0.762944E-07  0.285E-03    3.46       7.9  T
   6    -34.7663886 -0.288737E-07  0.128E-03    3.46      17.4  T
   7    -34.7663886 -0.915239E-08  0.542E-04    3.46      41.2  T
   8    -34.7663886 -0.824407E-09  0.300E-04    3.46      74.5  T
   9    -34.7663886 -0.390592E-09  0.800E-05    3.46     279.6  T
  10    -34.7663886 -0.347171E-10  0.321E-05    3.46     695.8  T

   *** convergence criteria satisfied after 10 iterations ***

         #    Occupation            Energy/Eh            Energy/eV
      -------------------------------------------------------------
         1        2.0000           -0.7548203             -20.5397
       ...           ...                  ...                  ...
        24        2.0000           -0.4659454             -12.6790
        25        2.0000           -0.4593113             -12.4985
        26        2.0000           -0.4391992             -11.9512
        27        2.0000           -0.4290823             -11.6759
        28        2.0000           -0.3835958             -10.4382
        29        2.0000           -0.3816030             -10.3839
        30        2.0000           -0.3720800             -10.1248 (HOMO)
        31                         -0.2447573              -6.6602 (LUMO)
        32                         -0.2004513              -5.4546
        33                         -0.1671131              -4.5474
        34                          0.0214708               0.5842
        35                          0.0312502               0.8504
       ...                                ...                  ...
        53                          0.6343598              17.2618
      -------------------------------------------------------------
                  HL-Gap            0.1273228 Eh            3.4646 eV
             Fermi-level           -0.3084186 Eh           -8.3925 eV

 SCC (total)                   0 d,  0 h,  0 min,  0.010 sec
 SCC setup                      ...        0 min,  0.000 sec (  3.883%)
 Dispersion                     ...        0 min,  0.000 sec (  1.020%)
 classical contributions        ...        0 min,  0.000 sec (  0.208%)
 integral evaluation            ...        0 min,  0.002 sec ( 16.149%)
 iterations                     ...        0 min,  0.005 sec ( 51.946%)
 molecular gradient             ...        0 min,  0.003 sec ( 26.273%)
 printout                       ...        0 min,  0.000 sec (  0.404%)

         :::::::::::::::::::::::::::::::::::::::::::::::::::::
         ::                     SUMMARY                     ::
         :::::::::::::::::::::::::::::::::::::::::::::::::::::
         :: total energy             -34.362462826654 Eh    ::
         :: total w/o Gsasa/hb       -34.348295530685 Eh    ::
         :: gradient norm              0.012711206867 Eh/a0 ::
         :: HOMO-LUMO gap              3.464628381144 eV    ::
         ::.................................................::
         :: SCC energy               -34.766278053740 Eh    ::
         :: -> isotropic ES            0.095545429157 Eh    ::
         :: -> anisotropic ES          0.003132910315 Eh    ::
         :: -> anisotropic XC          0.015584638109 Eh    ::
         :: -> dispersion             -0.016837816310 Eh    ::
         :: -> Gsolv                  -0.029564984837 Eh    ::
         ::    -> Gelec               -0.015397688868 Eh    ::
         ::    -> Gsasa               -0.002568612023 Eh    ::
         ::    -> Ghb                 -0.012679443644 Eh    ::
         ::    -> Gshift               0.001080759698 Eh    ::
         :: repulsion energy           0.403815227087 Eh    ::
         :: add. restraining           0.000000000000 Eh    ::
         :: total charge              -0.000000000000 e     ::
         :::::::::::::::::::::::::::::::::::::::::::::::::::::


Property printout bound to 'properties.out'

           -------------------------------------------------
          | TOTAL ENERGY              -34.362462826654 Eh   |
          | GRADIENT NORM               0.012711206867 Eh/α |
          | HOMO-LUMO GAP               3.464628381144 eV   |
           -------------------------------------------------

------------------------------------------------------------------------
 * finished run on 2026/04/09 at 16:06:43.601     
------------------------------------------------------------------------
 total:
 * wall-time:     0 d,  0 h,  0 min,  0.015 sec
 *  cpu-time:     0 d,  0 h,  0 min,  0.014 sec
 * ratio c/w:     0.911 speedup
 SCF:
 * wall-time:     0 d,  0 h,  0 min,  0.010 sec
 *  cpu-time:     0 d,  0 h,  0 min,  0.008 sec
 * ratio c/w:     0.869 speedup


-------------------------   --------------------
FINAL SINGLE POINT ENERGY       -34.362462826650
-------------------------   --------------------


-------------
DIPOLE MOMENT
-------------
                                X             Y             Z
Total Dipole Moment    :      0.13600      -0.64900      -0.66500
                        -----------------------------------------
Magnitude (a.u.)       :      0.93911
Magnitude (Debye)      :      2.38702


------------------
CARTESIAN GRADIENT
------------------

   1   N   :   -0.001308719    0.003297374   -0.000685692
   2   C   :    0.005101668    0.001951103   -0.001298697
   3   C   :   -0.001994779   -0.000198855    0.000432559
   4   C   :    0.001258885   -0.001062583    0.001960464
   5   C   :   -0.000342926   -0.000042976   -0.002754994
   6   N   :    0.001430681   -0.000912671   -0.002403492
   7   C   :    0.000101894    0.001084227    0.001949688
   8   N   :   -0.002173574    0.000357764    0.001691649
   9   C   :   -0.002750532   -0.004212095   -0.000758407
  10   O   :   -0.000472909   -0.002005393    0.002900738
  11   O   :   -0.001367342    0.000455714   -0.001779226
  12   H   :   -0.000654589   -0.000823248    0.000620676
  13   H   :    0.000788879    0.002109934    0.000239692
  14   H   :   -0.000092969    0.001861991    0.000059545
  15   H   :    0.000454207    0.001068800   -0.000556437
  16   H   :   -0.000069741   -0.000610049   -0.000993220
  17   H   :    0.001372314    0.000325235    0.001329504
  18   H   :   -0.001441141   -0.000577846    0.000208189
  19   H   :   -0.000698889    0.000212396    0.000175376
  20   H   :    0.002859584   -0.002278819   -0.000337917

Difference to translation invariance:
           :   -0.0000000000   -0.0000000000    0.0000000000

Difference to rotation invariance:
           :    0.0004866283   -0.0002411557   -0.0005282382

Norm of the Cartesian gradient     ...    0.0127112069
RMS gradient                       ...    0.0016410098
MAX gradient                       ...    0.0051016678
------------------------------------------------------------------------------
                         ORCA GEOMETRY RELAXATION STEP
------------------------------------------------------------------------------

Reading the OPT-File                    .... done
Getting information on internals        .... done
Copying old internal coords+grads       .... done
Making the new internal coordinates     .... (2022 redundants) done
Validating the new internal coordinates .... (2022 redundants) done
Calculating the B-matrix                .... done
Calculating the G,G- and P matrices     .... done
Transforming gradient to internals      .... done
Projecting the internal gradient        .... done
Number of atoms                         ....  20
Number of internal coordinates          ....  92
Current Energy                          ....   -34.362462827 Eh
Current gradient norm                   ....     0.012711207 Eh/bohr
Maximum allowed component of the step   ....  0.300
Current trust radius                    ....  0.311
Updating the Hessian (BFGS)             .... done
Forming the augmented Hessian           .... done
Diagonalizing the augmented Hessian     .... done
Last element of RFO vector              ....  0.899881354
Lowest eigenvalues of augmented Hessian:
 -0.001271902  0.001777117  0.014264227  0.015409470  0.016819910
Length of the computed step             ....  0.484658095
Warning: the length of the step is outside the trust region - taking restricted step instead
The input lambda is                     ....     0.000242
   iter:   5  x=   -0.002792  g=   58.439328 f(x)=     0.023400
The output lambda is                    ....    -0.002872 (9 iterations)
The final length of the internal step   ....  0.311111111
Converting the step to Cartesian space:
 Initial RMS(Int)=    0.0324355755
Transforming coordinates:
 Iter   0:  RMS(Cart)=    0.0557625217 RMS(Int)=    0.9221338505
 Iter   5:  RMS(Cart)=    0.0000001938 RMS(Int)=    0.0000001379
done
Storing new coordinates                 .... done
The predicted energy change is          ....    -0.000655431
Previously predicted energy change      ....    -0.000446612
Actually observed energy change         ....    -0.000506680
Ratio of predicted to observed change   ....     1.134497824
New trust radius                        ....     0.466666667

                                .--------------------.
          ----------------------|Geometry convergence|-------------------------
          Item                value                   Tolerance       Converged
          ---------------------------------------------------------------------
          Energy change      -0.0005066799            0.0000050000      NO
          RMS gradient        0.0013082116            0.0001000000      NO
          MAX gradient        0.0045229493            0.0003000000      NO
          RMS step            0.0324355755            0.0020000000      NO
          MAX step            0.1395284993            0.0040000000      NO
          -------------------------------------------------------------------------
          ........................................................
          Max(Bonds)      0.0738      Max(Angles)    0.95
          Max(Dihed)        6.59      Max(Improp)    0.00
          ---------------------------------------------------------------------

The optimization has not yet converged - more geometry cycles are needed


    ---------------------------------------------------------------------------
                         Redundant Internal Coordinates
                            (Angstroem and degrees)

        Definition                    Value    dE/dq     Step     New-Value
    ----------------------------------------------------------------------------
     1. B(C   1,N   0)                1.4498 -0.000537 -0.0015    1.4482   
     2. B(C   2,C   1)                1.5272 -0.002344  0.0018    1.5290   
     3. B(C   3,C   2)                1.4936  0.000651  0.0008    1.4945   
     4. B(C   4,C   3)                1.3677 -0.000701  0.0009    1.3686   
     5. B(N   5,C   4)                1.3645 -0.000162  0.0004    1.3650   
     6. B(C   6,N   5)                1.3019 -0.003518  0.0004    1.3023   
     7. B(N   7,C   3)                1.3689 -0.002634  0.0020    1.3710   
     8. B(N   7,C   6)                1.3512 -0.000554  0.0006    1.3518   
     9. B(C   8,C   1)                1.5173 -0.004523  0.0033    1.5206   
    10. B(O   9,C   8)                1.2118 -0.003480  0.0002    1.2120   
    11. B(O  10,C   8)                1.3201 -0.002675  0.0013    1.3214   
    12. B(H  11,N   0)                1.0136 -0.000255  0.0001    1.0138   
    13. B(H  12,N   0)                1.0139 -0.000452  0.0001    1.0140   
    14. B(H  12,O  10)                2.1890 -0.002650  0.0738    2.2628   
    15. B(H  13,C   1)                1.1018 -0.000700 -0.0001    1.1016   
    16. B(H  14,C   2)                1.0916 -0.000771  0.0001    1.0917   
    17. B(H  15,C   2)                1.0945  0.000578 -0.0007    1.0938   
    18. B(H  16,C   4)                1.0714 -0.000093  0.0004    1.0718   
    19. B(H  17,C   6)                1.0683 -0.001548  0.0011    1.0694   
    20. B(H  18,N   7)                1.0069 -0.000459 -0.0002    1.0066   
    21. B(H  19,O  10)                0.9734 -0.003055  0.0017    0.9751   
    22. A(C   1,N   0,H  12)          109.33  0.001397   -0.85    108.49   
    23. A(H  11,N   0,H  12)          106.85 -0.001010    0.19    107.04   
    24. A(C   1,N   0,H  11)          110.67  0.001793   -0.15    110.53   
    25. A(N   0,C   1,C   8)          114.01 -0.001631    0.08    114.08   
    26. A(C   8,C   1,H  13)          103.80 -0.001350    0.35    104.14   
    27. A(N   0,C   1,H  13)          107.76  0.000988   -0.34    107.42   
    28. A(C   2,C   1,H  13)          107.61 -0.000167   -0.08    107.53   
    29. A(C   2,C   1,C   8)          109.92  0.001155    0.40    110.32   
    30. A(N   0,C   1,C   2)          113.10  0.000874   -0.38    112.73   
    31. A(C   3,C   2,H  15)          109.29  0.000973   -0.19    109.10   
    32. A(C   3,C   2,H  14)          109.41 -0.000880    0.13    109.54   
    33. A(C   1,C   2,H  14)          108.57  0.000831   -0.25    108.33   
    34. A(H  14,C   2,H  15)          107.97 -0.000929    0.16    108.13   
    35. A(C   1,C   2,C   3)          113.39  0.000222    0.11    113.50   
    36. A(C   1,C   2,H  15)          108.06 -0.000274    0.05    108.10   
    37. A(C   4,C   3,N   7)          104.83 -0.000975   -0.03    104.80   
    38. A(C   2,C   3,N   7)          119.94 -0.002179    0.02    119.97   
    39. A(C   2,C   3,C   4)          135.21  0.003149   -0.00    135.21   
    40. A(N   5,C   4,H  16)          118.54 -0.001840   -0.10    118.45   
    41. A(C   3,C   4,H  16)          131.01  0.001877    0.04    131.05   
    42. A(C   3,C   4,N   5)          110.44 -0.000045    0.06    110.50   
    43. A(C   4,N   5,C   6)          105.62  0.000286   -0.05    105.57   
    44. A(N   5,C   6,H  17)          124.66  0.000230   -0.08    124.59   
    45. A(N   5,C   6,N   7)          111.65 -0.000471    0.11    111.76   
    46. A(N   7,C   6,H  17)          123.68  0.000241   -0.03    123.65   
    47. A(C   3,N   7,H  18)          125.19 -0.001088   -0.00    125.19   
    48. A(C   6,N   7,H  18)          127.34 -0.000114    0.09    127.43   
    49. A(C   3,N   7,C   6)          107.45  0.001203   -0.08    107.37   
    50. A(O   9,C   8,O  10)          122.48 -0.001806    0.40    122.88   
    51. A(C   1,C   8,O  10)          113.84  0.002044   -0.95    112.90   
    52. A(C   1,C   8,O   9)          123.67 -0.000212    0.52    124.19   
    53. A(C   8,O  10,H  19)          112.23 -0.001076    0.05    112.29   
    54. D(C   2,C   1,N   0,H  11)     36.35 -0.000313    6.59     42.94   
    55. D(C   8,C   1,N   0,H  11)    -90.20 -0.001277    6.29    -83.91   
    56. D(C   8,C   1,N   0,H  12)     27.23 -0.000603    5.90     33.12   
    57. D(H  13,C   1,N   0,H  11)    155.17  0.000660    6.05    161.21   
    58. D(C   2,C   1,N   0,H  12)    153.78  0.000361    6.20    159.98   
    59. D(C   3,C   2,C   1,N   0)    -66.73  0.001271   -2.32    -69.06   
    60. D(C   3,C   2,C   1,C   8)     61.96  0.000734   -2.21     59.74   
    61. D(H  14,C   2,C   1,C   8)   -176.22  0.000354   -2.14   -178.36   
    62. D(H  14,C   2,C   1,N   0)     55.09  0.000891   -2.25     52.84   
    63. D(H  14,C   2,C   1,H  13)    -63.82 -0.000747   -1.56    -65.37   
    64. D(C   3,C   2,C   1,H  13)    174.36 -0.000367   -1.63    172.73   
    65. D(C   4,C   3,C   2,H  15)    123.10  0.000774   -1.18    121.91   
    66. D(C   4,C   3,C   2,H  14)   -118.87 -0.000295   -1.03   -119.90   
    67. D(C   4,C   3,C   2,C   1)      2.48  0.000286   -1.17      1.32   
    68. D(N   7,C   3,C   2,C   1)   -175.96  0.000631   -1.28   -177.24   
    69. D(N   7,C   3,C   2,H  14)     62.69  0.000050   -1.15     61.54   
    70. D(H  16,C   4,C   3,N   7)   -179.30  0.000220   -0.49   -179.79   
    71. D(H  16,C   4,C   3,C   2)      2.10  0.000553   -0.58      1.52   
    72. D(N   5,C   4,C   3,N   7)     -0.40 -0.000303    0.16     -0.24   
    73. D(N   5,C   4,C   3,C   2)   -179.00  0.000031    0.07   -178.93   
    74. D(C   6,N   5,C   4,H  16)    179.44 -0.000166    0.48    179.92   
    75. D(C   6,N   5,C   4,C   3)      0.39  0.000239   -0.12      0.26   
    76. D(H  17,C   6,N   5,C   4)   -179.74  0.000007   -0.04   -179.78   
    77. D(N   7,C   6,N   5,C   4)     -0.22 -0.000069    0.04     -0.18   
    78. D(C   3,N   7,C   6,H  17)    179.51 -0.000197    0.14    179.64   
    79. D(C   3,N   7,C   6,N   5)     -0.02 -0.000122    0.06      0.04   
    80. D(H  18,N   7,C   3,C   4)   -178.60  0.000201   -0.10   -178.70   
    81. D(H  18,N   7,C   3,C   2)      0.26  0.000018    0.02      0.28   
    82. D(C   6,N   7,C   3,C   4)      0.25  0.000255   -0.13      0.12   
    83. D(H  18,N   7,C   6,N   5)    178.80 -0.000080    0.02    178.82   
    84. D(C   6,N   7,C   3,C   2)    179.12  0.000072   -0.01    179.10   
    85. D(H  18,N   7,C   6,H  17)     -1.67 -0.000156    0.10     -1.57   
    86. D(O  10,C   8,C   1,C   2)   -127.80  0.000930   -2.34   -130.13   
    87. D(O  10,C   8,C   1,N   0)      0.40  0.001781   -2.45     -2.05   
    88. D(O   9,C   8,C   1,H  13)    -61.53 -0.000148   -1.67    -63.19   
    89. D(O   9,C   8,C   1,C   2)     53.33 -0.000526   -1.40     51.92   
    90. D(O   9,C   8,C   1,N   0)   -178.48  0.000324   -1.52   -179.99   
    91. D(H  19,O  10,C   8,O   9)     -3.08 -0.000931    1.31     -1.77   
    92. D(H  19,O  10,C   8,C   1)    178.03 -0.002387    2.24    180.27   
    ----------------------------------------------------------------------------

Geometry step timings:
Preparation and reading OPT file:      0.000 s ( 0.615 %)
Internal coordinates            :      0.000 s ( 0.683 %)
B/P matrices and projection     :      0.000 s (29.440 %)
Hessian update/contruction      :      0.000 s ( 8.128 %)
Making the step                 :      0.001 s (46.516 %)
Converting the step to Cartesian:      0.000 s ( 2.732 %)
Storing new data                :      0.000 s ( 0.683 %)
Checking convergence            :      0.000 s ( 0.956 %)
Final printing                  :      0.000 s (10.178 %)
Total time                      :      0.001 s

Time for energy+gradient        :      0.018 s
Time for complete geometry iter :      0.020 s

         *************************************************************
         *                GEOMETRY OPTIMIZATION CYCLE  10            *
         *************************************************************
---------------------------------
CARTESIAN COORDINATES (ANGSTROEM)
---------------------------------
  N    -1.486854   -1.600280    0.689041
  C    -1.392945   -0.739299   -0.475116
  C     0.013140   -0.719596   -1.075548
  C     1.020427   -0.031970   -0.211833
  C     0.995646    0.575082    1.014552
  N     2.228152    1.071262    1.327338
  C     2.990153    0.779787    0.312282
  N     2.312178    0.112071   -0.647918
  C    -1.885331    0.686840   -0.258251
  O    -1.880086    1.540739   -1.118337
  O    -2.362611    0.903022    0.954996
  H    -0.680207   -1.473333    1.289811
  H    -2.301901   -1.338121    1.230469
  H    -2.076150   -1.144678   -1.238314
  H     0.325891   -1.750655   -1.251312
  H    -0.037137   -0.209717   -2.041923
  H     0.199770    0.702233    1.721002
  H     4.027926    1.028148    0.241120
  H     2.664850   -0.210843   -1.533728
  H    -2.674911    1.819309    1.071666

----------------------------
CARTESIAN COORDINATES (A.U.)
----------------------------
  NO LB    ZA    FRAG    MASS        X           Y           Z
   0 N   7.0000    0    14.007   -2.809748   -3.024091    1.302099
   1 C   6.0000    0    12.011   -2.632285   -1.397073   -0.897838
   2 C   6.0000    0    12.011    0.024831   -1.359840   -2.032492
   3 C   6.0000    0    12.011    1.928327   -0.060414   -0.400306
   4 C   6.0000    0    12.011    1.881499    1.086747    1.917226
   5 N   7.0000    0    14.007    4.210598    2.024393    2.508306
   6 C   6.0000    0    12.011    5.650570    1.473584    0.590127
   7 N   7.0000    0    14.007    4.369383    0.211783   -1.224388
   8 C   6.0000    0    12.011   -3.562759    1.297940   -0.488024
   9 O   8.0000    0    15.999   -3.552848    2.911574   -2.113351
  10 O   8.0000    0    15.999   -4.464688    1.706464    1.804681
  11 H   1.0000    0     1.008   -1.285405   -2.784196    2.437390
  12 H   1.0000    0     1.008   -4.349962   -2.528682    2.325250
  13 H   1.0000    0     1.008   -3.923356   -2.163129   -2.340074
  14 H   1.0000    0     1.008    0.615846   -3.308258   -2.364637
  15 H   1.0000    0     1.008   -0.070178   -0.396308   -3.858675
  16 H   1.0000    0     1.008    0.377511    1.327028    3.252223
  17 H   1.0000    0     1.008    7.611677    1.942918    0.455651
  18 H   1.0000    0     1.008    5.035837   -0.398436   -2.898325
  19 H   1.0000    0     1.008   -5.054849    3.437996    2.025155

      -----------------------------------------------------------      
     |                   =====================                   |     
     |                           x T B                           |     
     |                   =====================                   |     
     |                         S. Grimme                         |     
     |          Mulliken Center for Theoretical Chemistry        |     
     |                    University of Bonn                     |     
      -----------------------------------------------------------      

   * xtb version 6.7.1 (edcfbbe) compiled by 'albert@albert-system' on 2024-07-22

   xtb is free software: you can redistribute it and/or modify it under
   the terms of the GNU Lesser General Public License as published by
   the Free Software Foundation, either version 3 of the License, or
   (at your option) any later version.
   
   xtb is distributed in the hope that it will be useful,
   but WITHOUT ANY WARRANTY; without even the implied warranty of
   MERCHANTABILITY or FITNESS FOR A PARTICULAR PURPOSE.  See the
   GNU Lesser General Public License for more details.
   
   Cite this work as:
   * C. Bannwarth, E. Caldeweyher, S. Ehlert, A. Hansen, P. Pracht,
     J. Seibert, S. Spicher, S. Grimme, WIREs Comput. Mol. Sci., 2020, 11,
     e01493. DOI: 10.1002/wcms.1493
   
   for GFN2-xTB:
   * C. Bannwarth, S. Ehlert and S. Grimme., J. Chem. Theory Comput., 2019,
     15, 1652-1671. DOI: 10.1021/acs.jctc.8b01176
   for GFN1-xTB:
   * S. Grimme, C. Bannwarth, P. Shushkov, J. Chem. Theory Comput., 2017,
     13, 1989-2009. DOI: 10.1021/acs.jctc.7b00118
   for GFN0-xTB:
   * P. Pracht, E. Caldeweyher, S. Ehlert, S. Grimme, ChemRxiv, 2019, preprint.
     DOI: 10.26434/chemrxiv.8326202.v1
   for GFN-FF:
   * S. Spicher and S. Grimme, Angew. Chem. Int. Ed., 2020, 59, 15665-15673.
     DOI: 10.1002/anie.202004239
   
   for ALPB and GBSA implicit solvation:
   * S. Ehlert, M. Stahn, S. Spicher, S. Grimme, J. Chem. Theory Comput.,
     2021, 17, 4250-4261. DOI: 10.1021/acs.jctc.1c00471
   
   for ddCOSMO and CPCM-X implicit solvation:
   * M. Stahn, S. Ehlert, S. Grimme, J. Phys. Chem. A,
     2023, XX, XXXX-XXXX. DOI: 10.1021/acs.jpca.3c04382
   
   for DFT-D4:
   * E. Caldeweyher, C. Bannwarth and S. Grimme, J. Chem. Phys., 2017,
     147, 034112. DOI: 10.1063/1.4993215
   * E. Caldeweyher, S. Ehlert, A. Hansen, H. Neugebauer, S. Spicher,
     C. Bannwarth and S. Grimme, J. Chem. Phys., 2019, 150, 154122.
     DOI: 10.1063/1.5090222
   * E. Caldeweyher, J.-M. Mewes, S. Ehlert and S. Grimme, Phys. Chem. Chem. Phys.
     2020, 22, 8499-8512. DOI: 10.1039/D0CP00502A
   
   for sTDA-xTB:
   * S. Grimme and C. Bannwarth, J. Chem. Phys., 2016, 145, 054103.
     DOI: 10.1063/1.4959605
   
   in the mass-spec context:
   * V. Asgeirsson, C. Bauer and S. Grimme, Chem. Sci., 2017, 8, 4879.
     DOI: 10.1039/c7sc00601b
   * J. Koopman and S. Grimme, ACS Omega 2019, 4, 12, 15120-15133.
     DOI: 10.1021/acsomega.9b02011
   
   for metadynamics refer to:
   * S. Grimme, J. Chem. Theory Comput., 2019, 155, 2847-2862
     DOI: 10.1021/acs.jctc.9b00143
   
   for SPH calculations refer to:
   * S. Spicher and S. Grimme, J. Chem. Theory Comput., 2021, 17, 1701-1714
     DOI: 10.1021/acs.jctc.0c01306
   
   for ONIOM refer to:
   * C. Plett, A. Katbashev, S. Ehlert, S. Grimme, M. Bursch,
     Phys. Chem. Chem. Phys., 2023, 25, 17860-17868. DOI: 10.1039/D3CP02178E
   
   for DIPRO refer to:
   * J. Kohn, N. Gildemeister, S. Grimme, D. Fazzi, A. Hansen,
     J. Chem. Phys., 2023, just accepted.
   
   for PTB refer to:
   * S. Grimme, M. Mueller, A. Hansen, J. Chem. Phys., 2023, 158, 124111.
     DOI: 10.1063/5.0137838
   
   with help from (in alphabetical order)
   P. Atkinson, C. Bannwarth, F. Bohle, G. Brandenburg, E. Caldeweyher
   M. Checinski, S. Dohm, S. Ehlert, S. Ehrlich, I. Gerasimov, C. Hölzer
   A. Katbashev, J. Kohn, J. Koopman, C. Lavigne, S. Lehtola, F. März, M. Müller,
   F. Musil, H. Neugebauer, J. Pisarek, C. Plett, P. Pracht, F. Pultar,
   J. Seibert, P. Shushkov, S. Spicher, M. Stahn, M. Steiner, T. Strunk,
   J. Stückrath, T. Rose, and J. Unsleber
   
 * started run on 2026/04/09 at 16:06:43.606     
   ID    Z sym.   atoms
    1    7 N      1, 6, 8
    2    6 C      2-5, 7, 9
    3    8 O      10, 11
    4    1 H      12-20

           -------------------------------------------------
          |                Calculation Setup                |
           -------------------------------------------------

          program call               : /home/analima/Programs/orca-6.1.0-f.0_linux_x86-64/bin/otool_xtb geo_opt_XTB.xyz --grad -c 0 -u 0 -P 1 --namespace geo_opt --input geo_opt_XTB.input.tmp --alpb WATER --acc 0.200000
          calculation namespace      : geo_opt
          coordinate file            : geo_opt_XTB.xyz
          omp threads                :                     1


           -------------------------------------------------
          |                 G F N 2 - x T B                 |
           -------------------------------------------------

        Reference                      10.1021/acs.jctc.8b01176
      * Hamiltonian:
        H0-scaling (s, p, d)           1.850000    2.230000    2.230000
        zeta-weighting                 0.500000
      * Dispersion:
        s8                             2.700000
        a1                             0.520000
        a2                             5.000000
        s9                             5.000000
      * Repulsion:
        kExp                           1.500000    1.000000
        rExp                           1.000000
      * Coulomb:
        alpha                          2.000000
        third order                    shell-resolved
        anisotropic                    true
        a3                             3.000000
        a5                             4.000000
        cn-shift                       1.200000
        cn-exp                         4.000000
        max-rad                        5.000000

      * Solvation model:               ALPB
        Solvent                        WATER
        Parameter file                 internal GFN2-xTB/ALPB
        Dielectric constant                8.0200E+01
        Reference state                gsolv [1 M gas/solution]
        Free energy shift                  1.0808E-03 Eh       6.7819E-01 kcal/mol
        Temperature                        2.9815E+02 K
        Density                            1.0000E+00 kg/L
        Solvent mass                       1.8000E+01 g/mol
        Interaction kernel             P16
        Born radius scaling (c1)           1.4744E+00
        Born radii integrator          GBOBC
        Born offset                        0.0000E+00 a0       0.0000E+00 AA
        H-bond correction              true
        Ion screening                  false
        Surface tension                    1.0000E-05 Eh       1.5569E+01 dyn/cm
        Grid points                               230 per atom
q/qsh data taken from xtbrestart
CAMM data taken from xtbrestart

          ...................................................
          :                      SETUP                      :
          :.................................................:
          :  # basis functions                  53          :
          :  # atomic orbitals                  53          :
          :  # shells                           31          :
          :  # electrons                        60          :
          :  max. iterations                   250          :
          :  Hamiltonian                  GFN2-xTB          :
          :  restarted?                       true          :
          :  GBSA solvation                   true          :
          :  PC potential                    false          :
          :  electronic temp.          300.0000000     K    :
          :  accuracy                    0.2000000          :
          :  -> integral cutoff          0.3198970E+02      :
          :  -> integral neglect         0.2000000E-08      :
          :  -> SCF convergence          0.2000000E-06 Eh   :
          :  -> wf. convergence          0.2000000E-04 e    :
          :  Broyden damping             0.4000000          :
          :  net charge                          0          :
          :  unpaired electrons                  0          :
          ...................................................

 iter      E             dE          RMSdq      gap      omega  full diag
   1    -34.7649510 -0.347650E+02  0.172E-01    3.48       0.0  T
   2    -34.7649590 -0.806436E-05  0.101E-01    3.49       1.0  T
   3    -34.7649592 -0.131695E-06  0.141E-02    3.49       1.6  T
   4    -34.7649613 -0.213906E-05  0.598E-03    3.50       3.7  T
   5    -34.7649614 -0.114226E-06  0.307E-03    3.50       7.3  T
   6    -34.7649615 -0.408257E-07  0.138E-03    3.50      16.2  T
   7    -34.7649615 -0.788115E-08  0.485E-04    3.50      46.1  T
   8    -34.7649615 -0.639865E-09  0.241E-04    3.50      92.9  T
   9    -34.7649615 -0.161656E-09  0.864E-05    3.50     258.8  T
  10    -34.7649615 -0.449205E-10  0.325E-05    3.50     688.5  T

   *** convergence criteria satisfied after 10 iterations ***

         #    Occupation            Energy/Eh            Energy/eV
      -------------------------------------------------------------
         1        2.0000           -0.7543616             -20.5272
       ...           ...                  ...                  ...
        24        2.0000           -0.4657628             -12.6741
        25        2.0000           -0.4570995             -12.4383
        26        2.0000           -0.4411400             -12.0040
        27        2.0000           -0.4287177             -11.6660
        28        2.0000           -0.3832281             -10.4282
        29        2.0000           -0.3815951             -10.3837
        30        2.0000           -0.3734082             -10.1610 (HOMO)
        31                         -0.2449534              -6.6655 (LUMO)
        32                         -0.2004938              -5.4557
        33                         -0.1670789              -4.5464
        34                          0.0204737               0.5571
        35                          0.0316761               0.8619
       ...                                ...                  ...
        53                          0.6319557              17.1964
      -------------------------------------------------------------
                  HL-Gap            0.1284547 Eh            3.4954 eV
             Fermi-level           -0.3091808 Eh           -8.4132 eV

 SCC (total)                   0 d,  0 h,  0 min,  0.010 sec
 SCC setup                      ...        0 min,  0.000 sec (  2.545%)
 Dispersion                     ...        0 min,  0.000 sec (  0.868%)
 classical contributions        ...        0 min,  0.000 sec (  0.124%)
 integral evaluation            ...        0 min,  0.001 sec ( 10.135%)
 iterations                     ...        0 min,  0.006 sec ( 59.523%)
 molecular gradient             ...        0 min,  0.003 sec ( 26.305%)
 printout                       ...        0 min,  0.000 sec (  0.408%)

         :::::::::::::::::::::::::::::::::::::::::::::::::::::
         ::                     SUMMARY                     ::
         :::::::::::::::::::::::::::::::::::::::::::::::::::::
         :: total energy             -34.363284963363 Eh    ::
         :: total w/o Gsasa/hb       -34.349119295385 Eh    ::
         :: gradient norm              0.008422074657 Eh/a0 ::
         :: HOMO-LUMO gap              3.495431642529 eV    ::
         ::.................................................::
         :: SCC energy               -34.764852448160 Eh    ::
         :: -> isotropic ES            0.095477100040 Eh    ::
         :: -> anisotropic ES          0.003141553811 Eh    ::
         :: -> anisotropic XC          0.015620956422 Eh    ::
         :: -> dispersion             -0.016821610422 Eh    ::
         :: -> Gsolv                  -0.029715081145 Eh    ::
         ::    -> Gelec               -0.015549413167 Eh    ::
         ::    -> Gsasa               -0.002529152554 Eh    ::
         ::    -> Ghb                 -0.012717275122 Eh    ::
         ::    -> Gshift               0.001080759698 Eh    ::
         :: repulsion energy           0.401567484797 Eh    ::
         :: add. restraining           0.000000000000 Eh    ::
         :: total charge               0.000000000000 e     ::
         :::::::::::::::::::::::::::::::::::::::::::::::::::::


Property printout bound to 'properties.out'

           -------------------------------------------------
          | TOTAL ENERGY              -34.363284963363 Eh   |
          | GRADIENT NORM               0.008422074657 Eh/α |
          | HOMO-LUMO GAP               3.495431642529 eV   |
           -------------------------------------------------

------------------------------------------------------------------------
 * finished run on 2026/04/09 at 16:06:43.621     
------------------------------------------------------------------------
 total:
 * wall-time:     0 d,  0 h,  0 min,  0.014 sec
 *  cpu-time:     0 d,  0 h,  0 min,  0.013 sec
 * ratio c/w:     0.900 speedup
 SCF:
 * wall-time:     0 d,  0 h,  0 min,  0.010 sec
 *  cpu-time:     0 d,  0 h,  0 min,  0.008 sec
 * ratio c/w:     0.858 speedup


-------------------------   --------------------
FINAL SINGLE POINT ENERGY       -34.363284963360
-------------------------   --------------------


-------------
DIPOLE MOMENT
-------------
                                X             Y             Z
Total Dipole Moment    :      0.02200      -0.74000      -0.66000
                        -----------------------------------------
Magnitude (a.u.)       :      0.99181
Magnitude (Debye)      :      2.52098


------------------
CARTESIAN GRADIENT
------------------

   1   N   :   -0.001296423    0.000411529    0.000692522
   2   C   :    0.003694435    0.000975498   -0.001104882
   3   C   :   -0.001519433   -0.000614181   -0.000171089
   4   C   :    0.000253112   -0.000800942    0.001463943
   5   C   :   -0.000205726   -0.000242811   -0.001833345
   6   N   :    0.001571737   -0.000435828   -0.001428670
   7   C   :   -0.000419715    0.001117966    0.002104472
   8   N   :   -0.000526687    0.000024093    0.000103512
   9   C   :   -0.001682214   -0.001457427   -0.001280074
  10   O   :   -0.000892186   -0.000804058    0.001893361
  11   O   :   -0.000978061    0.000131900   -0.000732364
  12   H   :   -0.000820661   -0.000879841    0.000324174
  13   H   :    0.001313027    0.001806647   -0.000455236
  14   H   :   -0.000137257    0.000958494   -0.000016937
  15   H   :    0.000298713    0.000728818   -0.000546049
  16   H   :   -0.000076106   -0.000675202   -0.000611150
  17   H   :    0.001208399    0.000950879    0.001430753
  18   H   :   -0.000762316   -0.000320384    0.000173148
  19   H   :   -0.000794438    0.000240429    0.000262988
  20   H   :    0.001771801   -0.001115581   -0.000269078

Difference to translation invariance:
           :    0.0000000000   -0.0000000000   -0.0000000000

Difference to rotation invariance:
           :    0.0003376707   -0.0003397095   -0.0003371465

Norm of the Cartesian gradient     ...    0.0084220747
RMS gradient                       ...    0.0010872852
MAX gradient                       ...    0.0036944346
------------------------------------------------------------------------------
                         ORCA GEOMETRY RELAXATION STEP
------------------------------------------------------------------------------

Reading the OPT-File                    .... done
Getting information on internals        .... done
Copying old internal coords+grads       .... done
Making the new internal coordinates     .... (2022 redundants) done
Validating the new internal coordinates .... (2022 redundants) done
Calculating the B-matrix                .... done
Calculating the G,G- and P matrices     .... done
Transforming gradient to internals      .... done
Projecting the internal gradient        .... done
Number of atoms                         ....  20
Number of internal coordinates          ....  92
Current Energy                          ....   -34.363284963 Eh
Current gradient norm                   ....     0.008422075 Eh/bohr
Maximum allowed component of the step   ....  0.300
Current trust radius                    ....  0.467
Updating the Hessian (BFGS)             .... done
Forming the augmented Hessian           .... done
Diagonalizing the augmented Hessian     .... done
Last element of RFO vector              ....  0.905283542
Lowest eigenvalues of augmented Hessian:
 -0.001144564  0.001703690  0.013288291  0.015290085  0.017208059
Length of the computed step             ....  0.469253919
Warning: the length of the step is outside the trust region - taking restricted step instead
The input lambda is                     ....     0.000258
   iter:   5  x=   -0.001159  g=  163.452215 f(x)=     0.002546
The output lambda is                    ....    -0.001160 (8 iterations)
The final length of the internal step   ....  0.466666667
Converting the step to Cartesian space:
 Initial RMS(Int)=    0.0486533633
Transforming coordinates:
 Iter   0:  RMS(Cart)=    0.0658229227 RMS(Int)=    0.6566602541
 Iter   5:  RMS(Cart)=    0.0000022087 RMS(Int)=    0.0000015608
done
Storing new coordinates                 .... done
The predicted energy change is          ....    -0.000696903
Previously predicted energy change      ....    -0.000655431
Actually observed energy change         ....    -0.000822137
Ratio of predicted to observed change   ....     1.254346097
New trust radius                        ....     0.466666667

                                .--------------------.
          ----------------------|Geometry convergence|-------------------------
          Item                value                   Tolerance       Converged
          ---------------------------------------------------------------------
          Energy change      -0.0008221367            0.0000050000      NO
          RMS gradient        0.0009616311            0.0001000000      NO
          MAX gradient        0.0036053106            0.0003000000      NO
          RMS step            0.0486533633            0.0020000000      NO
          MAX step            0.1984181351            0.0040000000      NO
          -------------------------------------------------------------------------
          ........................................................
          Max(Bonds)      0.1050      Max(Angles)    1.19
          Max(Dihed)       10.33      Max(Improp)    0.00
          ---------------------------------------------------------------------

The optimization has not yet converged - more geometry cycles are needed


    ---------------------------------------------------------------------------
                         Redundant Internal Coordinates
                            (Angstroem and degrees)

        Definition                    Value    dE/dq     Step     New-Value
    ----------------------------------------------------------------------------
     1. B(C   1,N   0)                1.4510  0.000798 -0.0003    1.4507   
     2. B(C   2,C   1)                1.5290 -0.001260  0.0029    1.5320   
     3. B(C   3,C   2)                1.4945  0.001772 -0.0016    1.4929   
     4. B(C   4,C   3)                1.3686  0.000785 -0.0004    1.3683   
     5. B(N   5,C   4)                1.3650  0.000268 -0.0001    1.3648   
     6. B(C   6,N   5)                1.3023 -0.002841  0.0023    1.3046   
     7. B(N   7,C   3)                1.3710 -0.000942  0.0018    1.3728   
     8. B(N   7,C   6)                1.3518  0.000267 -0.0000    1.3518   
     9. B(C   8,C   1)                1.5243 -0.001086  0.0071    1.5314   
    10. B(O   9,C   8)                1.2120 -0.001918  0.0002    1.2122   
    11. B(O  10,C   8)                1.3216 -0.001274  0.0021    1.3237   
    12. B(H  11,N   0)                1.0138 -0.000563  0.0010    1.0147   
    13. B(H  12,N   0)                1.0130 -0.001166  0.0005    1.0135   
    14. B(H  12,O  10)                2.2588 -0.001568  0.1050    2.3638   
    15. B(H  13,C   1)                1.1016 -0.000258 -0.0005    1.1011   
    16. B(H  14,C   2)                1.0917 -0.000512  0.0006    1.0923   
    17. B(H  15,C   2)                1.0938  0.000225 -0.0008    1.0930   
    18. B(H  16,C   4)                1.0718  0.000156 -0.0001    1.0716   
    19. B(H  17,C   6)                1.0694 -0.000825  0.0013    1.0707   
    20. B(H  18,N   7)                1.0066 -0.000584  0.0002    1.0068   
    21. B(H  19,O  10)                0.9751 -0.001649  0.0021    0.9772   
    22. A(C   1,N   0,H  12)          109.11 -0.000432    0.30    109.40   
    23. A(H  11,N   0,H  12)          106.92 -0.000629    0.32    107.24   
    24. A(C   1,N   0,H  11)          110.47  0.001815   -0.43    110.04   
    25. A(N   0,C   1,C   8)          114.84 -0.000775    1.19    116.03   
    26. A(C   8,C   1,H  13)          104.04 -0.000786    0.50    104.53   
    27. A(N   0,C   1,H  13)          107.30  0.000206   -0.40    106.90   
    28. A(C   2,C   1,H  13)          107.64 -0.000153    0.18    107.81   
    29. A(C   2,C   1,C   8)          109.93  0.000739   -0.19    109.74   
    30. A(N   0,C   1,C   2)          112.47  0.000657   -1.15    111.32   
    31. A(C   3,C   2,H  15)          109.09  0.000622   -0.23    108.86   
    32. A(C   3,C   2,H  14)          109.54 -0.000703    0.14    109.69   
    33. A(C   1,C   2,H  14)          108.33 -0.000015   -0.35    107.98   
    34. A(H  14,C   2,H  15)          108.13 -0.001006    0.55    108.69   
    35. A(C   1,C   2,C   3)          113.50  0.001528   -0.26    113.25   
    36. A(C   1,C   2,H  15)          108.10 -0.000546    0.21    108.31   
    37. A(C   4,C   3,N   7)          104.80 -0.001248    0.10    104.90   
    38. A(C   2,C   3,N   7)          119.97 -0.002364    0.45    120.42   
    39. A(C   2,C   3,C   4)          135.21  0.003605   -0.55    134.66   
    40. A(N   5,C   4,H  16)          118.45 -0.002193    0.28    118.73   
    41. A(C   3,C   4,H  16)          131.05  0.002048   -0.32    130.73   
    42. A(C   3,C   4,N   5)          110.50  0.000145    0.04    110.54   
    43. A(C   4,N   5,C   6)          105.57  0.000254   -0.10    105.47   
    44. A(N   5,C   6,H  17)          124.59 -0.000032   -0.08    124.51   
    45. A(N   5,C   6,N   7)          111.76 -0.000022    0.11    111.87   
    46. A(N   7,C   6,H  17)          123.65  0.000054   -0.03    123.62   
    47. A(C   3,N   7,H  18)          125.19 -0.000979    0.11    125.30   
    48. A(C   6,N   7,H  18)          127.43  0.000109    0.05    127.47   
    49. A(C   3,N   7,C   6)          107.37  0.000870   -0.16    107.21   
    50. A(O   9,C   8,O  10)          122.53 -0.001675    0.14    122.67   
    51. A(C   1,C   8,O  10)          113.60  0.000951   -0.19    113.41   
    52. A(C   1,C   8,O   9)          123.84  0.000746    0.02    123.85   
    53. A(C   8,O  10,H  19)          112.29 -0.000888    0.30    112.58   
    54. D(C   2,C   1,N   0,H  11)     42.89 -0.000009    9.53     52.42   
    55. D(C   8,C   1,N   0,H  11)    -83.83 -0.000957    9.80    -74.03   
    56. D(C   8,C   1,N   0,H  12)     33.43 -0.000924   10.33     43.76   
    57. D(H  13,C   1,N   0,H  11)    161.07  0.000313    8.81    169.89   
    58. D(C   2,C   1,N   0,H  12)    160.16  0.000024   10.05    170.20   
    59. D(C   3,C   2,C   1,N   0)    -69.30  0.000081   -1.71    -71.01   
    60. D(C   3,C   2,C   1,C   8)     60.01  0.000180   -1.25     58.76   
    61. D(H  14,C   2,C   1,C   8)   -178.10  0.000282   -1.43   -179.53   
    62. D(H  14,C   2,C   1,N   0)     52.59  0.000183   -1.89     50.70   
    63. D(H  14,C   2,C   1,H  13)    -65.39 -0.000354   -0.83    -66.23   
    64. D(C   3,C   2,C   1,H  13)    172.71 -0.000456   -0.66    172.06   
    65. D(C   4,C   3,C   2,H  15)    121.91  0.000714   -1.15    120.76   
    66. D(C   4,C   3,C   2,H  14)   -119.90 -0.000548   -0.53   -120.43   
    67. D(C   4,C   3,C   2,C   1)      1.31 -0.000039   -0.98      0.33   
    68. D(N   7,C   3,C   2,C   1)   -177.24  0.000379   -1.76   -179.01   
    69. D(N   7,C   3,C   2,H  14)     61.54 -0.000129   -1.31     60.23   
    70. D(H  16,C   4,C   3,N   7)   -179.80 -0.000105   -0.06   -179.85   
    71. D(H  16,C   4,C   3,C   2)      1.49  0.000294   -0.74      0.75   
    72. D(N   5,C   4,C   3,N   7)     -0.24 -0.000261    0.48      0.24   
    73. D(N   5,C   4,C   3,C   2)   -178.95  0.000138   -0.20   -179.15   
    74. D(C   6,N   5,C   4,H  16)    179.89  0.000079    0.10    179.98   
    75. D(C   6,N   5,C   4,C   3)      0.26  0.000193   -0.32     -0.06   
    76. D(H  17,C   6,N   5,C   4)   -179.78 -0.000018   -0.01   -179.79   
    77. D(N   7,C   6,N   5,C   4)     -0.18 -0.000039    0.04     -0.15   
    78. D(C   3,N   7,C   6,H  17)    179.64 -0.000146    0.31    179.95   
    79. D(C   3,N   7,C   6,N   5)      0.04 -0.000125    0.27      0.30   
    80. D(H  18,N   7,C   3,C   4)   -178.69  0.000210   -0.49   -179.18   
    81. D(H  18,N   7,C   3,C   2)      0.26 -0.000022    0.13      0.39   
    82. D(C   6,N   7,C   3,C   4)      0.12  0.000230   -0.45     -0.33   
    83. D(H  18,N   7,C   6,N   5)    178.82 -0.000121    0.30    179.12   
    84. D(C   6,N   7,C   3,C   2)    179.07 -0.000002    0.17    179.24   
    85. D(H  18,N   7,C   6,H  17)     -1.58 -0.000141    0.34     -1.23   
    86. D(O  10,C   8,C   1,C   2)   -130.02  0.000406   -3.85   -133.87   
    87. D(O  10,C   8,C   1,N   0)     -2.01  0.001316   -4.65     -6.66   
    88. D(O   9,C   8,C   1,H  13)    -63.09 -0.000042   -3.24    -66.32   
    89. D(O   9,C   8,C   1,C   2)     51.93 -0.000295   -2.85     49.08   
    90. D(O   9,C   8,C   1,N   0)    179.94  0.000615   -3.65    176.29   
    91. D(H  19,O  10,C   8,O   9)     -1.71 -0.000673    2.52      0.81   
    92. D(H  19,O  10,C   8,C   1)   -179.79 -0.001417    3.52   -176.27   
    ----------------------------------------------------------------------------

Geometry step timings:
Preparation and reading OPT file:      0.000 s ( 0.605 %)
Internal coordinates            :      0.000 s ( 0.672 %)
B/P matrices and projection     :      0.000 s (29.119 %)
Hessian update/contruction      :      0.000 s ( 8.810 %)
Making the step                 :      0.001 s (45.864 %)
Converting the step to Cartesian:      0.000 s ( 2.959 %)
Storing new data                :      0.000 s ( 0.740 %)
Checking convergence            :      0.000 s ( 0.874 %)
Final printing                  :      0.000 s (10.356 %)
Total time                      :      0.001 s

Time for energy+gradient        :      0.018 s
Time for complete geometry iter :      0.020 s

         *************************************************************
         *                GEOMETRY OPTIMIZATION CYCLE  11            *
         *************************************************************
---------------------------------
CARTESIAN COORDINATES (ANGSTROEM)
---------------------------------
  N    -1.454537   -1.611762    0.682943
  C    -1.387204   -0.728053   -0.464272
  C     0.015256   -0.717944   -1.080720
  C     1.027351   -0.023581   -0.230886
  C     0.994405    0.606539    0.983212
  N     2.227570    1.096984    1.301857
  C     3.000453    0.771740    0.302379
  N     2.329081    0.089178   -0.651987
  C    -1.861393    0.706881   -0.225795
  O    -1.809811    1.584986   -1.059910
  O    -2.396941    0.885553    0.971348
  H    -0.715391   -1.386226    1.340559
  H    -2.337628   -1.471463    1.160675
  H    -2.082759   -1.128057   -1.218392
  H     0.319732   -1.754143   -1.243876
  H    -0.039336   -0.212709   -2.048354
  H     0.186442    0.757987    1.670720
  H     4.042984    1.007606    0.239980
  H     2.691290   -0.262155   -1.523199
  H    -2.749563    1.788636    1.093718

----------------------------
CARTESIAN COORDINATES (A.U.)
----------------------------
  NO LB    ZA    FRAG    MASS        X           Y           Z
   0 N   7.0000    0    14.007   -2.748676   -3.045789    1.290575
   1 C   6.0000    0    12.011   -2.621435   -1.375820   -0.877346
   2 C   6.0000    0    12.011    0.028830   -1.356718   -2.042264
   3 C   6.0000    0    12.011    1.941412   -0.044561   -0.436312
   4 C   6.0000    0    12.011    1.879152    1.146193    1.858002
   5 N   7.0000    0    14.007    4.209498    2.073000    2.460152
   6 C   6.0000    0    12.011    5.670034    1.458378    0.571413
   7 N   7.0000    0    14.007    4.401325    0.168521   -1.232077
   8 C   6.0000    0    12.011   -3.517522    1.335812   -0.426691
   9 O   8.0000    0    15.999   -3.420048    2.995190   -2.002939
  10 O   8.0000    0    15.999   -4.529561    1.673453    1.835583
  11 H   1.0000    0     1.008   -1.351893   -2.619587    2.533289
  12 H   1.0000    0     1.008   -4.417477   -2.780661    2.193358
  13 H   1.0000    0     1.008   -3.935845   -2.131719   -2.302428
  14 H   1.0000    0     1.008    0.604206   -3.314850   -2.350586
  15 H   1.0000    0     1.008   -0.074335   -0.401961   -3.870827
  16 H   1.0000    0     1.008    0.352323    1.432389    3.157203
  17 H   1.0000    0     1.008    7.640132    1.904099    0.453497
  18 H   1.0000    0     1.008    5.085800   -0.495400   -2.878429
  19 H   1.0000    0     1.008   -5.195921    3.380032    2.066827

      -----------------------------------------------------------      
     |                   =====================                   |     
     |                           x T B                           |     
     |                   =====================                   |     
     |                         S. Grimme                         |     
     |          Mulliken Center for Theoretical Chemistry        |     
     |                    University of Bonn                     |     
      -----------------------------------------------------------      

   * xtb version 6.7.1 (edcfbbe) compiled by 'albert@albert-system' on 2024-07-22

   xtb is free software: you can redistribute it and/or modify it under
   the terms of the GNU Lesser General Public License as published by
   the Free Software Foundation, either version 3 of the License, or
   (at your option) any later version.
   
   xtb is distributed in the hope that it will be useful,
   but WITHOUT ANY WARRANTY; without even the implied warranty of
   MERCHANTABILITY or FITNESS FOR A PARTICULAR PURPOSE.  See the
   GNU Lesser General Public License for more details.
   
   Cite this work as:
   * C. Bannwarth, E. Caldeweyher, S. Ehlert, A. Hansen, P. Pracht,
     J. Seibert, S. Spicher, S. Grimme, WIREs Comput. Mol. Sci., 2020, 11,
     e01493. DOI: 10.1002/wcms.1493
   
   for GFN2-xTB:
   * C. Bannwarth, S. Ehlert and S. Grimme., J. Chem. Theory Comput., 2019,
     15, 1652-1671. DOI: 10.1021/acs.jctc.8b01176
   for GFN1-xTB:
   * S. Grimme, C. Bannwarth, P. Shushkov, J. Chem. Theory Comput., 2017,
     13, 1989-2009. DOI: 10.1021/acs.jctc.7b00118
   for GFN0-xTB:
   * P. Pracht, E. Caldeweyher, S. Ehlert, S. Grimme, ChemRxiv, 2019, preprint.
     DOI: 10.26434/chemrxiv.8326202.v1
   for GFN-FF:
   * S. Spicher and S. Grimme, Angew. Chem. Int. Ed., 2020, 59, 15665-15673.
     DOI: 10.1002/anie.202004239
   
   for ALPB and GBSA implicit solvation:
   * S. Ehlert, M. Stahn, S. Spicher, S. Grimme, J. Chem. Theory Comput.,
     2021, 17, 4250-4261. DOI: 10.1021/acs.jctc.1c00471
   
   for ddCOSMO and CPCM-X implicit solvation:
   * M. Stahn, S. Ehlert, S. Grimme, J. Phys. Chem. A,
     2023, XX, XXXX-XXXX. DOI: 10.1021/acs.jpca.3c04382
   
   for DFT-D4:
   * E. Caldeweyher, C. Bannwarth and S. Grimme, J. Chem. Phys., 2017,
     147, 034112. DOI: 10.1063/1.4993215
   * E. Caldeweyher, S. Ehlert, A. Hansen, H. Neugebauer, S. Spicher,
     C. Bannwarth and S. Grimme, J. Chem. Phys., 2019, 150, 154122.
     DOI: 10.1063/1.5090222
   * E. Caldeweyher, J.-M. Mewes, S. Ehlert and S. Grimme, Phys. Chem. Chem. Phys.
     2020, 22, 8499-8512. DOI: 10.1039/D0CP00502A
   
   for sTDA-xTB:
   * S. Grimme and C. Bannwarth, J. Chem. Phys., 2016, 145, 054103.
     DOI: 10.1063/1.4959605
   
   in the mass-spec context:
   * V. Asgeirsson, C. Bauer and S. Grimme, Chem. Sci., 2017, 8, 4879.
     DOI: 10.1039/c7sc00601b
   * J. Koopman and S. Grimme, ACS Omega 2019, 4, 12, 15120-15133.
     DOI: 10.1021/acsomega.9b02011
   
   for metadynamics refer to:
   * S. Grimme, J. Chem. Theory Comput., 2019, 155, 2847-2862
     DOI: 10.1021/acs.jctc.9b00143
   
   for SPH calculations refer to:
   * S. Spicher and S. Grimme, J. Chem. Theory Comput., 2021, 17, 1701-1714
     DOI: 10.1021/acs.jctc.0c01306
   
   for ONIOM refer to:
   * C. Plett, A. Katbashev, S. Ehlert, S. Grimme, M. Bursch,
     Phys. Chem. Chem. Phys., 2023, 25, 17860-17868. DOI: 10.1039/D3CP02178E
   
   for DIPRO refer to:
   * J. Kohn, N. Gildemeister, S. Grimme, D. Fazzi, A. Hansen,
     J. Chem. Phys., 2023, just accepted.
   
   for PTB refer to:
   * S. Grimme, M. Mueller, A. Hansen, J. Chem. Phys., 2023, 158, 124111.
     DOI: 10.1063/5.0137838
   
   with help from (in alphabetical order)
   P. Atkinson, C. Bannwarth, F. Bohle, G. Brandenburg, E. Caldeweyher
   M. Checinski, S. Dohm, S. Ehlert, S. Ehrlich, I. Gerasimov, C. Hölzer
   A. Katbashev, J. Kohn, J. Koopman, C. Lavigne, S. Lehtola, F. März, M. Müller,
   F. Musil, H. Neugebauer, J. Pisarek, C. Plett, P. Pracht, F. Pultar,
   J. Seibert, P. Shushkov, S. Spicher, M. Stahn, M. Steiner, T. Strunk,
   J. Stückrath, T. Rose, and J. Unsleber
   
 * started run on 2026/04/09 at 16:06:43.626     
   ID    Z sym.   atoms
    1    7 N      1, 6, 8
    2    6 C      2-5, 7, 9
    3    8 O      10, 11
    4    1 H      12-20

           -------------------------------------------------
          |                Calculation Setup                |
           -------------------------------------------------

          program call               : /home/analima/Programs/orca-6.1.0-f.0_linux_x86-64/bin/otool_xtb geo_opt_XTB.xyz --grad -c 0 -u 0 -P 1 --namespace geo_opt --input geo_opt_XTB.input.tmp --alpb WATER --acc 0.200000
          calculation namespace      : geo_opt
          coordinate file            : geo_opt_XTB.xyz
          omp threads                :                     1


           -------------------------------------------------
          |                 G F N 2 - x T B                 |
           -------------------------------------------------

        Reference                      10.1021/acs.jctc.8b01176
      * Hamiltonian:
        H0-scaling (s, p, d)           1.850000    2.230000    2.230000
        zeta-weighting                 0.500000
      * Dispersion:
        s8                             2.700000
        a1                             0.520000
        a2                             5.000000
        s9                             5.000000
      * Repulsion:
        kExp                           1.500000    1.000000
        rExp                           1.000000
      * Coulomb:
        alpha                          2.000000
        third order                    shell-resolved
        anisotropic                    true
        a3                             3.000000
        a5                             4.000000
        cn-shift                       1.200000
        cn-exp                         4.000000
        max-rad                        5.000000

      * Solvation model:               ALPB
        Solvent                        WATER
        Parameter file                 internal GFN2-xTB/ALPB
        Dielectric constant                8.0200E+01
        Reference state                gsolv [1 M gas/solution]
        Free energy shift                  1.0808E-03 Eh       6.7819E-01 kcal/mol
        Temperature                        2.9815E+02 K
        Density                            1.0000E+00 kg/L
        Solvent mass                       1.8000E+01 g/mol
        Interaction kernel             P16
        Born radius scaling (c1)           1.4744E+00
        Born radii integrator          GBOBC
        Born offset                        0.0000E+00 a0       0.0000E+00 AA
        H-bond correction              true
        Ion screening                  false
        Surface tension                    1.0000E-05 Eh       1.5569E+01 dyn/cm
        Grid points                               230 per atom
q/qsh data taken from xtbrestart
CAMM data taken from xtbrestart

          ...................................................
          :                      SETUP                      :
          :.................................................:
          :  # basis functions                  53          :
          :  # atomic orbitals                  53          :
          :  # shells                           31          :
          :  # electrons                        60          :
          :  max. iterations                   250          :
          :  Hamiltonian                  GFN2-xTB          :
          :  restarted?                       true          :
          :  GBSA solvation                   true          :
          :  PC potential                    false          :
          :  electronic temp.          300.0000000     K    :
          :  accuracy                    0.2000000          :
          :  -> integral cutoff          0.3198970E+02      :
          :  -> integral neglect         0.2000000E-08      :
          :  -> SCF convergence          0.2000000E-06 Eh   :
          :  -> wf. convergence          0.2000000E-04 e    :
          :  Broyden damping             0.4000000          :
          :  net charge                          0          :
          :  unpaired electrons                  0          :
          ...................................................

 iter      E             dE          RMSdq      gap      omega  full diag
   1    -34.7634747 -0.347635E+02  0.202E-01    3.50       0.0  T
   2    -34.7634852 -0.104544E-04  0.119E-01    3.51       1.0  T
   3    -34.7634869 -0.168086E-05  0.143E-02    3.51       1.6  T
   4    -34.7634885 -0.158036E-05  0.666E-03    3.52       3.4  T
   5    -34.7634885 -0.862836E-07  0.326E-03    3.51       6.9  T
   6    -34.7634886 -0.274345E-07  0.153E-03    3.51      14.6  T
   7    -34.7634886 -0.158212E-07  0.518E-04    3.51      43.2  T
   8    -34.7634886 -0.716938E-09  0.273E-04    3.51      81.8  T
   9    -34.7634886 -0.213774E-09  0.648E-05    3.51     345.1  T
  10    -34.7634886 -0.100897E-10  0.319E-05    3.51     700.9  T

   *** convergence criteria satisfied after 10 iterations ***

         #    Occupation            Energy/Eh            Energy/eV
      -------------------------------------------------------------
         1        2.0000           -0.7536539             -20.5080
       ...           ...                  ...                  ...
        24        2.0000           -0.4657443             -12.6735
        25        2.0000           -0.4535316             -12.3412
        26        2.0000           -0.4438788             -12.0786
        27        2.0000           -0.4281312             -11.6500
        28        2.0000           -0.3825607             -10.4100
        29        2.0000           -0.3813029             -10.3758
        30        2.0000           -0.3744036             -10.1880 (HOMO)
        31                         -0.2452363              -6.6732 (LUMO)
        32                         -0.2003871              -5.4528
        33                         -0.1666154              -4.5338
        34                          0.0194552               0.5294
        35                          0.0318187               0.8658
       ...                                ...                  ...
        53                          0.6312276              17.1766
      -------------------------------------------------------------
                  HL-Gap            0.1291673 Eh            3.5148 eV
             Fermi-level           -0.3098200 Eh           -8.4306 eV

 SCC (total)                   0 d,  0 h,  0 min,  0.012 sec
 SCC setup                      ...        0 min,  0.000 sec (  3.036%)
 Dispersion                     ...        0 min,  0.000 sec (  0.483%)
 classical contributions        ...        0 min,  0.000 sec (  0.099%)
 integral evaluation            ...        0 min,  0.001 sec (  7.748%)
 iterations                     ...        0 min,  0.006 sec ( 52.328%)
 molecular gradient             ...        0 min,  0.004 sec ( 35.560%)
 printout                       ...        0 min,  0.000 sec (  0.613%)

         :::::::::::::::::::::::::::::::::::::::::::::::::::::
         ::                     SUMMARY                     ::
         :::::::::::::::::::::::::::::::::::::::::::::::::::::
         :: total energy             -34.364025143645 Eh    ::
         :: total w/o Gsasa/hb       -34.349795306171 Eh    ::
         :: gradient norm              0.004866642691 Eh/a0 ::
         :: HOMO-LUMO gap              3.514821612821 eV    ::
         ::.................................................::
         :: SCC energy               -34.763382646830 Eh    ::
         :: -> isotropic ES            0.095577357479 Eh    ::
         :: -> anisotropic ES          0.003225326137 Eh    ::
         :: -> anisotropic XC          0.015690868946 Eh    ::
         :: -> dispersion             -0.016852451456 Eh    ::
         :: -> Gsolv                  -0.030017717838 Eh    ::
         ::    -> Gelec               -0.015787880364 Eh    ::
         ::    -> Gsasa               -0.002474859108 Eh    ::
         ::    -> Ghb                 -0.012835738064 Eh    ::
         ::    -> Gshift               0.001080759698 Eh    ::
         :: repulsion energy           0.399357503184 Eh    ::
         :: add. restraining           0.000000000000 Eh    ::
         :: total charge               0.000000000000 e     ::
         :::::::::::::::::::::::::::::::::::::::::::::::::::::


Property printout bound to 'properties.out'

           -------------------------------------------------
          | TOTAL ENERGY              -34.364025143645 Eh   |
          | GRADIENT NORM               0.004866642691 Eh/α |
          | HOMO-LUMO GAP               3.514821612821 eV   |
           -------------------------------------------------

------------------------------------------------------------------------
 * finished run on 2026/04/09 at 16:06:43.645     
------------------------------------------------------------------------
 total:
 * wall-time:     0 d,  0 h,  0 min,  0.020 sec
 *  cpu-time:     0 d,  0 h,  0 min,  0.018 sec
 * ratio c/w:     0.906 speedup
 SCF:
 * wall-time:     0 d,  0 h,  0 min,  0.012 sec
 *  cpu-time:     0 d,  0 h,  0 min,  0.011 sec
 * ratio c/w:     0.893 speedup


-------------------------   --------------------
FINAL SINGLE POINT ENERGY       -34.364025143650
-------------------------   --------------------


-------------
DIPOLE MOMENT
-------------
                                X             Y             Z
Total Dipole Moment    :     -0.15400      -0.83900      -0.67800
                        -----------------------------------------
Magnitude (a.u.)       :      1.08964
Magnitude (Debye)      :      2.76965


------------------
CARTESIAN GRADIENT
------------------

   1   N   :   -0.000078874   -0.001630022    0.000171281
   2   C   :    0.000872926    0.000376672   -0.000271214
   3   C   :   -0.000452079   -0.000658934   -0.000155107
   4   C   :   -0.001248747    0.000458090    0.000879714
   5   C   :   -0.000572664   -0.000821186   -0.000974538
   6   N   :    0.000167212    0.000342010    0.000416570
   7   C   :   -0.000217594    0.000543364    0.000515084
   8   N   :    0.001537121   -0.000644818   -0.000987199
   9   C   :    0.000469006    0.001001177   -0.001311776
  10   O   :   -0.000839665    0.000264187    0.000274066
  11   O   :   -0.000176272   -0.000687177    0.000870917
  12   H   :    0.000039407   -0.000104946    0.000267072
  13   H   :    0.000199094    0.001330611   -0.000596383
  14   H   :   -0.000230403   -0.000210805    0.000002195
  15   H   :    0.000224183   -0.000136566   -0.000133028
  16   H   :    0.000062866   -0.000196647    0.000042630
  17   H   :    0.000875007    0.000639025    0.000973373
  18   H   :    0.000048533   -0.000087812    0.000027499
  19   H   :   -0.000667033    0.000104485    0.000138239
  20   H   :   -0.000012025    0.000119290   -0.000149396

Difference to translation invariance:
           :   -0.0000000000    0.0000000000   -0.0000000000

Difference to rotation invariance:
           :    0.0000728353   -0.0003228419   -0.0001765354

Norm of the Cartesian gradient     ...    0.0048666427
RMS gradient                       ...    0.0006282809
MAX gradient                       ...    0.0016300224
------------------------------------------------------------------------------
                         ORCA GEOMETRY RELAXATION STEP
------------------------------------------------------------------------------

Reading the OPT-File                    .... done
Getting information on internals        .... done
Copying old internal coords+grads       .... done
Making the new internal coordinates     .... (2022 redundants) done
Validating the new internal coordinates .... (2022 redundants) done
Calculating the B-matrix                .... done
Calculating the G,G- and P matrices     .... done
Transforming gradient to internals      .... done
Projecting the internal gradient        .... done
Number of atoms                         ....  20
Number of internal coordinates          ....  92
Current Energy                          ....   -34.364025144 Eh
Current gradient norm                   ....     0.004866643 Eh/bohr
Maximum allowed component of the step   ....  0.300
Current trust radius                    ....  0.467
Updating the Hessian (BFGS)             .... done
Forming the augmented Hessian           .... done
Diagonalizing the augmented Hessian     .... done
Last element of RFO vector              ....  0.983103861
Lowest eigenvalues of augmented Hessian:
 -0.000240266  0.001700322  0.010119104  0.015231925  0.017200506
Length of the computed step             ....  0.186194593
The final length of the internal step   ....  0.186194593
Converting the step to Cartesian space:
 Initial RMS(Int)=    0.0194121282
Transforming coordinates:
 Iter   0:  RMS(Cart)=    0.0288506023 RMS(Int)=    1.4631200503
done
Storing new coordinates                 .... done
The predicted energy change is          ....    -0.000124298
Previously predicted energy change      ....    -0.000696903
Actually observed energy change         ....    -0.000740180
Ratio of predicted to observed change   ....     1.062099273
New trust radius                        ....     0.700000000

                                .--------------------.
          ----------------------|Geometry convergence|-------------------------
          Item                value                   Tolerance       Converged
          ---------------------------------------------------------------------
          Energy change      -0.0007401803            0.0000050000      NO
          RMS gradient        0.0005033065            0.0001000000      NO
          MAX gradient        0.0018479813            0.0003000000      NO
          RMS step            0.0194121282            0.0020000000      NO
          MAX step            0.0947803031            0.0040000000      NO
          -------------------------------------------------------------------------
          ........................................................
          Max(Bonds)      0.0502      Max(Angles)    0.55
          Max(Dihed)        3.65      Max(Improp)    0.00
          ---------------------------------------------------------------------

The optimization has not yet converged - more geometry cycles are needed


    ---------------------------------------------------------------------------
                         Redundant Internal Coordinates
                            (Angstroem and degrees)

        Definition                    Value    dE/dq     Step     New-Value
    ----------------------------------------------------------------------------
     1. B(C   1,N   0)                1.4497  0.000566 -0.0007    1.4490   
     2. B(C   2,C   1)                1.5320 -0.000518  0.0021    1.5341   
     3. B(C   3,C   2)                1.4929  0.000749 -0.0011    1.4918   
     4. B(C   4,C   3)                1.3683  0.000574 -0.0000    1.3682   
     5. B(N   5,C   4)                1.3648  0.000316 -0.0005    1.3644   
     6. B(C   6,N   5)                1.3046 -0.000187  0.0008    1.3055   
     7. B(N   7,C   3)                1.3728  0.000905 -0.0003    1.3725   
     8. B(N   7,C   6)                1.3518  0.000460 -0.0002    1.3516   
     9. B(C   8,C   1)                1.5300  0.001387  0.0004    1.5304   
    10. B(O   9,C   8)                1.2122 -0.000036  0.0002    1.2124   
    11. B(O  10,C   8)                1.3236  0.000705  0.0000    1.3236   
    12. B(H  11,N   0)                1.0147  0.000183 -0.0003    1.0144   
    13. B(H  12,N   0)                1.0138 -0.000352  0.0002    1.0140   
    14. B(H  12,O  10)                2.3654 -0.000661  0.0502    2.4155   
    15. B(H  13,C   1)                1.1011  0.000219 -0.0003    1.1008   
    16. B(H  14,C   2)                1.0923  0.000212 -0.0002    1.0921   
    17. B(H  15,C   2)                1.0930 -0.000132 -0.0002    1.0928   
    18. B(H  16,C   4)                1.0716  0.000053 -0.0000    1.0716   
    19. B(H  17,C   6)                1.0707  0.000027  0.0004    1.0711   
    20. B(H  18,N   7)                1.0068 -0.000394  0.0006    1.0074   
    21. B(H  19,O  10)                0.9772  0.000094  0.0006    0.9777   
    22. A(C   1,N   0,H  12)          109.21 -0.001405    0.51    109.72   
    23. A(H  11,N   0,H  12)          107.36  0.000154    0.31    107.67   
    24. A(C   1,N   0,H  11)          110.09  0.000507   -0.07    110.02   
    25. A(N   0,C   1,C   8)          115.72  0.000336    0.39    116.11   
    26. A(C   8,C   1,H  13)          104.58 -0.000184    0.26    104.84   
    27. A(N   0,C   1,H  13)          106.93 -0.000335   -0.01    106.92   
    28. A(C   2,C   1,H  13)          107.76  0.000145   -0.04    107.72   
    29. A(C   2,C   1,C   8)          109.89  0.000399   -0.22    109.68   
    30. A(N   0,C   1,C   2)          111.41 -0.000381   -0.34    111.06   
    31. A(C   3,C   2,H  15)          108.83 -0.000057   -0.02    108.82   
    32. A(C   3,C   2,H  14)          109.71 -0.000287    0.09    109.81   
    33. A(C   1,C   2,H  14)          108.00 -0.000011   -0.24    107.76   
    34. A(H  14,C   2,H  15)          108.68 -0.000184    0.24    108.92   
    35. A(C   1,C   2,C   3)          113.24  0.000723   -0.18    113.07   
    36. A(C   1,C   2,H  15)          108.27 -0.000215    0.13    108.40   
    37. A(C   4,C   3,N   7)          104.90 -0.000340    0.05    104.95   
    38. A(C   2,C   3,N   7)          120.43 -0.001508    0.51    120.93   
    39. A(C   2,C   3,C   4)          134.67  0.001848   -0.55    134.12   
    40. A(N   5,C   4,H  16)          118.73 -0.001534    0.44    119.17   
    41. A(C   3,C   4,H  16)          130.73  0.001411   -0.45    130.28   
    42. A(C   3,C   4,N   5)          110.54  0.000124    0.01    110.55   
    43. A(C   4,N   5,C   6)          105.47  0.000125   -0.05    105.42   
    44. A(N   5,C   6,H  17)          124.51 -0.000032   -0.05    124.46   
    45. A(N   5,C   6,N   7)          111.87  0.000110    0.04    111.91   
    46. A(N   7,C   6,H  17)          123.62 -0.000078    0.01    123.62   
    47. A(C   3,N   7,H  18)          125.30 -0.000501    0.15    125.45   
    48. A(C   6,N   7,H  18)          127.48  0.000517   -0.10    127.38   
    49. A(C   3,N   7,C   6)          107.21 -0.000019   -0.05    107.16   
    50. A(O   9,C   8,O  10)          122.81 -0.000606    0.11    122.92   
    51. A(C   1,C   8,O  10)          113.14 -0.000383   -0.01    113.13   
    52. A(C   1,C   8,O   9)          123.98  0.000976   -0.11    123.87   
    53. A(C   8,O  10,H  19)          112.58 -0.000295    0.26    112.84   
    54. D(C   2,C   1,N   0,H  11)     52.45  0.000306    2.60     55.05   
    55. D(C   8,C   1,N   0,H  11)    -74.03 -0.000196    2.88    -71.15   
    56. D(C   8,C   1,N   0,H  12)     43.61 -0.000549    3.65     47.26   
    57. D(H  13,C   1,N   0,H  11)    169.95  0.000071    2.35    172.30   
    58. D(C   2,C   1,N   0,H  12)    170.09 -0.000047    3.37    173.46   
    59. D(C   3,C   2,C   1,N   0)    -70.93 -0.000428   -0.35    -71.28   
    60. D(C   3,C   2,C   1,C   8)     58.68  0.000040   -0.29     58.39   
    61. D(H  14,C   2,C   1,C   8)   -179.61  0.000138   -0.46   -180.08   
    62. D(H  14,C   2,C   1,N   0)     50.77 -0.000331   -0.52     50.26   
    63. D(H  14,C   2,C   1,H  13)    -66.23  0.000201   -0.28    -66.51   
    64. D(C   3,C   2,C   1,H  13)    172.07  0.000103   -0.11    171.96   
    65. D(C   4,C   3,C   2,H  15)    120.79  0.000306   -0.87    119.92   
    66. D(C   4,C   3,C   2,H  14)   -120.42 -0.000119   -0.53   -120.95   
    67. D(C   4,C   3,C   2,C   1)      0.32  0.000149   -0.89     -0.57   
    68. D(N   7,C   3,C   2,C   1)   -179.03  0.000180   -1.11   -180.14   
    69. D(N   7,C   3,C   2,H  14)     60.23 -0.000088   -0.75     59.48   
    70. D(H  16,C   4,C   3,N   7)   -179.84  0.000046   -0.32   -180.16   
    71. D(H  16,C   4,C   3,C   2)      0.75  0.000082   -0.53      0.22   
    72. D(N   5,C   4,C   3,N   7)      0.24  0.000070   -0.06      0.18   
    73. D(N   5,C   4,C   3,C   2)   -179.18  0.000106   -0.26   -179.44   
    74. D(C   6,N   5,C   4,H  16)    180.00 -0.000007    0.22    180.21   
    75. D(C   6,N   5,C   4,C   3)     -0.07 -0.000025   -0.02     -0.09   
    76. D(H  17,C   6,N   5,C   4)   -179.79  0.000032   -0.13   -179.92   
    77. D(N   7,C   6,N   5,C   4)     -0.14 -0.000034    0.08     -0.06   
    78. D(C   3,N   7,C   6,H  17)    179.95  0.000013    0.09    180.04   
    79. D(C   3,N   7,C   6,N   5)      0.30  0.000079   -0.12      0.18   
    80. D(H  18,N   7,C   3,C   4)   -179.16  0.000043   -0.23   -179.39   
    81. D(H  18,N   7,C   3,C   2)      0.36  0.000036   -0.09      0.26   
    82. D(C   6,N   7,C   3,C   4)     -0.31 -0.000086    0.11     -0.20   
    83. D(H  18,N   7,C   6,N   5)    179.11 -0.000070    0.23    179.34   
    84. D(C   6,N   7,C   3,C   2)    179.21 -0.000093    0.25    179.45   
    85. D(H  18,N   7,C   6,H  17)     -1.23 -0.000135    0.43     -0.80   
    86. D(O  10,C   8,C   1,C   2)   -133.92  0.000101   -2.38   -136.29   
    87. D(O  10,C   8,C   1,N   0)     -6.68  0.000202   -2.73     -9.40   
    88. D(O   9,C   8,C   1,H  13)    -66.35  0.000146   -2.28    -68.63   
    89. D(O   9,C   8,C   1,C   2)     49.07  0.000401   -2.29     46.78   
    90. D(O   9,C   8,C   1,N   0)    176.31  0.000502   -2.64    173.67   
    91. D(H  19,O  10,C   8,O   9)      0.80 -0.000098    0.72      1.52   
    92. D(H  19,O  10,C   8,C   1)   -176.26  0.000144    0.79   -175.47   
    ----------------------------------------------------------------------------

Geometry step timings:
Preparation and reading OPT file:      0.000 s ( 0.787 %)
Internal coordinates            :      0.000 s ( 0.875 %)
B/P matrices and projection     :      0.000 s (37.970 %)
Hessian update/contruction      :      0.000 s (10.761 %)
Making the step                 :      0.000 s (31.584 %)
Converting the step to Cartesian:      0.000 s ( 3.150 %)
Storing new data                :      0.000 s ( 0.875 %)
Checking convergence            :      0.000 s ( 1.137 %)
Final printing                  :      0.000 s (12.861 %)
Total time                      :      0.001 s

Time for energy+gradient        :      0.023 s
Time for complete geometry iter :      0.025 s

         *************************************************************
         *                GEOMETRY OPTIMIZATION CYCLE  12            *
         *************************************************************
---------------------------------
CARTESIAN COORDINATES (ANGSTROEM)
---------------------------------
  N    -1.436709   -1.615090    0.684992
  C    -1.386141   -0.723900   -0.456476
  C     0.012505   -0.714560   -1.086722
  C     1.028623   -0.019601   -0.244077
  C     0.986916    0.621002    0.964201
  N     2.219510    1.105226    1.292457
  C     3.000834    0.765165    0.303458
  N     2.334881    0.080833   -0.653121
  C    -1.849739    0.713753   -0.210235
  O    -1.762859    1.601521   -1.031309
  O    -2.418216    0.881836    0.973209
  H    -0.715548   -1.365423    1.353241
  H    -2.333042   -1.525529    1.150449
  H    -2.088202   -1.122172   -1.204966
  H     0.312334   -1.752264   -1.247511
  H    -0.048384   -0.209510   -2.053843
  H     0.166620    0.783245    1.634423
  H     4.045680    0.994804    0.249848
  H     2.706584   -0.282635   -1.515977
  H    -2.775647    1.783298    1.097958

----------------------------
CARTESIAN COORDINATES (A.U.)
----------------------------
  NO LB    ZA    FRAG    MASS        X           Y           Z
   0 N   7.0000    0    14.007   -2.714987   -3.052078    1.294448
   1 C   6.0000    0    12.011   -2.619426   -1.367972   -0.862614
   2 C   6.0000    0    12.011    0.023631   -1.350323   -2.053608
   3 C   6.0000    0    12.011    1.943816   -0.037041   -0.461239
   4 C   6.0000    0    12.011    1.865001    1.173525    1.822076
   5 N   7.0000    0    14.007    4.194266    2.088574    2.442391
   6 C   6.0000    0    12.011    5.670755    1.445952    0.573452
   7 N   7.0000    0    14.007    4.412285    0.152753   -1.234220
   8 C   6.0000    0    12.011   -3.495500    1.348798   -0.397287
   9 O   8.0000    0    15.999   -3.331320    3.026436   -1.948892
  10 O   8.0000    0    15.999   -4.569767    1.666429    1.839099
  11 H   1.0000    0     1.008   -1.352190   -2.580275    2.557255
  12 H   1.0000    0     1.008   -4.408810   -2.882832    2.174033
  13 H   1.0000    0     1.008   -3.946131   -2.120597   -2.277055
  14 H   1.0000    0     1.008    0.590225   -3.311299   -2.357454
  15 H   1.0000    0     1.008   -0.091432   -0.395917   -3.881201
  16 H   1.0000    0     1.008    0.314866    1.480118    3.088612
  17 H   1.0000    0     1.008    7.645227    1.879908    0.472144
  18 H   1.0000    0     1.008    5.114703   -0.534103   -2.864781
  19 H   1.0000    0     1.008   -5.245213    3.369944    2.074840

      -----------------------------------------------------------      
     |                   =====================                   |     
     |                           x T B                           |     
     |                   =====================                   |     
     |                         S. Grimme                         |     
     |          Mulliken Center for Theoretical Chemistry        |     
     |                    University of Bonn                     |     
      -----------------------------------------------------------      

   * xtb version 6.7.1 (edcfbbe) compiled by 'albert@albert-system' on 2024-07-22

   xtb is free software: you can redistribute it and/or modify it under
   the terms of the GNU Lesser General Public License as published by
   the Free Software Foundation, either version 3 of the License, or
   (at your option) any later version.
   
   xtb is distributed in the hope that it will be useful,
   but WITHOUT ANY WARRANTY; without even the implied warranty of
   MERCHANTABILITY or FITNESS FOR A PARTICULAR PURPOSE.  See the
   GNU Lesser General Public License for more details.
   
   Cite this work as:
   * C. Bannwarth, E. Caldeweyher, S. Ehlert, A. Hansen, P. Pracht,
     J. Seibert, S. Spicher, S. Grimme, WIREs Comput. Mol. Sci., 2020, 11,
     e01493. DOI: 10.1002/wcms.1493
   
   for GFN2-xTB:
   * C. Bannwarth, S. Ehlert and S. Grimme., J. Chem. Theory Comput., 2019,
     15, 1652-1671. DOI: 10.1021/acs.jctc.8b01176
   for GFN1-xTB:
   * S. Grimme, C. Bannwarth, P. Shushkov, J. Chem. Theory Comput., 2017,
     13, 1989-2009. DOI: 10.1021/acs.jctc.7b00118
   for GFN0-xTB:
   * P. Pracht, E. Caldeweyher, S. Ehlert, S. Grimme, ChemRxiv, 2019, preprint.
     DOI: 10.26434/chemrxiv.8326202.v1
   for GFN-FF:
   * S. Spicher and S. Grimme, Angew. Chem. Int. Ed., 2020, 59, 15665-15673.
     DOI: 10.1002/anie.202004239
   
   for ALPB and GBSA implicit solvation:
   * S. Ehlert, M. Stahn, S. Spicher, S. Grimme, J. Chem. Theory Comput.,
     2021, 17, 4250-4261. DOI: 10.1021/acs.jctc.1c00471
   
   for ddCOSMO and CPCM-X implicit solvation:
   * M. Stahn, S. Ehlert, S. Grimme, J. Phys. Chem. A,
     2023, XX, XXXX-XXXX. DOI: 10.1021/acs.jpca.3c04382
   
   for DFT-D4:
   * E. Caldeweyher, C. Bannwarth and S. Grimme, J. Chem. Phys., 2017,
     147, 034112. DOI: 10.1063/1.4993215
   * E. Caldeweyher, S. Ehlert, A. Hansen, H. Neugebauer, S. Spicher,
     C. Bannwarth and S. Grimme, J. Chem. Phys., 2019, 150, 154122.
     DOI: 10.1063/1.5090222
   * E. Caldeweyher, J.-M. Mewes, S. Ehlert and S. Grimme, Phys. Chem. Chem. Phys.
     2020, 22, 8499-8512. DOI: 10.1039/D0CP00502A
   
   for sTDA-xTB:
   * S. Grimme and C. Bannwarth, J. Chem. Phys., 2016, 145, 054103.
     DOI: 10.1063/1.4959605
   
   in the mass-spec context:
   * V. Asgeirsson, C. Bauer and S. Grimme, Chem. Sci., 2017, 8, 4879.
     DOI: 10.1039/c7sc00601b
   * J. Koopman and S. Grimme, ACS Omega 2019, 4, 12, 15120-15133.
     DOI: 10.1021/acsomega.9b02011
   
   for metadynamics refer to:
   * S. Grimme, J. Chem. Theory Comput., 2019, 155, 2847-2862
     DOI: 10.1021/acs.jctc.9b00143
   
   for SPH calculations refer to:
   * S. Spicher and S. Grimme, J. Chem. Theory Comput., 2021, 17, 1701-1714
     DOI: 10.1021/acs.jctc.0c01306
   
   for ONIOM refer to:
   * C. Plett, A. Katbashev, S. Ehlert, S. Grimme, M. Bursch,
     Phys. Chem. Chem. Phys., 2023, 25, 17860-17868. DOI: 10.1039/D3CP02178E
   
   for DIPRO refer to:
   * J. Kohn, N. Gildemeister, S. Grimme, D. Fazzi, A. Hansen,
     J. Chem. Phys., 2023, just accepted.
   
   for PTB refer to:
   * S. Grimme, M. Mueller, A. Hansen, J. Chem. Phys., 2023, 158, 124111.
     DOI: 10.1063/5.0137838
   
   with help from (in alphabetical order)
   P. Atkinson, C. Bannwarth, F. Bohle, G. Brandenburg, E. Caldeweyher
   M. Checinski, S. Dohm, S. Ehlert, S. Ehrlich, I. Gerasimov, C. Hölzer
   A. Katbashev, J. Kohn, J. Koopman, C. Lavigne, S. Lehtola, F. März, M. Müller,
   F. Musil, H. Neugebauer, J. Pisarek, C. Plett, P. Pracht, F. Pultar,
   J. Seibert, P. Shushkov, S. Spicher, M. Stahn, M. Steiner, T. Strunk,
   J. Stückrath, T. Rose, and J. Unsleber
   
 * started run on 2026/04/09 at 16:06:43.650     
   ID    Z sym.   atoms
    1    7 N      1, 6, 8
    2    6 C      2-5, 7, 9
    3    8 O      10, 11
    4    1 H      12-20

           -------------------------------------------------
          |                Calculation Setup                |
           -------------------------------------------------

          program call               : /home/analima/Programs/orca-6.1.0-f.0_linux_x86-64/bin/otool_xtb geo_opt_XTB.xyz --grad -c 0 -u 0 -P 1 --namespace geo_opt --input geo_opt_XTB.input.tmp --alpb WATER --acc 0.200000
          calculation namespace      : geo_opt
          coordinate file            : geo_opt_XTB.xyz
          omp threads                :                     1


           -------------------------------------------------
          |                 G F N 2 - x T B                 |
           -------------------------------------------------

        Reference                      10.1021/acs.jctc.8b01176
      * Hamiltonian:
        H0-scaling (s, p, d)           1.850000    2.230000    2.230000
        zeta-weighting                 0.500000
      * Dispersion:
        s8                             2.700000
        a1                             0.520000
        a2                             5.000000
        s9                             5.000000
      * Repulsion:
        kExp                           1.500000    1.000000
        rExp                           1.000000
      * Coulomb:
        alpha                          2.000000
        third order                    shell-resolved
        anisotropic                    true
        a3                             3.000000
        a5                             4.000000
        cn-shift                       1.200000
        cn-exp                         4.000000
        max-rad                        5.000000

      * Solvation model:               ALPB
        Solvent                        WATER
        Parameter file                 internal GFN2-xTB/ALPB
        Dielectric constant                8.0200E+01
        Reference state                gsolv [1 M gas/solution]
        Free energy shift                  1.0808E-03 Eh       6.7819E-01 kcal/mol
        Temperature                        2.9815E+02 K
        Density                            1.0000E+00 kg/L
        Solvent mass                       1.8000E+01 g/mol
        Interaction kernel             P16
        Born radius scaling (c1)           1.4744E+00
        Born radii integrator          GBOBC
        Born offset                        0.0000E+00 a0       0.0000E+00 AA
        H-bond correction              true
        Ion screening                  false
        Surface tension                    1.0000E-05 Eh       1.5569E+01 dyn/cm
        Grid points                               230 per atom
q/qsh data taken from xtbrestart
CAMM data taken from xtbrestart

          ...................................................
          :                      SETUP                      :
          :.................................................:
          :  # basis functions                  53          :
          :  # atomic orbitals                  53          :
          :  # shells                           31          :
          :  # electrons                        60          :
          :  max. iterations                   250          :
          :  Hamiltonian                  GFN2-xTB          :
          :  restarted?                       true          :
          :  GBSA solvation                   true          :
          :  PC potential                    false          :
          :  electronic temp.          300.0000000     K    :
          :  accuracy                    0.2000000          :
          :  -> integral cutoff          0.3198970E+02      :
          :  -> integral neglect         0.2000000E-08      :
          :  -> SCF convergence          0.2000000E-06 Eh   :
          :  -> wf. convergence          0.2000000E-04 e    :
          :  Broyden damping             0.4000000          :
          :  net charge                          0          :
          :  unpaired electrons                  0          :
          ...................................................

 iter      E             dE          RMSdq      gap      omega  full diag
   1    -34.7633843 -0.347634E+02  0.104E-01    3.51       0.0  T
   2    -34.7633859 -0.155338E-05  0.605E-02    3.51       1.0  T
   3    -34.7633859 -0.992874E-08  0.770E-03    3.51       2.9  T
   4    -34.7633866 -0.713638E-06  0.317E-03    3.51       7.0  T
   5    -34.7633866 -0.228886E-07  0.149E-03    3.51      15.0  T
   6    -34.7633866 -0.495429E-08  0.478E-04    3.51      46.8  T
   7    -34.7633866 -0.112891E-08  0.224E-04    3.51     100.0  T
   8    -34.7633866 -0.128423E-09  0.105E-04    3.51     212.2  T
   9    -34.7633866 -0.351150E-10  0.286E-05    3.51     782.8  T

   *** convergence criteria satisfied after 9 iterations ***

         #    Occupation            Energy/Eh            Energy/eV
      -------------------------------------------------------------
         1        2.0000           -0.7533949             -20.5009
       ...           ...                  ...                  ...
        24        2.0000           -0.4657755             -12.6744
        25        2.0000           -0.4526452             -12.3171
        26        2.0000           -0.4444098             -12.0930
        27        2.0000           -0.4279789             -11.6459
        28        2.0000           -0.3822631             -10.4019
        29        2.0000           -0.3810368             -10.3685
        30        2.0000           -0.3741774             -10.1819 (HOMO)
        31                         -0.2450205              -6.6673 (LUMO)
        32                         -0.2001654              -5.4468
        33                         -0.1663154              -4.5257
        34                          0.0188622               0.5133
        35                          0.0320049               0.8709
       ...                                ...                  ...
        53                          0.6299234              17.1411
      -------------------------------------------------------------
                  HL-Gap            0.1291568 Eh            3.5145 eV
             Fermi-level           -0.3095989 Eh           -8.4246 eV

 SCC (total)                   0 d,  0 h,  0 min,  0.009 sec
 SCC setup                      ...        0 min,  0.000 sec (  4.149%)
 Dispersion                     ...        0 min,  0.000 sec (  0.859%)
 classical contributions        ...        0 min,  0.000 sec (  1.016%)
 integral evaluation            ...        0 min,  0.001 sec ( 10.453%)
 iterations                     ...        0 min,  0.005 sec ( 54.471%)
 molecular gradient             ...        0 min,  0.003 sec ( 28.480%)
 printout                       ...        0 min,  0.000 sec (  0.426%)

         :::::::::::::::::::::::::::::::::::::::::::::::::::::
         ::                     SUMMARY                     ::
         :::::::::::::::::::::::::::::::::::::::::::::::::::::
         :: total energy             -34.364175031532 Eh    ::
         :: total w/o Gsasa/hb       -34.349899340657 Eh    ::
         :: gradient norm              0.003898674841 Eh/a0 ::
         :: HOMO-LUMO gap              3.514535798931 eV    ::
         ::.................................................::
         :: SCC energy               -34.763282185559 Eh    ::
         :: -> isotropic ES            0.095756685996 Eh    ::
         :: -> anisotropic ES          0.003278626986 Eh    ::
         :: -> anisotropic XC          0.015672463714 Eh    ::
         :: -> dispersion             -0.016890753026 Eh    ::
         :: -> Gsolv                  -0.030180027229 Eh    ::
         ::    -> Gelec               -0.015904336353 Eh    ::
         ::    -> Gsasa               -0.002453686564 Eh    ::
         ::    -> Ghb                 -0.012902764010 Eh    ::
         ::    -> Gshift               0.001080759698 Eh    ::
         :: repulsion energy           0.399107154026 Eh    ::
         :: add. restraining           0.000000000000 Eh    ::
         :: total charge               0.000000000000 e     ::
         :::::::::::::::::::::::::::::::::::::::::::::::::::::


Property printout bound to 'properties.out'

           -------------------------------------------------
          | TOTAL ENERGY              -34.364175031532 Eh   |
          | GRADIENT NORM               0.003898674841 Eh/α |
          | HOMO-LUMO GAP               3.514535798931 eV   |
           -------------------------------------------------

------------------------------------------------------------------------
 * finished run on 2026/04/09 at 16:06:43.665     
------------------------------------------------------------------------
 total:
 * wall-time:     0 d,  0 h,  0 min,  0.014 sec
 *  cpu-time:     0 d,  0 h,  0 min,  0.012 sec
 * ratio c/w:     0.867 speedup
 SCF:
 * wall-time:     0 d,  0 h,  0 min,  0.009 sec
 *  cpu-time:     0 d,  0 h,  0 min,  0.007 sec
 * ratio c/w:     0.797 speedup


-------------------------   --------------------
FINAL SINGLE POINT ENERGY       -34.364175031530
-------------------------   --------------------


-------------
DIPOLE MOMENT
-------------
                                X             Y             Z
Total Dipole Moment    :     -0.21300      -0.88500      -0.68500
                        -----------------------------------------
Magnitude (a.u.)       :      1.13922
Magnitude (Debye)      :      2.89566


------------------
CARTESIAN GRADIENT
------------------

   1   N   :    0.000282946   -0.001401716    0.000277989
   2   C   :   -0.000408045    0.000342295    0.000018872
   3   C   :    0.000169773   -0.000369481   -0.000151195
   4   C   :   -0.001142451    0.000497231    0.000388084
   5   C   :   -0.000483056   -0.000662237   -0.000521328
   6   N   :   -0.000269628    0.000328650    0.000719260
   7   C   :   -0.000204104   -0.000026316   -0.000073254
   8   N   :    0.001586706   -0.000132772   -0.000651124
   9   C   :    0.000994984    0.001157625   -0.000759029
  10   O   :   -0.000430365    0.000368176   -0.000218199
  11   O   :    0.000164179   -0.000567150    0.000779220
  12   H   :    0.000204360   -0.000028382   -0.000056460
  13   H   :   -0.000281543    0.000481714   -0.000308995
  14   H   :   -0.000111653   -0.000534428   -0.000032747
  15   H   :   -0.000015192   -0.000250962    0.000190345
  16   H   :    0.000190707    0.000031854    0.000161544
  17   H   :    0.000304145    0.000415958    0.000403037
  18   H   :    0.000326731    0.000033725   -0.000020275
  19   H   :   -0.000368843   -0.000044484   -0.000202893
  20   H   :   -0.000509651    0.000360700    0.000057149

Difference to translation invariance:
           :   -0.0000000000    0.0000000000   -0.0000000000

Difference to rotation invariance:
           :    0.0001058583   -0.0002407273    0.0000578191

Norm of the Cartesian gradient     ...    0.0038986748
RMS gradient                       ...    0.0005033168
MAX gradient                       ...    0.0015867058
------------------------------------------------------------------------------
                         ORCA GEOMETRY RELAXATION STEP
------------------------------------------------------------------------------

Reading the OPT-File                    .... done
Getting information on internals        .... done
Copying old internal coords+grads       .... done
Making the new internal coordinates     .... (2022 redundants) done
Validating the new internal coordinates .... (2022 redundants) done
Calculating the B-matrix                .... done
Calculating the G,G- and P matrices     .... done
Transforming gradient to internals      .... done
Projecting the internal gradient        .... done
Number of atoms                         ....  20
Number of internal coordinates          ....  92
Current Energy                          ....   -34.364175032 Eh
Current gradient norm                   ....     0.003898675 Eh/bohr
Maximum allowed component of the step   ....  0.300
Current trust radius                    ....  0.700
Updating the Hessian (BFGS)             .... done
Forming the augmented Hessian           .... done
Diagonalizing the augmented Hessian     .... done
Last element of RFO vector              ....  0.991978462
Lowest eigenvalues of augmented Hessian:
 -0.000077717  0.001498777  0.008791304  0.015400325  0.017320010
Length of the computed step             ....  0.127429183
The final length of the internal step   ....  0.127429183
Converting the step to Cartesian space:
 Initial RMS(Int)=    0.0132854107
Transforming coordinates:
 Iter   0:  RMS(Cart)=    0.0178297975 RMS(Int)=    0.6547574002
done
Storing new coordinates                 .... done
The predicted energy change is          ....    -0.000039490
Previously predicted energy change      ....    -0.000124298
Actually observed energy change         ....    -0.000149888
Ratio of predicted to observed change   ....     1.205878605
New trust radius                        ....     0.700000000

                                .--------------------.
          ----------------------|Geometry convergence|-------------------------
          Item                value                   Tolerance       Converged
          ---------------------------------------------------------------------
          Energy change      -0.0001498879            0.0000050000      NO
          RMS gradient        0.0003381026            0.0001000000      NO
          MAX gradient        0.0012393169            0.0003000000      NO
          RMS step            0.0132854107            0.0020000000      NO
          MAX step            0.0479420033            0.0040000000      NO
          -------------------------------------------------------------------------
          ........................................................
          Max(Bonds)      0.0230      Max(Angles)    0.28
          Max(Dihed)        2.75      Max(Improp)    0.00
          ---------------------------------------------------------------------

The optimization has not yet converged - more geometry cycles are needed


    ---------------------------------------------------------------------------
                         Redundant Internal Coordinates
                            (Angstroem and degrees)

        Definition                    Value    dE/dq     Step     New-Value
    ----------------------------------------------------------------------------
     1. B(C   1,N   0)                1.4490  0.000574 -0.0011    1.4479   
     2. B(C   2,C   1)                1.5341 -0.000008  0.0002    1.5343   
     3. B(C   3,C   2)                1.4918  0.000032 -0.0001    1.4917   
     4. B(C   4,C   3)                1.3682  0.000092  0.0002    1.3684   
     5. B(N   5,C   4)                1.3644  0.000185 -0.0003    1.3641   
     6. B(C   6,N   5)                1.3055  0.000588 -0.0002    1.3052   
     7. B(N   7,C   3)                1.3725  0.001104 -0.0012    1.3713   
     8. B(N   7,C   6)                1.3516  0.000228 -0.0002    1.3514   
     9. B(C   8,C   1)                1.5305  0.001239 -0.0015    1.5290   
    10. B(O   9,C   8)                1.2124  0.000386 -0.0000    1.2124   
    11. B(O  10,C   8)                1.3236  0.000879 -0.0006    1.3231   
    12. B(H  11,N   0)                1.0144  0.000104 -0.0003    1.0141   
    13. B(H  12,N   0)                1.0139  0.000143 -0.0002    1.0137   
    14. B(H  12,O  10)                2.4154 -0.000092  0.0230    2.4384   
    15. B(H  13,C   1)                1.1008  0.000286 -0.0005    1.1003   
    16. B(H  14,C   2)                1.0921  0.000207 -0.0003    1.0917   
    17. B(H  15,C   2)                1.0928 -0.000140  0.0001    1.0928   
    18. B(H  16,C   4)                1.0716  0.000080 -0.0001    1.0716   
    19. B(H  17,C   6)                1.0711  0.000328 -0.0003    1.0708   
    20. B(H  18,N   7)                1.0074  0.000056  0.0001    1.0074   
    21. B(H  19,O  10)                0.9777  0.000527 -0.0004    0.9773   
    22. A(C   1,N   0,H  12)          109.76 -0.000900    0.28    110.04   
    23. A(H  11,N   0,H  12)          107.72  0.000295    0.06    107.78   
    24. A(C   1,N   0,H  11)          110.05  0.000005    0.04    110.09   
    25. A(N   0,C   1,C   8)          116.13  0.000515    0.01    116.14   
    26. A(C   8,C   1,H  13)          104.84  0.000192   -0.03    104.81   
    27. A(N   0,C   1,H  13)          106.91 -0.000442    0.13    107.04   
    28. A(C   2,C   1,H  13)          107.72  0.000179   -0.03    107.69   
    29. A(C   2,C   1,C   8)          109.67 -0.000042    0.00    109.67   
    30. A(N   0,C   1,C   2)          111.05 -0.000391   -0.07    110.98   
    31. A(C   3,C   2,H  15)          108.82 -0.000261    0.07    108.89   
    32. A(C   3,C   2,H  14)          109.81  0.000135   -0.05    109.76   
    33. A(C   1,C   2,H  14)          107.76 -0.000099   -0.08    107.68   
    34. A(H  14,C   2,H  15)          108.92  0.000093    0.03    108.95   
    35. A(C   1,C   2,C   3)          113.06 -0.000047    0.00    113.07   
    36. A(C   1,C   2,H  15)          108.40  0.000189    0.03    108.42   
    37. A(C   4,C   3,N   7)          104.95  0.000084   -0.01    104.94   
    38. A(C   2,C   3,N   7)          120.93 -0.000408    0.19    121.12   
    39. A(C   2,C   3,C   4)          134.12  0.000324   -0.18    133.94   
    40. A(N   5,C   4,H  16)          119.17 -0.000676    0.21    119.37   
    41. A(C   3,C   4,H  16)          130.28  0.000623   -0.21    130.07   
    42. A(C   3,C   4,N   5)          110.55  0.000052   -0.00    110.55   
    43. A(C   4,N   5,C   6)          105.43  0.000060   -0.01    105.41   
    44. A(N   5,C   6,H  17)          124.46 -0.000018   -0.01    124.46   
    45. A(N   5,C   6,N   7)          111.91  0.000089   -0.02    111.90   
    46. A(N   7,C   6,H  17)          123.62 -0.000071    0.02    123.65   
    47. A(C   3,N   7,H  18)          125.45 -0.000239    0.07    125.53   
    48. A(C   6,N   7,H  18)          127.38  0.000524   -0.11    127.27   
    49. A(C   3,N   7,C   6)          107.16 -0.000286    0.04    107.20   
    50. A(O   9,C   8,O  10)          122.91  0.000062   -0.00    122.91   
    51. A(C   1,C   8,O  10)          113.16 -0.000758    0.07    113.22   
    52. A(C   1,C   8,O   9)          123.86  0.000678   -0.06    123.80   
    53. A(C   8,O  10,H  19)          112.84  0.000224    0.06    112.91   
    54. D(C   2,C   1,N   0,H  11)     55.06  0.000071    2.42     57.48   
    55. D(C   8,C   1,N   0,H  11)    -71.13  0.000046    2.48    -68.65   
    56. D(C   8,C   1,N   0,H  12)     47.25 -0.000138    2.75     50.00   
    57. D(H  13,C   1,N   0,H  11)    172.31 -0.000187    2.42    174.73   
    58. D(C   2,C   1,N   0,H  12)    173.44 -0.000113    2.69    176.13   
    59. D(C   3,C   2,C   1,N   0)    -71.29 -0.000496    0.43    -70.86   
    60. D(C   3,C   2,C   1,C   8)     58.40 -0.000152    0.39     58.79   
    61. D(H  14,C   2,C   1,C   8)    179.94 -0.000081    0.27    180.21   
    62. D(H  14,C   2,C   1,N   0)     50.24 -0.000425    0.32     50.56   
    63. D(H  14,C   2,C   1,H  13)    -66.51  0.000218    0.21    -66.30   
    64. D(C   3,C   2,C   1,H  13)    171.95  0.000147    0.33    172.29   
    65. D(C   4,C   3,C   2,H  15)    119.92  0.000040   -0.49    119.43   
    66. D(C   4,C   3,C   2,H  14)   -120.96  0.000076   -0.44   -121.39   
    67. D(C   4,C   3,C   2,C   1)     -0.58  0.000013   -0.57     -1.15   
    68. D(N   7,C   3,C   2,C   1)    179.86  0.000005   -0.62    179.24   
    69. D(N   7,C   3,C   2,H  14)     59.48  0.000067   -0.48     59.00   
    70. D(H  16,C   4,C   3,N   7)    179.84 -0.000059    0.01    179.85   
    71. D(H  16,C   4,C   3,C   2)      0.23 -0.000065   -0.02      0.20   
    72. D(N   5,C   4,C   3,N   7)      0.18  0.000001    0.03      0.22   
    73. D(N   5,C   4,C   3,C   2)   -179.43 -0.000006   -0.00   -179.43   
    74. D(C   6,N   5,C   4,H  16)   -179.78  0.000047   -0.01   -179.79   
    75. D(C   6,N   5,C   4,C   3)     -0.08 -0.000001   -0.04     -0.12   
    76. D(H  17,C   6,N   5,C   4)   -179.92 -0.000002   -0.02   -179.93   
    77. D(N   7,C   6,N   5,C   4)     -0.06 -0.000000    0.04     -0.02   
    78. D(C   3,N   7,C   6,H  17)   -179.96  0.000002    0.04   -179.93   
    79. D(C   3,N   7,C   6,N   5)      0.18 -0.000000   -0.02      0.16   
    80. D(H  18,N   7,C   3,C   4)   -179.40  0.000045   -0.17   -179.57   
    81. D(H  18,N   7,C   3,C   2)      0.28  0.000054   -0.13      0.15   
    82. D(C   6,N   7,C   3,C   4)     -0.21 -0.000000   -0.02     -0.23   
    83. D(H  18,N   7,C   6,N   5)    179.34 -0.000055    0.14    179.49   
    84. D(C   6,N   7,C   3,C   2)    179.46  0.000008    0.03    179.49   
    85. D(H  18,N   7,C   6,H  17)     -0.80 -0.000053    0.20     -0.60   
    86. D(O  10,C   8,C   1,C   2)   -136.28  0.000039   -1.33   -137.62   
    87. D(O  10,C   8,C   1,N   0)     -9.40 -0.000117   -1.43    -10.83   
    88. D(O   9,C   8,C   1,H  13)    -68.63  0.000134   -1.52    -70.15   
    89. D(O   9,C   8,C   1,C   2)     46.78  0.000421   -1.58     45.19   
    90. D(O   9,C   8,C   1,N   0)    173.66  0.000265   -1.68    171.98   
    91. D(H  19,O  10,C   8,O   9)      1.51  0.000091   -0.37      1.14   
    92. D(H  19,O  10,C   8,C   1)   -175.46  0.000447   -0.60   -176.07   
    ----------------------------------------------------------------------------

Geometry step timings:
Preparation and reading OPT file:      0.000 s ( 0.767 %)
Internal coordinates            :      0.000 s ( 0.937 %)
B/P matrices and projection     :      0.000 s (38.075 %)
Hessian update/contruction      :      0.000 s (11.244 %)
Making the step                 :      0.000 s (31.261 %)
Converting the step to Cartesian:      0.000 s ( 3.066 %)
Storing new data                :      0.000 s ( 0.852 %)
Checking convergence            :      0.000 s ( 1.022 %)
Final printing                  :      0.000 s (12.692 %)
Total time                      :      0.001 s

Time for energy+gradient        :      0.018 s
Time for complete geometry iter :      0.020 s

         *************************************************************
         *                GEOMETRY OPTIMIZATION CYCLE  13            *
         *************************************************************
---------------------------------
CARTESIAN COORDINATES (ANGSTROEM)
---------------------------------
  N    -1.424529   -1.609420    0.690472
  C    -1.384047   -0.721857   -0.452419
  C     0.011623   -0.709149   -1.089661
  C     1.031565   -0.017667   -0.249042
  C     0.989501    0.625240    0.958191
  N     2.222942    1.105089    1.288478
  C     3.005127    0.759426    0.302391
  N     2.338294    0.076360   -0.654209
  C    -1.851076    0.712578   -0.205507
  O    -1.746130    1.606071   -1.018199
  O    -2.439482    0.873174    0.968535
  H    -0.727507   -1.331198    1.372465
  H    -2.332983   -1.557439    1.137314
  H    -2.087770   -1.122577   -1.197364
  H     0.310518   -1.746217   -1.254029
  H    -0.054177   -0.201565   -2.055223
  H     0.165847    0.790256    1.623516
  H     4.050679    0.984768    0.250808
  H     2.712522   -0.291778   -1.514068
  H    -2.790915    1.775905    1.097550

----------------------------
CARTESIAN COORDINATES (A.U.)
----------------------------
  NO LB    ZA    FRAG    MASS        X           Y           Z
   0 N   7.0000    0    14.007   -2.691970   -3.041362    1.304804
   1 C   6.0000    0    12.011   -2.615469   -1.364112   -0.854947
   2 C   6.0000    0    12.011    0.021963   -1.340097   -2.059161
   3 C   6.0000    0    12.011    1.949375   -0.033386   -0.470622
   4 C   6.0000    0    12.011    1.869885    1.181533    1.810718
   5 N   7.0000    0    14.007    4.200752    2.088315    2.434871
   6 C   6.0000    0    12.011    5.678866    1.435107    0.571437
   7 N   7.0000    0    14.007    4.418735    0.144300   -1.236276
   8 C   6.0000    0    12.011   -3.498027    1.346577   -0.388351
   9 O   8.0000    0    15.999   -3.299707    3.035034   -1.924117
  10 O   8.0000    0    15.999   -4.609953    1.650059    1.830266
  11 H   1.0000    0     1.008   -1.374789   -2.515600    2.593584
  12 H   1.0000    0     1.008   -4.408699   -2.943132    2.149211
  13 H   1.0000    0     1.008   -3.945314   -2.121364   -2.262689
  14 H   1.0000    0     1.008    0.586793   -3.299873   -2.369772
  15 H   1.0000    0     1.008   -0.102380   -0.380903   -3.883809
  16 H   1.0000    0     1.008    0.313405    1.493368    3.068000
  17 H   1.0000    0     1.008    7.654675    1.860942    0.473959
  18 H   1.0000    0     1.008    5.125923   -0.551380   -2.861173
  19 H   1.0000    0     1.008   -5.274064    3.355974    2.074069

      -----------------------------------------------------------      
     |                   =====================                   |     
     |                           x T B                           |     
     |                   =====================                   |     
     |                         S. Grimme                         |     
     |          Mulliken Center for Theoretical Chemistry        |     
     |                    University of Bonn                     |     
      -----------------------------------------------------------      

   * xtb version 6.7.1 (edcfbbe) compiled by 'albert@albert-system' on 2024-07-22

   xtb is free software: you can redistribute it and/or modify it under
   the terms of the GNU Lesser General Public License as published by
   the Free Software Foundation, either version 3 of the License, or
   (at your option) any later version.
   
   xtb is distributed in the hope that it will be useful,
   but WITHOUT ANY WARRANTY; without even the implied warranty of
   MERCHANTABILITY or FITNESS FOR A PARTICULAR PURPOSE.  See the
   GNU Lesser General Public License for more details.
   
   Cite this work as:
   * C. Bannwarth, E. Caldeweyher, S. Ehlert, A. Hansen, P. Pracht,
     J. Seibert, S. Spicher, S. Grimme, WIREs Comput. Mol. Sci., 2020, 11,
     e01493. DOI: 10.1002/wcms.1493
   
   for GFN2-xTB:
   * C. Bannwarth, S. Ehlert and S. Grimme., J. Chem. Theory Comput., 2019,
     15, 1652-1671. DOI: 10.1021/acs.jctc.8b01176
   for GFN1-xTB:
   * S. Grimme, C. Bannwarth, P. Shushkov, J. Chem. Theory Comput., 2017,
     13, 1989-2009. DOI: 10.1021/acs.jctc.7b00118
   for GFN0-xTB:
   * P. Pracht, E. Caldeweyher, S. Ehlert, S. Grimme, ChemRxiv, 2019, preprint.
     DOI: 10.26434/chemrxiv.8326202.v1
   for GFN-FF:
   * S. Spicher and S. Grimme, Angew. Chem. Int. Ed., 2020, 59, 15665-15673.
     DOI: 10.1002/anie.202004239
   
   for ALPB and GBSA implicit solvation:
   * S. Ehlert, M. Stahn, S. Spicher, S. Grimme, J. Chem. Theory Comput.,
     2021, 17, 4250-4261. DOI: 10.1021/acs.jctc.1c00471
   
   for ddCOSMO and CPCM-X implicit solvation:
   * M. Stahn, S. Ehlert, S. Grimme, J. Phys. Chem. A,
     2023, XX, XXXX-XXXX. DOI: 10.1021/acs.jpca.3c04382
   
   for DFT-D4:
   * E. Caldeweyher, C. Bannwarth and S. Grimme, J. Chem. Phys., 2017,
     147, 034112. DOI: 10.1063/1.4993215
   * E. Caldeweyher, S. Ehlert, A. Hansen, H. Neugebauer, S. Spicher,
     C. Bannwarth and S. Grimme, J. Chem. Phys., 2019, 150, 154122.
     DOI: 10.1063/1.5090222
   * E. Caldeweyher, J.-M. Mewes, S. Ehlert and S. Grimme, Phys. Chem. Chem. Phys.
     2020, 22, 8499-8512. DOI: 10.1039/D0CP00502A
   
   for sTDA-xTB:
   * S. Grimme and C. Bannwarth, J. Chem. Phys., 2016, 145, 054103.
     DOI: 10.1063/1.4959605
   
   in the mass-spec context:
   * V. Asgeirsson, C. Bauer and S. Grimme, Chem. Sci., 2017, 8, 4879.
     DOI: 10.1039/c7sc00601b
   * J. Koopman and S. Grimme, ACS Omega 2019, 4, 12, 15120-15133.
     DOI: 10.1021/acsomega.9b02011
   
   for metadynamics refer to:
   * S. Grimme, J. Chem. Theory Comput., 2019, 155, 2847-2862
     DOI: 10.1021/acs.jctc.9b00143
   
   for SPH calculations refer to:
   * S. Spicher and S. Grimme, J. Chem. Theory Comput., 2021, 17, 1701-1714
     DOI: 10.1021/acs.jctc.0c01306
   
   for ONIOM refer to:
   * C. Plett, A. Katbashev, S. Ehlert, S. Grimme, M. Bursch,
     Phys. Chem. Chem. Phys., 2023, 25, 17860-17868. DOI: 10.1039/D3CP02178E
   
   for DIPRO refer to:
   * J. Kohn, N. Gildemeister, S. Grimme, D. Fazzi, A. Hansen,
     J. Chem. Phys., 2023, just accepted.
   
   for PTB refer to:
   * S. Grimme, M. Mueller, A. Hansen, J. Chem. Phys., 2023, 158, 124111.
     DOI: 10.1063/5.0137838
   
   with help from (in alphabetical order)
   P. Atkinson, C. Bannwarth, F. Bohle, G. Brandenburg, E. Caldeweyher
   M. Checinski, S. Dohm, S. Ehlert, S. Ehrlich, I. Gerasimov, C. Hölzer
   A. Katbashev, J. Kohn, J. Koopman, C. Lavigne, S. Lehtola, F. März, M. Müller,
   F. Musil, H. Neugebauer, J. Pisarek, C. Plett, P. Pracht, F. Pultar,
   J. Seibert, P. Shushkov, S. Spicher, M. Stahn, M. Steiner, T. Strunk,
   J. Stückrath, T. Rose, and J. Unsleber
   
 * started run on 2026/04/09 at 16:06:43.670     
   ID    Z sym.   atoms
    1    7 N      1, 6, 8
    2    6 C      2-5, 7, 9
    3    8 O      10, 11
    4    1 H      12-20

           -------------------------------------------------
          |                Calculation Setup                |
           -------------------------------------------------

          program call               : /home/analima/Programs/orca-6.1.0-f.0_linux_x86-64/bin/otool_xtb geo_opt_XTB.xyz --grad -c 0 -u 0 -P 1 --namespace geo_opt --input geo_opt_XTB.input.tmp --alpb WATER --acc 0.200000
          calculation namespace      : geo_opt
          coordinate file            : geo_opt_XTB.xyz
          omp threads                :                     1


           -------------------------------------------------
          |                 G F N 2 - x T B                 |
           -------------------------------------------------

        Reference                      10.1021/acs.jctc.8b01176
      * Hamiltonian:
        H0-scaling (s, p, d)           1.850000    2.230000    2.230000
        zeta-weighting                 0.500000
      * Dispersion:
        s8                             2.700000
        a1                             0.520000
        a2                             5.000000
        s9                             5.000000
      * Repulsion:
        kExp                           1.500000    1.000000
        rExp                           1.000000
      * Coulomb:
        alpha                          2.000000
        third order                    shell-resolved
        anisotropic                    true
        a3                             3.000000
        a5                             4.000000
        cn-shift                       1.200000
        cn-exp                         4.000000
        max-rad                        5.000000

      * Solvation model:               ALPB
        Solvent                        WATER
        Parameter file                 internal GFN2-xTB/ALPB
        Dielectric constant                8.0200E+01
        Reference state                gsolv [1 M gas/solution]
        Free energy shift                  1.0808E-03 Eh       6.7819E-01 kcal/mol
        Temperature                        2.9815E+02 K
        Density                            1.0000E+00 kg/L
        Solvent mass                       1.8000E+01 g/mol
        Interaction kernel             P16
        Born radius scaling (c1)           1.4744E+00
        Born radii integrator          GBOBC
        Born offset                        0.0000E+00 a0       0.0000E+00 AA
        H-bond correction              true
        Ion screening                  false
        Surface tension                    1.0000E-05 Eh       1.5569E+01 dyn/cm
        Grid points                               230 per atom
q/qsh data taken from xtbrestart
CAMM data taken from xtbrestart

          ...................................................
          :                      SETUP                      :
          :.................................................:
          :  # basis functions                  53          :
          :  # atomic orbitals                  53          :
          :  # shells                           31          :
          :  # electrons                        60          :
          :  max. iterations                   250          :
          :  Hamiltonian                  GFN2-xTB          :
          :  restarted?                       true          :
          :  GBSA solvation                   true          :
          :  PC potential                    false          :
          :  electronic temp.          300.0000000     K    :
          :  accuracy                    0.2000000          :
          :  -> integral cutoff          0.3198970E+02      :
          :  -> integral neglect         0.2000000E-08      :
          :  -> SCF convergence          0.2000000E-06 Eh   :
          :  -> wf. convergence          0.2000000E-04 e    :
          :  Broyden damping             0.4000000          :
          :  net charge                          0          :
          :  unpaired electrons                  0          :
          ...................................................

 iter      E             dE          RMSdq      gap      omega  full diag
   1    -34.7643221 -0.347643E+02  0.589E-02    3.52       0.0  T
   2    -34.7643228 -0.765074E-06  0.346E-02    3.52       1.0  T
   3    -34.7643225  0.319045E-06  0.707E-03    3.52       3.2  T
   4    -34.7643232 -0.670013E-06  0.221E-03    3.52      10.1  T
   5    -34.7643232 -0.952868E-08  0.117E-03    3.52      19.1  T
   6    -34.7643232 -0.303948E-08  0.305E-04    3.52      73.3  T
   7    -34.7643232 -0.426624E-09  0.152E-04    3.52     147.5  T
   8    -34.7643232 -0.455529E-10  0.677E-05    3.52     330.1  T

   *** convergence criteria satisfied after 8 iterations ***

         #    Occupation            Energy/Eh            Energy/eV
      -------------------------------------------------------------
         1        2.0000           -0.7535023             -20.5038
       ...           ...                  ...                  ...
        24        2.0000           -0.4658306             -12.6759
        25        2.0000           -0.4520264             -12.3003
        26        2.0000           -0.4447316             -12.1018
        27        2.0000           -0.4278815             -11.6432
        28        2.0000           -0.3820240             -10.3954
        29        2.0000           -0.3808385             -10.3631
        30        2.0000           -0.3740104             -10.1773 (HOMO)
        31                         -0.2447376              -6.6596 (LUMO)
        32                         -0.1997825              -5.4364
        33                         -0.1660834              -4.5194
        34                          0.0193577               0.5267
        35                          0.0328632               0.8943
       ...                                ...                  ...
        53                          0.6296095              17.1325
      -------------------------------------------------------------
                  HL-Gap            0.1292728 Eh            3.5177 eV
             Fermi-level           -0.3093740 Eh           -8.4185 eV

 SCC (total)                   0 d,  0 h,  0 min,  0.008 sec
 SCC setup                      ...        0 min,  0.000 sec (  3.007%)
 Dispersion                     ...        0 min,  0.000 sec (  0.676%)
 classical contributions        ...        0 min,  0.000 sec (  0.152%)
 integral evaluation            ...        0 min,  0.001 sec ( 11.559%)
 iterations                     ...        0 min,  0.004 sec ( 51.653%)
 molecular gradient             ...        0 min,  0.003 sec ( 32.259%)
 printout                       ...        0 min,  0.000 sec (  0.577%)

         :::::::::::::::::::::::::::::::::::::::::::::::::::::
         ::                     SUMMARY                     ::
         :::::::::::::::::::::::::::::::::::::::::::::::::::::
         :: total energy             -34.364218176423 Eh    ::
         :: total w/o Gsasa/hb       -34.349949279843 Eh    ::
         :: gradient norm              0.002105374242 Eh/a0 ::
         :: HOMO-LUMO gap              3.517691619474 eV    ::
         ::.................................................::
         :: SCC energy               -34.764219709724 Eh    ::
         :: -> isotropic ES            0.095851925925 Eh    ::
         :: -> anisotropic ES          0.003351504461 Eh    ::
         :: -> anisotropic XC          0.015637559906 Eh    ::
         :: -> dispersion             -0.016898800188 Eh    ::
         :: -> Gsolv                  -0.030218070275 Eh    ::
         ::    -> Gelec               -0.015949173696 Eh    ::
         ::    -> Gsasa               -0.002439535640 Eh    ::
         ::    -> Ghb                 -0.012910120638 Eh    ::
         ::    -> Gshift               0.001080759698 Eh    ::
         :: repulsion energy           0.400001533302 Eh    ::
         :: add. restraining           0.000000000000 Eh    ::
         :: total charge               0.000000000000 e     ::
         :::::::::::::::::::::::::::::::::::::::::::::::::::::


Property printout bound to 'properties.out'

           -------------------------------------------------
          | TOTAL ENERGY              -34.364218176423 Eh   |
          | GRADIENT NORM               0.002105374242 Eh/α |
          | HOMO-LUMO GAP               3.517691619474 eV   |
           -------------------------------------------------

------------------------------------------------------------------------
 * finished run on 2026/04/09 at 16:06:43.684     
------------------------------------------------------------------------
 total:
 * wall-time:     0 d,  0 h,  0 min,  0.014 sec
 *  cpu-time:     0 d,  0 h,  0 min,  0.012 sec
 * ratio c/w:     0.827 speedup
 SCF:
 * wall-time:     0 d,  0 h,  0 min,  0.008 sec
 *  cpu-time:     0 d,  0 h,  0 min,  0.007 sec
 * ratio c/w:     0.840 speedup


-------------------------   --------------------
FINAL SINGLE POINT ENERGY       -34.364218176420
-------------------------   --------------------


-------------
DIPOLE MOMENT
-------------
                                X             Y             Z
Total Dipole Moment    :     -0.25100      -0.90400      -0.69400
                        -----------------------------------------
Magnitude (a.u.)       :      1.16698
Magnitude (Debye)      :      2.96624


------------------
CARTESIAN GRADIENT
------------------

   1   N   :    0.000471879   -0.000364077   -0.000044288
   2   C   :   -0.000554974    0.000420413    0.000390152
   3   C   :    0.000013623   -0.000295528   -0.000124207
   4   C   :   -0.000432085    0.000440594   -0.000042814
   5   C   :   -0.000282100   -0.000549709   -0.000220746
   6   N   :   -0.000074066    0.000174563    0.000216292
   7   C   :   -0.000194020   -0.000066333   -0.000054847
   8   N   :    0.000881613    0.000085275    0.000011069
   9   C   :    0.000684574    0.000363580   -0.000362074
  10   O   :   -0.000171926    0.000004208   -0.000134762
  11   O   :    0.000083913   -0.000379457    0.000235563
  12   H   :    0.000034347    0.000124383   -0.000070680
  13   H   :   -0.000240969    0.000134435   -0.000316325
  14   H   :   -0.000050400   -0.000187286    0.000052141
  15   H   :   -0.000119604   -0.000103723    0.000290391
  16   H   :    0.000164672    0.000015308    0.000062374
  17   H   :    0.000136348    0.000144246    0.000163800
  18   H   :    0.000120231    0.000010952   -0.000000326
  19   H   :   -0.000244189   -0.000061371   -0.000166718
  20   H   :   -0.000226867    0.000089526    0.000116003

Difference to translation invariance:
           :    0.0000000000    0.0000000000    0.0000000000

Difference to rotation invariance:
           :    0.0000777396   -0.0002790250    0.0000774206

Norm of the Cartesian gradient     ...    0.0021053742
RMS gradient                       ...    0.0002718026
MAX gradient                       ...    0.0008816132
------------------------------------------------------------------------------
                         ORCA GEOMETRY RELAXATION STEP
------------------------------------------------------------------------------

Reading the OPT-File                    .... done
Getting information on internals        .... done
Copying old internal coords+grads       .... done
Making the new internal coordinates     .... (2022 redundants) done
Validating the new internal coordinates .... (2022 redundants) done
Calculating the B-matrix                .... done
Calculating the G,G- and P matrices     .... done
Transforming gradient to internals      .... done
Projecting the internal gradient        .... done
Number of atoms                         ....  20
Number of internal coordinates          ....  92
Current Energy                          ....   -34.364218176 Eh
Current gradient norm                   ....     0.002105374 Eh/bohr
Maximum allowed component of the step   ....  0.300
Current trust radius                    ....  0.700
Updating the Hessian (BFGS)             .... done
Forming the augmented Hessian           .... done
Diagonalizing the augmented Hessian     .... done
Last element of RFO vector              ....  0.996087959
Lowest eigenvalues of augmented Hessian:
 -0.000049787  0.002672878  0.005693130  0.014924481  0.017747337
Length of the computed step             ....  0.088714345
The final length of the internal step   ....  0.088714345
Converting the step to Cartesian space:
 Initial RMS(Int)=    0.0092491099
Transforming coordinates:
 Iter   0:  RMS(Cart)=    0.0179358856 RMS(Int)=    0.0092276989
done
Storing new coordinates                 .... done
The predicted energy change is          ....    -0.000025090
Previously predicted energy change      ....    -0.000039490
Actually observed energy change         ....    -0.000043145
Ratio of predicted to observed change   ....     1.092562803
New trust radius                        ....     0.700000000

                                .--------------------.
          ----------------------|Geometry convergence|-------------------------
          Item                value                   Tolerance       Converged
          ---------------------------------------------------------------------
          Energy change      -0.0000431449            0.0000050000      NO
          RMS gradient        0.0001605080            0.0001000000      NO
          MAX gradient        0.0004573067            0.0003000000      NO
          RMS step            0.0092491099            0.0020000000      NO
          MAX step            0.0321625348            0.0040000000      NO
          -------------------------------------------------------------------------
          ........................................................
          Max(Bonds)      0.0053      Max(Angles)    0.39
          Max(Dihed)        1.84      Max(Improp)    0.00
          ---------------------------------------------------------------------

The optimization has not yet converged - more geometry cycles are needed


    ---------------------------------------------------------------------------
                         Redundant Internal Coordinates
                            (Angstroem and degrees)

        Definition                    Value    dE/dq     Step     New-Value
    ----------------------------------------------------------------------------
     1. B(C   1,N   0)                1.4476 -0.000157 -0.0001    1.4476   
     2. B(C   2,C   1)                1.5343 -0.000077  0.0010    1.5353   
     3. B(C   3,C   2)                1.4917 -0.000044 -0.0002    1.4914   
     4. B(C   4,C   3)                1.3684 -0.000120  0.0003    1.3687   
     5. B(N   5,C   4)                1.3641  0.000094 -0.0004    1.3637   
     6. B(C   6,N   5)                1.3052  0.000188  0.0001    1.3053   
     7. B(N   7,C   3)                1.3713  0.000457 -0.0010    1.3704   
     8. B(N   7,C   6)                1.3514 -0.000037 -0.0000    1.3514   
     9. B(C   8,C   1)                1.5286  0.000111 -0.0008    1.5278   
    10. B(O   9,C   8)                1.2124  0.000077  0.0003    1.2126   
    11. B(O  10,C   8)                1.3230  0.000358 -0.0007    1.3223   
    12. B(H  11,N   0)                1.0141  0.000013 -0.0002    1.0138   
    13. B(H  12,N   0)                1.0137  0.000073 -0.0004    1.0134   
    14. B(H  12,O  10)                2.4388 -0.000182  0.0053    2.4441   
    15. B(H  13,C   1)                1.1003  0.000064 -0.0001    1.1002   
    16. B(H  14,C   2)                1.0917  0.000022 -0.0000    1.0917   
    17. B(H  15,C   2)                1.0928 -0.000059  0.0001    1.0929   
    18. B(H  16,C   4)                1.0716  0.000017 -0.0001    1.0715   
    19. B(H  17,C   6)                1.0708  0.000120 -0.0001    1.0707   
    20. B(H  18,N   7)                1.0074  0.000077 -0.0000    1.0074   
    21. B(H  19,O  10)                0.9773  0.000181 -0.0001    0.9772   
    22. A(C   1,N   0,H  12)          109.98 -0.000334    0.39    110.37   
    23. A(H  11,N   0,H  12)          107.79  0.000258    0.04    107.82   
    24. A(C   1,N   0,H  11)          110.09 -0.000150    0.03    110.12   
    25. A(N   0,C   1,C   8)          116.06  0.000380    0.02    116.08   
    26. A(C   8,C   1,H  13)          104.81  0.000037   -0.03    104.78   
    27. A(N   0,C   1,H  13)          107.06 -0.000173    0.17    107.22   
    28. A(C   2,C   1,H  13)          107.67  0.000139   -0.13    107.55   
    29. A(C   2,C   1,C   8)          109.71  0.000034   -0.20    109.51   
    30. A(N   0,C   1,C   2)          111.00 -0.000405    0.16    111.16   
    31. A(C   3,C   2,H  15)          108.89 -0.000138    0.06    108.95   
    32. A(C   3,C   2,H  14)          109.76  0.000092    0.02    109.78   
    33. A(C   1,C   2,H  14)          107.68 -0.000114    0.01    107.69   
    34. A(H  14,C   2,H  15)          108.95  0.000104   -0.00    108.94   
    35. A(C   1,C   2,C   3)          113.06 -0.000120   -0.02    113.04   
    36. A(C   1,C   2,H  15)          108.42  0.000185   -0.06    108.36   
    37. A(C   4,C   3,N   7)          104.94  0.000051    0.01    104.94   
    38. A(C   2,C   3,N   7)          121.12  0.000044    0.23    121.35   
    39. A(C   2,C   3,C   4)          133.94 -0.000095   -0.24    133.71   
    40. A(N   5,C   4,H  16)          119.37 -0.000261    0.31    119.69   
    41. A(C   3,C   4,H  16)          130.07  0.000260   -0.31    129.76   
    42. A(C   3,C   4,N   5)          110.55  0.000001   -0.00    110.55   
    43. A(C   4,N   5,C   6)          105.41  0.000029   -0.02    105.40   
    44. A(N   5,C   6,H  17)          124.46 -0.000008   -0.01    124.44   
    45. A(N   5,C   6,N   7)          111.90  0.000031    0.00    111.90   
    46. A(N   7,C   6,H  17)          123.65 -0.000024    0.01    123.66   
    47. A(C   3,N   7,H  18)          125.53 -0.000217    0.15    125.68   
    48. A(C   6,N   7,H  18)          127.27  0.000328   -0.16    127.11   
    49. A(C   3,N   7,C   6)          107.20 -0.000112    0.01    107.21   
    50. A(O   9,C   8,O  10)          122.95  0.000231   -0.02    122.92   
    51. A(C   1,C   8,O  10)          113.15 -0.000447    0.24    113.39   
    52. A(C   1,C   8,O   9)          123.84  0.000207   -0.20    123.64   
    53. A(C   8,O  10,H  19)          112.91  0.000293    0.02    112.92   
    54. D(C   2,C   1,N   0,H  11)     57.48  0.000136   -1.84     55.64   
    55. D(C   8,C   1,N   0,H  11)    -68.66  0.000130   -1.73    -70.39   
    56. D(C   8,C   1,N   0,H  12)     49.96  0.000150   -1.41     48.55   
    57. D(H  13,C   1,N   0,H  11)    174.74 -0.000019   -1.81    172.93   
    58. D(C   2,C   1,N   0,H  12)    176.10  0.000155   -1.53    174.57   
    59. D(C   3,C   2,C   1,N   0)    -70.83 -0.000223    0.80    -70.04   
    60. D(C   3,C   2,C   1,C   8)     58.76 -0.000008    0.80     59.55   
    61. D(H  14,C   2,C   1,C   8)   -179.82 -0.000046    0.81   -179.01   
    62. D(H  14,C   2,C   1,N   0)     50.58 -0.000261    0.82     51.40   
    63. D(H  14,C   2,C   1,H  13)    -66.29  0.000088    0.61    -65.69   
    64. D(C   3,C   2,C   1,H  13)    172.29  0.000127    0.59    172.88   
    65. D(C   4,C   3,C   2,H  15)    119.43  0.000103   -0.60    118.83   
    66. D(C   4,C   3,C   2,H  14)   -121.39  0.000201   -0.55   -121.94   
    67. D(C   4,C   3,C   2,C   1)     -1.15  0.000042   -0.54     -1.69   
    68. D(N   7,C   3,C   2,C   1)    179.25 -0.000016   -0.54    178.71   
    69. D(N   7,C   3,C   2,H  14)     59.00  0.000144   -0.54     58.46   
    70. D(H  16,C   4,C   3,N   7)    179.85  0.000007   -0.05    179.80   
    71. D(H  16,C   4,C   3,C   2)      0.20 -0.000044   -0.05      0.15   
    72. D(N   5,C   4,C   3,N   7)      0.22  0.000046   -0.02      0.20   
    73. D(N   5,C   4,C   3,C   2)   -179.43 -0.000006   -0.02   -179.45   
    74. D(C   6,N   5,C   4,H  16)   -179.80 -0.000006    0.04   -179.76   
    75. D(C   6,N   5,C   4,C   3)     -0.12 -0.000038    0.01     -0.11   
    76. D(H  17,C   6,N   5,C   4)   -179.94  0.000010   -0.06   -180.00   
    77. D(N   7,C   6,N   5,C   4)     -0.03  0.000015   -0.01     -0.03   
    78. D(C   3,N   7,C   6,H  17)   -179.93  0.000017    0.05   -179.88   
    79. D(C   3,N   7,C   6,N   5)      0.16  0.000013   -0.00      0.16   
    80. D(H  18,N   7,C   3,C   4)   -179.56  0.000006   -0.18   -179.74   
    81. D(H  18,N   7,C   3,C   2)      0.14  0.000048   -0.19     -0.05   
    82. D(C   6,N   7,C   3,C   4)     -0.22 -0.000035    0.01     -0.21   
    83. D(H  18,N   7,C   6,N   5)    179.49 -0.000034    0.19    179.68   
    84. D(C   6,N   7,C   3,C   2)    179.48  0.000007   -0.01    179.48   
    85. D(H  18,N   7,C   6,H  17)     -0.60 -0.000030    0.25     -0.36   
    86. D(O  10,C   8,C   1,C   2)   -137.63  0.000095   -0.92   -138.55   
    87. D(O  10,C   8,C   1,N   0)    -10.84 -0.000124   -0.86    -11.69   
    88. D(O   9,C   8,C   1,H  13)    -70.17  0.000080   -1.01    -71.17   
    89. D(O   9,C   8,C   1,C   2)     45.19  0.000276   -1.26     43.94   
    90. D(O   9,C   8,C   1,N   0)    171.99  0.000057   -1.20    170.79   
    91. D(H  19,O  10,C   8,O   9)      1.14  0.000015   -0.00      1.14   
    92. D(H  19,O  10,C   8,C   1)   -176.07  0.000195   -0.34   -176.41   
    ----------------------------------------------------------------------------

Geometry step timings:
Preparation and reading OPT file:      0.000 s ( 0.760 %)
Internal coordinates            :      0.000 s ( 0.845 %)
B/P matrices and projection     :      0.000 s (36.402 %)
Hessian update/contruction      :      0.000 s (12.078 %)
Making the step                 :      0.000 s (31.841 %)
Converting the step to Cartesian:      0.000 s ( 3.041 %)
Storing new data                :      0.000 s ( 0.929 %)
Checking convergence            :      0.000 s ( 1.182 %)
Final printing                  :      0.000 s (12.922 %)
Total time                      :      0.001 s

Time for energy+gradient        :      0.018 s
Time for complete geometry iter :      0.019 s

         *************************************************************
         *                GEOMETRY OPTIMIZATION CYCLE  14            *
         *************************************************************
---------------------------------
CARTESIAN COORDINATES (ANGSTROEM)
---------------------------------
  N    -1.416004   -1.608533    0.697480
  C    -1.385525   -0.723468   -0.448333
  C     0.007388   -0.702472   -1.093763
  C     1.030558   -0.017649   -0.252040
  C     0.986519    0.620520    0.957999
  N     2.219702    1.096469    1.293404
  C     3.003452    0.753393    0.307592
  N     2.337499    0.075647   -0.653388
  C    -1.855738    0.710945   -0.207145
  O    -1.735724    1.601557   -1.021291
  O    -2.455796    0.881174    0.958857
  H    -0.697769   -1.343276    1.362053
  H    -2.311295   -1.548750    1.168341
  H    -2.089524   -1.128141   -1.190712
  H     0.306783   -1.737381   -1.270183
  H    -0.065903   -0.185702   -2.053989
  H     0.157870    0.781979    1.617822
  H     4.049233    0.977688    0.259125
  H     2.716072   -0.290962   -1.511992
  H    -2.801798    1.786963    1.080162

----------------------------
CARTESIAN COORDINATES (A.U.)
----------------------------
  NO LB    ZA    FRAG    MASS        X           Y           Z
   0 N   7.0000    0    14.007   -2.675860   -3.039686    1.318045
   1 C   6.0000    0    12.011   -2.618263   -1.367157   -0.847226
   2 C   6.0000    0    12.011    0.013961   -1.327480   -2.066913
   3 C   6.0000    0    12.011    1.947472   -0.033352   -0.476287
   4 C   6.0000    0    12.011    1.864251    1.172613    1.810356
   5 N   7.0000    0    14.007    4.194629    2.072025    2.444180
   6 C   6.0000    0    12.011    5.675702    1.423706    0.581264
   7 N   7.0000    0    14.007    4.417233    0.142952   -1.234724
   8 C   6.0000    0    12.011   -3.506836    1.343491   -0.391447
   9 O   8.0000    0    15.999   -3.280043    3.026505   -1.929961
  10 O   8.0000    0    15.999   -4.640782    1.665178    1.811978
  11 H   1.0000    0     1.008   -1.318593   -2.538424    2.573907
  12 H   1.0000    0     1.008   -4.367715   -2.926714    2.207844
  13 H   1.0000    0     1.008   -3.948628   -2.131877   -2.250119
  14 H   1.0000    0     1.008    0.579736   -3.283173   -2.400298
  15 H   1.0000    0     1.008   -0.124539   -0.350926   -3.881477
  16 H   1.0000    0     1.008    0.298332    1.477725    3.057241
  17 H   1.0000    0     1.008    7.651942    1.847563    0.489676
  18 H   1.0000    0     1.008    5.132633   -0.549839   -2.857250
  19 H   1.0000    0     1.008   -5.294631    3.376871    2.041211

      -----------------------------------------------------------      
     |                   =====================                   |     
     |                           x T B                           |     
     |                   =====================                   |     
     |                         S. Grimme                         |     
     |          Mulliken Center for Theoretical Chemistry        |     
     |                    University of Bonn                     |     
      -----------------------------------------------------------      

   * xtb version 6.7.1 (edcfbbe) compiled by 'albert@albert-system' on 2024-07-22

   xtb is free software: you can redistribute it and/or modify it under
   the terms of the GNU Lesser General Public License as published by
   the Free Software Foundation, either version 3 of the License, or
   (at your option) any later version.
   
   xtb is distributed in the hope that it will be useful,
   but WITHOUT ANY WARRANTY; without even the implied warranty of
   MERCHANTABILITY or FITNESS FOR A PARTICULAR PURPOSE.  See the
   GNU Lesser General Public License for more details.
   
   Cite this work as:
   * C. Bannwarth, E. Caldeweyher, S. Ehlert, A. Hansen, P. Pracht,
     J. Seibert, S. Spicher, S. Grimme, WIREs Comput. Mol. Sci., 2020, 11,
     e01493. DOI: 10.1002/wcms.1493
   
   for GFN2-xTB:
   * C. Bannwarth, S. Ehlert and S. Grimme., J. Chem. Theory Comput., 2019,
     15, 1652-1671. DOI: 10.1021/acs.jctc.8b01176
   for GFN1-xTB:
   * S. Grimme, C. Bannwarth, P. Shushkov, J. Chem. Theory Comput., 2017,
     13, 1989-2009. DOI: 10.1021/acs.jctc.7b00118
   for GFN0-xTB:
   * P. Pracht, E. Caldeweyher, S. Ehlert, S. Grimme, ChemRxiv, 2019, preprint.
     DOI: 10.26434/chemrxiv.8326202.v1
   for GFN-FF:
   * S. Spicher and S. Grimme, Angew. Chem. Int. Ed., 2020, 59, 15665-15673.
     DOI: 10.1002/anie.202004239
   
   for ALPB and GBSA implicit solvation:
   * S. Ehlert, M. Stahn, S. Spicher, S. Grimme, J. Chem. Theory Comput.,
     2021, 17, 4250-4261. DOI: 10.1021/acs.jctc.1c00471
   
   for ddCOSMO and CPCM-X implicit solvation:
   * M. Stahn, S. Ehlert, S. Grimme, J. Phys. Chem. A,
     2023, XX, XXXX-XXXX. DOI: 10.1021/acs.jpca.3c04382
   
   for DFT-D4:
   * E. Caldeweyher, C. Bannwarth and S. Grimme, J. Chem. Phys., 2017,
     147, 034112. DOI: 10.1063/1.4993215
   * E. Caldeweyher, S. Ehlert, A. Hansen, H. Neugebauer, S. Spicher,
     C. Bannwarth and S. Grimme, J. Chem. Phys., 2019, 150, 154122.
     DOI: 10.1063/1.5090222
   * E. Caldeweyher, J.-M. Mewes, S. Ehlert and S. Grimme, Phys. Chem. Chem. Phys.
     2020, 22, 8499-8512. DOI: 10.1039/D0CP00502A
   
   for sTDA-xTB:
   * S. Grimme and C. Bannwarth, J. Chem. Phys., 2016, 145, 054103.
     DOI: 10.1063/1.4959605
   
   in the mass-spec context:
   * V. Asgeirsson, C. Bauer and S. Grimme, Chem. Sci., 2017, 8, 4879.
     DOI: 10.1039/c7sc00601b
   * J. Koopman and S. Grimme, ACS Omega 2019, 4, 12, 15120-15133.
     DOI: 10.1021/acsomega.9b02011
   
   for metadynamics refer to:
   * S. Grimme, J. Chem. Theory Comput., 2019, 155, 2847-2862
     DOI: 10.1021/acs.jctc.9b00143
   
   for SPH calculations refer to:
   * S. Spicher and S. Grimme, J. Chem. Theory Comput., 2021, 17, 1701-1714
     DOI: 10.1021/acs.jctc.0c01306
   
   for ONIOM refer to:
   * C. Plett, A. Katbashev, S. Ehlert, S. Grimme, M. Bursch,
     Phys. Chem. Chem. Phys., 2023, 25, 17860-17868. DOI: 10.1039/D3CP02178E
   
   for DIPRO refer to:
   * J. Kohn, N. Gildemeister, S. Grimme, D. Fazzi, A. Hansen,
     J. Chem. Phys., 2023, just accepted.
   
   for PTB refer to:
   * S. Grimme, M. Mueller, A. Hansen, J. Chem. Phys., 2023, 158, 124111.
     DOI: 10.1063/5.0137838
   
   with help from (in alphabetical order)
   P. Atkinson, C. Bannwarth, F. Bohle, G. Brandenburg, E. Caldeweyher
   M. Checinski, S. Dohm, S. Ehlert, S. Ehrlich, I. Gerasimov, C. Hölzer
   A. Katbashev, J. Kohn, J. Koopman, C. Lavigne, S. Lehtola, F. März, M. Müller,
   F. Musil, H. Neugebauer, J. Pisarek, C. Plett, P. Pracht, F. Pultar,
   J. Seibert, P. Shushkov, S. Spicher, M. Stahn, M. Steiner, T. Strunk,
   J. Stückrath, T. Rose, and J. Unsleber
   
 * started run on 2026/04/09 at 16:06:43.689     
   ID    Z sym.   atoms
    1    7 N      1, 6, 8
    2    6 C      2-5, 7, 9
    3    8 O      10, 11
    4    1 H      12-20

           -------------------------------------------------
          |                Calculation Setup                |
           -------------------------------------------------

          program call               : /home/analima/Programs/orca-6.1.0-f.0_linux_x86-64/bin/otool_xtb geo_opt_XTB.xyz --grad -c 0 -u 0 -P 1 --namespace geo_opt --input geo_opt_XTB.input.tmp --alpb WATER --acc 0.200000
          calculation namespace      : geo_opt
          coordinate file            : geo_opt_XTB.xyz
          omp threads                :                     1


           -------------------------------------------------
          |                 G F N 2 - x T B                 |
           -------------------------------------------------

        Reference                      10.1021/acs.jctc.8b01176
      * Hamiltonian:
        H0-scaling (s, p, d)           1.850000    2.230000    2.230000
        zeta-weighting                 0.500000
      * Dispersion:
        s8                             2.700000
        a1                             0.520000
        a2                             5.000000
        s9                             5.000000
      * Repulsion:
        kExp                           1.500000    1.000000
        rExp                           1.000000
      * Coulomb:
        alpha                          2.000000
        third order                    shell-resolved
        anisotropic                    true
        a3                             3.000000
        a5                             4.000000
        cn-shift                       1.200000
        cn-exp                         4.000000
        max-rad                        5.000000

      * Solvation model:               ALPB
        Solvent                        WATER
        Parameter file                 internal GFN2-xTB/ALPB
        Dielectric constant                8.0200E+01
        Reference state                gsolv [1 M gas/solution]
        Free energy shift                  1.0808E-03 Eh       6.7819E-01 kcal/mol
        Temperature                        2.9815E+02 K
        Density                            1.0000E+00 kg/L
        Solvent mass                       1.8000E+01 g/mol
        Interaction kernel             P16
        Born radius scaling (c1)           1.4744E+00
        Born radii integrator          GBOBC
        Born offset                        0.0000E+00 a0       0.0000E+00 AA
        H-bond correction              true
        Ion screening                  false
        Surface tension                    1.0000E-05 Eh       1.5569E+01 dyn/cm
        Grid points                               230 per atom
q/qsh data taken from xtbrestart
CAMM data taken from xtbrestart

          ...................................................
          :                      SETUP                      :
          :.................................................:
          :  # basis functions                  53          :
          :  # atomic orbitals                  53          :
          :  # shells                           31          :
          :  # electrons                        60          :
          :  max. iterations                   250          :
          :  Hamiltonian                  GFN2-xTB          :
          :  restarted?                       true          :
          :  GBSA solvation                   true          :
          :  PC potential                    false          :
          :  electronic temp.          300.0000000     K    :
          :  accuracy                    0.2000000          :
          :  -> integral cutoff          0.3198970E+02      :
          :  -> integral neglect         0.2000000E-08      :
          :  -> SCF convergence          0.2000000E-06 Eh   :
          :  -> wf. convergence          0.2000000E-04 e    :
          :  Broyden damping             0.4000000          :
          :  net charge                          0          :
          :  unpaired electrons                  0          :
          ...................................................

 iter      E             dE          RMSdq      gap      omega  full diag
   1    -34.7644967 -0.347645E+02  0.424E-02    3.51       0.0  T
   2    -34.7644973 -0.645001E-06  0.248E-02    3.51       1.0  T
   3    -34.7644971  0.260708E-06  0.597E-03    3.51       3.7  T
   4    -34.7644975 -0.439922E-06  0.175E-03    3.51      12.8  T
   5    -34.7644975 -0.172802E-07  0.805E-04    3.51      27.8  T
   6    -34.7644975 -0.119049E-08  0.361E-04    3.51      62.0  T
   7    -34.7644975 -0.469953E-09  0.120E-04    3.51     187.1  T
   8    -34.7644975 -0.716085E-10  0.550E-05    3.51     406.6  T

   *** convergence criteria satisfied after 8 iterations ***

         #    Occupation            Energy/Eh            Energy/eV
      -------------------------------------------------------------
         1        2.0000           -0.7535019             -20.5038
       ...           ...                  ...                  ...
        24        2.0000           -0.4659384             -12.6788
        25        2.0000           -0.4524071             -12.3106
        26        2.0000           -0.4443960             -12.0926
        27        2.0000           -0.4280401             -11.6476
        28        2.0000           -0.3820113             -10.3951
        29        2.0000           -0.3808201             -10.3626
        30        2.0000           -0.3735915             -10.1659 (HOMO)
        31                         -0.2445203              -6.6537 (LUMO)
        32                         -0.1997548              -5.4356
        33                         -0.1661324              -4.5207
        34                          0.0192302               0.5233
        35                          0.0327535               0.8913
       ...                                ...                  ...
        53                          0.6283457              17.0982
      -------------------------------------------------------------
                  HL-Gap            0.1290712 Eh            3.5122 eV
             Fermi-level           -0.3090559 Eh           -8.4098 eV

 SCC (total)                   0 d,  0 h,  0 min,  0.012 sec
 SCC setup                      ...        0 min,  0.000 sec (  3.244%)
 Dispersion                     ...        0 min,  0.000 sec (  0.912%)
 classical contributions        ...        0 min,  0.000 sec (  0.187%)
 integral evaluation            ...        0 min,  0.002 sec ( 15.458%)
 iterations                     ...        0 min,  0.006 sec ( 48.837%)
 molecular gradient             ...        0 min,  0.004 sec ( 30.821%)
 printout                       ...        0 min,  0.000 sec (  0.431%)

         :::::::::::::::::::::::::::::::::::::::::::::::::::::
         ::                     SUMMARY                     ::
         :::::::::::::::::::::::::::::::::::::::::::::::::::::
         :: total energy             -34.364226439191 Eh    ::
         :: total w/o Gsasa/hb       -34.349923813540 Eh    ::
         :: gradient norm              0.001622185028 Eh/a0 ::
         :: HOMO-LUMO gap              3.512206409134 eV    ::
         ::.................................................::
         :: SCC energy               -34.764394167514 Eh    ::
         :: -> isotropic ES            0.095929028599 Eh    ::
         :: -> anisotropic ES          0.003337156285 Eh    ::
         :: -> anisotropic XC          0.015583721960 Eh    ::
         :: -> dispersion             -0.016908386315 Eh    ::
         :: -> Gsolv                  -0.030238265345 Eh    ::
         ::    -> Gelec               -0.015935639694 Eh    ::
         ::    -> Gsasa               -0.002444576591 Eh    ::
         ::    -> Ghb                 -0.012938808758 Eh    ::
         ::    -> Gshift               0.001080759698 Eh    ::
         :: repulsion energy           0.400167728323 Eh    ::
         :: add. restraining           0.000000000000 Eh    ::
         :: total charge               0.000000000000 e     ::
         :::::::::::::::::::::::::::::::::::::::::::::::::::::


Property printout bound to 'properties.out'

           -------------------------------------------------
          | TOTAL ENERGY              -34.364226439191 Eh   |
          | GRADIENT NORM               0.001622185028 Eh/α |
          | HOMO-LUMO GAP               3.512206409134 eV   |
           -------------------------------------------------

------------------------------------------------------------------------
 * finished run on 2026/04/09 at 16:06:43.707     
------------------------------------------------------------------------
 total:
 * wall-time:     0 d,  0 h,  0 min,  0.018 sec
 *  cpu-time:     0 d,  0 h,  0 min,  0.016 sec
 * ratio c/w:     0.906 speedup
 SCF:
 * wall-time:     0 d,  0 h,  0 min,  0.012 sec
 *  cpu-time:     0 d,  0 h,  0 min,  0.011 sec
 * ratio c/w:     0.889 speedup


-------------------------   --------------------
FINAL SINGLE POINT ENERGY       -34.364226439190
-------------------------   --------------------


-------------
DIPOLE MOMENT
-------------
                                X             Y             Z
Total Dipole Moment    :     -0.24100      -0.89300      -0.69700
                        -----------------------------------------
Magnitude (a.u.)       :      1.15816
Magnitude (Debye)      :      2.94381


------------------
CARTESIAN GRADIENT
------------------

   1   N   :   -0.000223444   -0.000051172    0.000497189
   2   C   :   -0.000569945    0.000235392   -0.000158296
   3   C   :    0.000323409    0.000250972   -0.000243516
   4   C   :    0.000175527    0.000343548   -0.000441255
   5   C   :   -0.000061908   -0.000281487    0.000212399
   6   N   :   -0.000015860    0.000011081    0.000020547
   7   C   :   -0.000127127   -0.000126529   -0.000182600
   8   N   :    0.000227193    0.000191419    0.000316570
   9   C   :   -0.000052787   -0.000267818   -0.000025890
  10   O   :    0.000169853   -0.000143320    0.000042264
  11   O   :    0.000094960    0.000461657   -0.000163354
  12   H   :    0.000035991   -0.000081838   -0.000191230
  13   H   :    0.000136109   -0.000382144    0.000217739
  14   H   :    0.000177645   -0.000007778   -0.000098026
  15   H   :   -0.000189228   -0.000087028    0.000300340
  16   H   :    0.000167995    0.000054401   -0.000001522
  17   H   :   -0.000091310   -0.000153173   -0.000200678
  18   H   :    0.000033538    0.000031555   -0.000002420
  19   H   :   -0.000058610   -0.000047529   -0.000060224
  20   H   :   -0.000152001    0.000049790    0.000161963

Difference to translation invariance:
           :    0.0000000000    0.0000000000    0.0000000000

Difference to rotation invariance:
           :    0.0000699874   -0.0002072008    0.0000374237

Norm of the Cartesian gradient     ...    0.0016221850
RMS gradient                       ...    0.0002094232
MAX gradient                       ...    0.0005699454
------------------------------------------------------------------------------
                         ORCA GEOMETRY RELAXATION STEP
------------------------------------------------------------------------------

Reading the OPT-File                    .... done
Getting information on internals        .... done
Copying old internal coords+grads       .... done
Making the new internal coordinates     .... (2022 redundants) done
Validating the new internal coordinates .... (2022 redundants) done
Calculating the B-matrix                .... done
Calculating the G,G- and P matrices     .... done
Transforming gradient to internals      .... done
Projecting the internal gradient        .... done
Number of atoms                         ....  20
Number of internal coordinates          ....  92
Current Energy                          ....   -34.364226439 Eh
Current gradient norm                   ....     0.001622185 Eh/bohr
Maximum allowed component of the step   ....  0.300
Current trust radius                    ....  0.700
Updating the Hessian (BFGS)             .... done
Forming the augmented Hessian           .... done
Diagonalizing the augmented Hessian     .... done
Last element of RFO vector              ....  0.999359160
Lowest eigenvalues of augmented Hessian:
 -0.000025723  0.002873837  0.007582464  0.014812076  0.017947371
Length of the computed step             ....  0.035817782
The final length of the internal step   ....  0.035817782
Converting the step to Cartesian space:
 Initial RMS(Int)=    0.0037342619
Transforming coordinates:
 Iter   0:  RMS(Cart)=    0.0088393811 RMS(Int)=    0.0037300125
done
Storing new coordinates                 .... done
The predicted energy change is          ....    -0.000012878
Previously predicted energy change      ....    -0.000025090
Actually observed energy change         ....    -0.000008263
Ratio of predicted to observed change   ....     0.329330497
New trust radius                        ....     0.466666667

                                .--------------------.
          ----------------------|Geometry convergence|-------------------------
          Item                value                   Tolerance       Converged
          ---------------------------------------------------------------------
          Energy change      -0.0000082628            0.0000050000      NO
          RMS gradient        0.0001676012            0.0001000000      NO
          MAX gradient        0.0006545296            0.0003000000      NO
          RMS step            0.0037342619            0.0020000000      NO
          MAX step            0.0151397916            0.0040000000      NO
          -------------------------------------------------------------------------
          ........................................................
          Max(Bonds)      0.0048      Max(Angles)    0.18
          Max(Dihed)        0.87      Max(Improp)    0.00
          ---------------------------------------------------------------------

The optimization has not yet converged - more geometry cycles are needed


    ---------------------------------------------------------------------------
                         Redundant Internal Coordinates
                            (Angstroem and degrees)

        Definition                    Value    dE/dq     Step     New-Value
    ----------------------------------------------------------------------------
     1. B(C   1,N   0)                1.4482  0.000474 -0.0005    1.4477   
     2. B(C   2,C   1)                1.5353  0.000475 -0.0008    1.5345   
     3. B(C   3,C   2)                1.4914 -0.000158  0.0002    1.4916   
     4. B(C   4,C   3)                1.3687 -0.000271  0.0000    1.3687   
     5. B(N   5,C   4)                1.3637 -0.000000  0.0001    1.3638   
     6. B(C   6,N   5)                1.3053  0.000110 -0.0002    1.3051   
     7. B(N   7,C   3)                1.3704 -0.000013 -0.0000    1.3703   
     8. B(N   7,C   6)                1.3514 -0.000166  0.0001    1.3515   
     9. B(C   8,C   1)                1.5287 -0.000282 -0.0001    1.5285   
    10. B(O   9,C   8)                1.2126 -0.000118 -0.0000    1.2126   
    11. B(O  10,C   8)                1.3223  0.000062 -0.0001    1.3223   
    12. B(H  11,N   0)                1.0138 -0.000119  0.0002    1.0140   
    13. B(H  12,N   0)                1.0133 -0.000013  0.0002    1.0135   
    14. B(H  12,O  10)                2.4432  0.000386 -0.0048    2.4384   
    15. B(H  13,C   1)                1.1002 -0.000046  0.0000    1.1002   
    16. B(H  14,C   2)                1.0917 -0.000018 -0.0000    1.0917   
    17. B(H  15,C   2)                1.0929  0.000015  0.0001    1.0930   
    18. B(H  16,C   4)                1.0715 -0.000078  0.0001    1.0716   
    19. B(H  17,C   6)                1.0707  0.000040 -0.0001    1.0706   
    20. B(H  18,N   7)                1.0074  0.000049 -0.0000    1.0074   
    21. B(H  19,O  10)                0.9772  0.000121 -0.0002    0.9770   
    22. A(C   1,N   0,H  12)          110.50  0.000269   -0.18    110.32   
    23. A(H  11,N   0,H  12)          107.81 -0.000072   -0.07    107.74   
    24. A(C   1,N   0,H  11)          110.11 -0.000160    0.02    110.13   
    25. A(N   0,C   1,C   8)          116.24 -0.000061   -0.14    116.10   
    26. A(C   8,C   1,H  13)          104.76  0.000085   -0.04    104.72   
    27. A(N   0,C   1,H  13)          107.19  0.000127   -0.01    107.18   
    28. A(C   2,C   1,H  13)          107.57 -0.000104    0.05    107.62   
    29. A(C   2,C   1,C   8)          109.42 -0.000098    0.11    109.54   
    30. A(N   0,C   1,C   2)          111.10  0.000054    0.04    111.15   
    31. A(C   3,C   2,H  15)          108.95 -0.000118   -0.00    108.95   
    32. A(C   3,C   2,H  14)          109.78  0.000090   -0.01    109.76   
    33. A(C   1,C   2,H  14)          107.68 -0.000085    0.07    107.76   
    34. A(H  14,C   2,H  15)          108.94  0.000151   -0.06    108.89   
    35. A(C   1,C   2,C   3)          113.04 -0.000237    0.04    113.09   
    36. A(C   1,C   2,H  15)          108.36  0.000215   -0.04    108.32   
    37. A(C   4,C   3,N   7)          104.94  0.000104   -0.01    104.93   
    38. A(C   2,C   3,N   7)          121.35  0.000551   -0.15    121.20   
    39. A(C   2,C   3,C   4)          133.71 -0.000655    0.16    133.86   
    40. A(N   5,C   4,H  16)          119.69  0.000264   -0.11    119.58   
    41. A(C   3,C   4,H  16)          129.76 -0.000253    0.11    129.87   
    42. A(C   3,C   4,N   5)          110.55 -0.000011   -0.00    110.55   
    43. A(C   4,N   5,C   6)          105.40 -0.000050    0.01    105.41   
    44. A(N   5,C   6,H  17)          124.44 -0.000009    0.01    124.46   
    45. A(N   5,C   6,N   7)          111.90  0.000005   -0.01    111.89   
    46. A(N   7,C   6,H  17)          123.66  0.000004    0.00    123.66   
    47. A(C   3,N   7,H  18)          125.68 -0.000059   -0.02    125.65   
    48. A(C   6,N   7,H  18)          127.11  0.000107    0.01    127.12   
    49. A(C   3,N   7,C   6)          107.21 -0.000048    0.02    107.22   
    50. A(O   9,C   8,O  10)          122.85  0.000123    0.00    122.85   
    51. A(C   1,C   8,O  10)          113.55  0.000079   -0.09    113.45   
    52. A(C   1,C   8,O   9)          123.56 -0.000198    0.09    123.65   
    53. A(C   8,O  10,H  19)          112.92  0.000345   -0.09    112.83   
    54. D(C   2,C   1,N   0,H  11)     55.63 -0.000155    0.80     56.43   
    55. D(C   8,C   1,N   0,H  11)    -70.36 -0.000015    0.72    -69.64   
    56. D(C   8,C   1,N   0,H  12)     48.63 -0.000037    0.54     49.16   
    57. D(H  13,C   1,N   0,H  11)    172.90 -0.000176    0.87    173.77   
    58. D(C   2,C   1,N   0,H  12)    174.62 -0.000176    0.61    175.23   
    59. D(C   3,C   2,C   1,N   0)    -70.09  0.000157   -0.13    -70.22   
    60. D(C   3,C   2,C   1,C   8)     59.61  0.000040   -0.19     59.41   
    61. D(H  14,C   2,C   1,C   8)   -178.96 -0.000056   -0.14   -179.09   
    62. D(H  14,C   2,C   1,N   0)     51.35  0.000061   -0.07     51.28   
    63. D(H  14,C   2,C   1,H  13)    -65.69 -0.000060   -0.11    -65.80   
    64. D(C   3,C   2,C   1,H  13)    172.88  0.000036   -0.17    172.71   
    65. D(C   4,C   3,C   2,H  15)    118.83  0.000123   -0.37    118.47   
    66. D(C   4,C   3,C   2,H  14)   -121.94  0.000289   -0.45   -122.39   
    67. D(C   4,C   3,C   2,C   1)     -1.69  0.000087   -0.34     -2.03   
    68. D(N   7,C   3,C   2,C   1)    178.71 -0.000001   -0.14    178.57   
    69. D(N   7,C   3,C   2,H  14)     58.46  0.000202   -0.25     58.21   
    70. D(H  16,C   4,C   3,N   7)    179.80  0.000045   -0.03    179.77   
    71. D(H  16,C   4,C   3,C   2)      0.16 -0.000034    0.14      0.30   
    72. D(N   5,C   4,C   3,N   7)      0.20  0.000049   -0.11      0.09   
    73. D(N   5,C   4,C   3,C   2)   -179.44 -0.000030    0.06   -179.38   
    74. D(C   6,N   5,C   4,H  16)   -179.75 -0.000021   -0.00   -179.75   
    75. D(C   6,N   5,C   4,C   3)     -0.11 -0.000027    0.07     -0.03   
    76. D(H  17,C   6,N   5,C   4)   -180.00 -0.000002    0.01   -179.99   
    77. D(N   7,C   6,N   5,C   4)     -0.03 -0.000008   -0.01     -0.04   
    78. D(C   3,N   7,C   6,H  17)   -179.88  0.000033   -0.08   -179.96   
    79. D(C   3,N   7,C   6,N   5)      0.16  0.000039   -0.06      0.09   
    80. D(H  18,N   7,C   3,C   4)   -179.74 -0.000025    0.10   -179.65   
    81. D(H  18,N   7,C   3,C   2)     -0.04  0.000037   -0.06     -0.10   
    82. D(C   6,N   7,C   3,C   4)     -0.21 -0.000052    0.11     -0.10   
    83. D(H  18,N   7,C   6,N   5)    179.68  0.000010   -0.05    179.63   
    84. D(C   6,N   7,C   3,C   2)    179.49  0.000009   -0.04    179.44   
    85. D(H  18,N   7,C   6,H  17)     -0.36  0.000004   -0.07     -0.42   
    86. D(O  10,C   8,C   1,C   2)   -138.52  0.000014    0.23   -138.30   
    87. D(O  10,C   8,C   1,N   0)    -11.69 -0.000047    0.26    -11.42   
    88. D(O   9,C   8,C   1,H  13)    -71.15  0.000045    0.21    -70.94   
    89. D(O   9,C   8,C   1,C   2)     43.94 -0.000077    0.29     44.22   
    90. D(O   9,C   8,C   1,N   0)    170.77 -0.000138    0.32    171.10   
    91. D(H  19,O  10,C   8,O   9)      1.14  0.000084   -0.23      0.91   
    92. D(H  19,O  10,C   8,C   1)   -176.42  0.000002   -0.18   -176.59   
    ----------------------------------------------------------------------------

Geometry step timings:
Preparation and reading OPT file:      0.000 s ( 0.697 %)
Internal coordinates            :      0.000 s ( 0.872 %)
B/P matrices and projection     :      0.000 s (37.925 %)
Hessian update/contruction      :      0.000 s (10.724 %)
Making the step                 :      0.000 s (32.084 %)
Converting the step to Cartesian:      0.000 s ( 2.877 %)
Storing new data                :      0.000 s ( 0.872 %)
Checking convergence            :      0.000 s ( 1.221 %)
Final printing                  :      0.000 s (12.729 %)
Total time                      :      0.001 s

Time for energy+gradient        :      0.021 s
Time for complete geometry iter :      0.022 s

         *************************************************************
         *                GEOMETRY OPTIMIZATION CYCLE  15            *
         *************************************************************
---------------------------------
CARTESIAN COORDINATES (ANGSTROEM)
---------------------------------
  N    -1.418127   -1.609211    0.694612
  C    -1.384284   -0.723680   -0.450030
  C     0.008973   -0.702450   -1.092716
  C     1.031164   -0.016325   -0.250559
  C     0.988158    0.628946    0.955778
  N     2.222734    1.102634    1.289586
  C     3.005966    0.752826    0.305971
  N     2.338311    0.072630   -0.652184
  C    -1.856443    0.709140   -0.205068
  O    -1.741487    1.602688   -1.016675
  O    -2.454110    0.873245    0.962947
  H    -0.709905   -1.337152    1.367401
  H    -2.319230   -1.553988    1.155302
  H    -2.087881   -1.126619   -1.193750
  H     0.310001   -1.736875   -1.269094
  H    -0.063712   -0.186441   -2.053456
  H     0.160909    0.797002    1.615841
  H     4.052374    0.973542    0.257020
  H     2.715829   -0.298478   -1.509273
  H    -2.799239    1.778565    1.088348

----------------------------
CARTESIAN COORDINATES (A.U.)
----------------------------
  NO LB    ZA    FRAG    MASS        X           Y           Z
   0 N   7.0000    0    14.007   -2.679871   -3.040968    1.312626
   1 C   6.0000    0    12.011   -2.615918   -1.367558   -0.850433
   2 C   6.0000    0    12.011    0.016956   -1.327438   -2.064934
   3 C   6.0000    0    12.011    1.948617   -0.030850   -0.473488
   4 C   6.0000    0    12.011    1.867349    1.188537    1.806159
   5 N   7.0000    0    14.007    4.200359    2.083676    2.436963
   6 C   6.0000    0    12.011    5.680453    1.422634    0.578202
   7 N   7.0000    0    14.007    4.418767    0.137251   -1.232449
   8 C   6.0000    0    12.011   -3.508169    1.340081   -0.387522
   9 O   8.0000    0    15.999   -3.290934    3.028642   -1.921237
  10 O   8.0000    0    15.999   -4.637595    1.650194    1.819706
  11 H   1.0000    0     1.008   -1.341527   -2.526851    2.584013
  12 H   1.0000    0     1.008   -4.382709   -2.936612    2.183204
  13 H   1.0000    0     1.008   -3.945524   -2.129002   -2.255861
  14 H   1.0000    0     1.008    0.585816   -3.282218   -2.398240
  15 H   1.0000    0     1.008   -0.120398   -0.352322   -3.880470
  16 H   1.0000    0     1.008    0.304074    1.506116    3.053496
  17 H   1.0000    0     1.008    7.657876    1.839727    0.485697
  18 H   1.0000    0     1.008    5.132173   -0.564041   -2.852113
  19 H   1.0000    0     1.008   -5.289796    3.361001    2.056680

      -----------------------------------------------------------      
     |                   =====================                   |     
     |                           x T B                           |     
     |                   =====================                   |     
     |                         S. Grimme                         |     
     |          Mulliken Center for Theoretical Chemistry        |     
     |                    University of Bonn                     |     
      -----------------------------------------------------------      

   * xtb version 6.7.1 (edcfbbe) compiled by 'albert@albert-system' on 2024-07-22

   xtb is free software: you can redistribute it and/or modify it under
   the terms of the GNU Lesser General Public License as published by
   the Free Software Foundation, either version 3 of the License, or
   (at your option) any later version.
   
   xtb is distributed in the hope that it will be useful,
   but WITHOUT ANY WARRANTY; without even the implied warranty of
   MERCHANTABILITY or FITNESS FOR A PARTICULAR PURPOSE.  See the
   GNU Lesser General Public License for more details.
   
   Cite this work as:
   * C. Bannwarth, E. Caldeweyher, S. Ehlert, A. Hansen, P. Pracht,
     J. Seibert, S. Spicher, S. Grimme, WIREs Comput. Mol. Sci., 2020, 11,
     e01493. DOI: 10.1002/wcms.1493
   
   for GFN2-xTB:
   * C. Bannwarth, S. Ehlert and S. Grimme., J. Chem. Theory Comput., 2019,
     15, 1652-1671. DOI: 10.1021/acs.jctc.8b01176
   for GFN1-xTB:
   * S. Grimme, C. Bannwarth, P. Shushkov, J. Chem. Theory Comput., 2017,
     13, 1989-2009. DOI: 10.1021/acs.jctc.7b00118
   for GFN0-xTB:
   * P. Pracht, E. Caldeweyher, S. Ehlert, S. Grimme, ChemRxiv, 2019, preprint.
     DOI: 10.26434/chemrxiv.8326202.v1
   for GFN-FF:
   * S. Spicher and S. Grimme, Angew. Chem. Int. Ed., 2020, 59, 15665-15673.
     DOI: 10.1002/anie.202004239
   
   for ALPB and GBSA implicit solvation:
   * S. Ehlert, M. Stahn, S. Spicher, S. Grimme, J. Chem. Theory Comput.,
     2021, 17, 4250-4261. DOI: 10.1021/acs.jctc.1c00471
   
   for ddCOSMO and CPCM-X implicit solvation:
   * M. Stahn, S. Ehlert, S. Grimme, J. Phys. Chem. A,
     2023, XX, XXXX-XXXX. DOI: 10.1021/acs.jpca.3c04382
   
   for DFT-D4:
   * E. Caldeweyher, C. Bannwarth and S. Grimme, J. Chem. Phys., 2017,
     147, 034112. DOI: 10.1063/1.4993215
   * E. Caldeweyher, S. Ehlert, A. Hansen, H. Neugebauer, S. Spicher,
     C. Bannwarth and S. Grimme, J. Chem. Phys., 2019, 150, 154122.
     DOI: 10.1063/1.5090222
   * E. Caldeweyher, J.-M. Mewes, S. Ehlert and S. Grimme, Phys. Chem. Chem. Phys.
     2020, 22, 8499-8512. DOI: 10.1039/D0CP00502A
   
   for sTDA-xTB:
   * S. Grimme and C. Bannwarth, J. Chem. Phys., 2016, 145, 054103.
     DOI: 10.1063/1.4959605
   
   in the mass-spec context:
   * V. Asgeirsson, C. Bauer and S. Grimme, Chem. Sci., 2017, 8, 4879.
     DOI: 10.1039/c7sc00601b
   * J. Koopman and S. Grimme, ACS Omega 2019, 4, 12, 15120-15133.
     DOI: 10.1021/acsomega.9b02011
   
   for metadynamics refer to:
   * S. Grimme, J. Chem. Theory Comput., 2019, 155, 2847-2862
     DOI: 10.1021/acs.jctc.9b00143
   
   for SPH calculations refer to:
   * S. Spicher and S. Grimme, J. Chem. Theory Comput., 2021, 17, 1701-1714
     DOI: 10.1021/acs.jctc.0c01306
   
   for ONIOM refer to:
   * C. Plett, A. Katbashev, S. Ehlert, S. Grimme, M. Bursch,
     Phys. Chem. Chem. Phys., 2023, 25, 17860-17868. DOI: 10.1039/D3CP02178E
   
   for DIPRO refer to:
   * J. Kohn, N. Gildemeister, S. Grimme, D. Fazzi, A. Hansen,
     J. Chem. Phys., 2023, just accepted.
   
   for PTB refer to:
   * S. Grimme, M. Mueller, A. Hansen, J. Chem. Phys., 2023, 158, 124111.
     DOI: 10.1063/5.0137838
   
   with help from (in alphabetical order)
   P. Atkinson, C. Bannwarth, F. Bohle, G. Brandenburg, E. Caldeweyher
   M. Checinski, S. Dohm, S. Ehlert, S. Ehrlich, I. Gerasimov, C. Hölzer
   A. Katbashev, J. Kohn, J. Koopman, C. Lavigne, S. Lehtola, F. März, M. Müller,
   F. Musil, H. Neugebauer, J. Pisarek, C. Plett, P. Pracht, F. Pultar,
   J. Seibert, P. Shushkov, S. Spicher, M. Stahn, M. Steiner, T. Strunk,
   J. Stückrath, T. Rose, and J. Unsleber
   
 * started run on 2026/04/09 at 16:06:43.712     
   ID    Z sym.   atoms
    1    7 N      1, 6, 8
    2    6 C      2-5, 7, 9
    3    8 O      10, 11
    4    1 H      12-20

           -------------------------------------------------
          |                Calculation Setup                |
           -------------------------------------------------

          program call               : /home/analima/Programs/orca-6.1.0-f.0_linux_x86-64/bin/otool_xtb geo_opt_XTB.xyz --grad -c 0 -u 0 -P 1 --namespace geo_opt --input geo_opt_XTB.input.tmp --alpb WATER --acc 0.200000
          calculation namespace      : geo_opt
          coordinate file            : geo_opt_XTB.xyz
          omp threads                :                     1


           -------------------------------------------------
          |                 G F N 2 - x T B                 |
           -------------------------------------------------

        Reference                      10.1021/acs.jctc.8b01176
      * Hamiltonian:
        H0-scaling (s, p, d)           1.850000    2.230000    2.230000
        zeta-weighting                 0.500000
      * Dispersion:
        s8                             2.700000
        a1                             0.520000
        a2                             5.000000
        s9                             5.000000
      * Repulsion:
        kExp                           1.500000    1.000000
        rExp                           1.000000
      * Coulomb:
        alpha                          2.000000
        third order                    shell-resolved
        anisotropic                    true
        a3                             3.000000
        a5                             4.000000
        cn-shift                       1.200000
        cn-exp                         4.000000
        max-rad                        5.000000

      * Solvation model:               ALPB
        Solvent                        WATER
        Parameter file                 internal GFN2-xTB/ALPB
        Dielectric constant                8.0200E+01
        Reference state                gsolv [1 M gas/solution]
        Free energy shift                  1.0808E-03 Eh       6.7819E-01 kcal/mol
        Temperature                        2.9815E+02 K
        Density                            1.0000E+00 kg/L
        Solvent mass                       1.8000E+01 g/mol
        Interaction kernel             P16
        Born radius scaling (c1)           1.4744E+00
        Born radii integrator          GBOBC
        Born offset                        0.0000E+00 a0       0.0000E+00 AA
        H-bond correction              true
        Ion screening                  false
        Surface tension                    1.0000E-05 Eh       1.5569E+01 dyn/cm
        Grid points                               230 per atom
q/qsh data taken from xtbrestart
CAMM data taken from xtbrestart

          ...................................................
          :                      SETUP                      :
          :.................................................:
          :  # basis functions                  53          :
          :  # atomic orbitals                  53          :
          :  # shells                           31          :
          :  # electrons                        60          :
          :  max. iterations                   250          :
          :  Hamiltonian                  GFN2-xTB          :
          :  restarted?                       true          :
          :  GBSA solvation                   true          :
          :  PC potential                    false          :
          :  electronic temp.          300.0000000     K    :
          :  accuracy                    0.2000000          :
          :  -> integral cutoff          0.3198970E+02      :
          :  -> integral neglect         0.2000000E-08      :
          :  -> SCF convergence          0.2000000E-06 Eh   :
          :  -> wf. convergence          0.2000000E-04 e    :
          :  Broyden damping             0.4000000          :
          :  net charge                          0          :
          :  unpaired electrons                  0          :
          ...................................................

 iter      E             dE          RMSdq      gap      omega  full diag
   1    -34.7646488 -0.347646E+02  0.249E-02    3.51       0.0  T
   2    -34.7646489 -0.118263E-06  0.146E-02    3.52       1.5  T
   3    -34.7646489 -0.243243E-07  0.134E-03    3.52      16.7  T
   4    -34.7646489 -0.784566E-08  0.769E-04    3.52      29.1  T
   5    -34.7646489 -0.412806E-08  0.330E-04    3.52      67.8  T
   6    -34.7646489 -0.210207E-09  0.122E-04    3.52     183.4  T
   7    -34.7646489 -0.762981E-10  0.537E-05    3.52     416.7  T

   *** convergence criteria satisfied after 7 iterations ***

         #    Occupation            Energy/Eh            Energy/eV
      -------------------------------------------------------------
         1        2.0000           -0.7536359             -20.5075
       ...           ...                  ...                  ...
        24        2.0000           -0.4659223             -12.6784
        25        2.0000           -0.4522475             -12.3063
        26        2.0000           -0.4445505             -12.0968
        27        2.0000           -0.4279992             -11.6465
        28        2.0000           -0.3820371             -10.3958
        29        2.0000           -0.3807950             -10.3620
        30        2.0000           -0.3737350             -10.1698 (HOMO)
        31                         -0.2445493              -6.6545 (LUMO)
        32                         -0.1997162              -5.4346
        33                         -0.1661217              -4.5204
        34                          0.0195538               0.5321
        35                          0.0329733               0.8972
       ...                                ...                  ...
        53                          0.6287326              17.1087
      -------------------------------------------------------------
                  HL-Gap            0.1291857 Eh            3.5153 eV
             Fermi-level           -0.3091421 Eh           -8.4122 eV

 SCC (total)                   0 d,  0 h,  0 min,  0.010 sec
 SCC setup                      ...        0 min,  0.000 sec (  3.780%)
 Dispersion                     ...        0 min,  0.000 sec (  0.973%)
 classical contributions        ...        0 min,  0.000 sec (  0.201%)
 integral evaluation            ...        0 min,  0.002 sec ( 17.572%)
 iterations                     ...        0 min,  0.005 sec ( 51.578%)
 molecular gradient             ...        0 min,  0.003 sec ( 25.422%)
 printout                       ...        0 min,  0.000 sec (  0.373%)

         :::::::::::::::::::::::::::::::::::::::::::::::::::::
         ::                     SUMMARY                     ::
         :::::::::::::::::::::::::::::::::::::::::::::::::::::
         :: total energy             -34.364242463896 Eh    ::
         :: total w/o Gsasa/hb       -34.349966295998 Eh    ::
         :: gradient norm              0.000856747407 Eh/a0 ::
         :: HOMO-LUMO gap              3.515322825902 eV    ::
         ::.................................................::
         :: SCC energy               -34.764545672256 Eh    ::
         :: -> isotropic ES            0.095901604491 Eh    ::
         :: -> anisotropic ES          0.003358242427 Eh    ::
         :: -> anisotropic XC          0.015598951922 Eh    ::
         :: -> dispersion             -0.016902231489 Eh    ::
         :: -> Gsolv                  -0.030219950479 Eh    ::
         ::    -> Gelec               -0.015943782581 Eh    ::
         ::    -> Gsasa               -0.002445323680 Eh    ::
         ::    -> Ghb                 -0.012911603917 Eh    ::
         ::    -> Gshift               0.001080759698 Eh    ::
         :: repulsion energy           0.400303208360 Eh    ::
         :: add. restraining           0.000000000000 Eh    ::
         :: total charge               0.000000000000 e     ::
         :::::::::::::::::::::::::::::::::::::::::::::::::::::


Property printout bound to 'properties.out'

           -------------------------------------------------
          | TOTAL ENERGY              -34.364242463896 Eh   |
          | GRADIENT NORM               0.000856747407 Eh/α |
          | HOMO-LUMO GAP               3.515322825902 eV   |
           -------------------------------------------------

------------------------------------------------------------------------
 * finished run on 2026/04/09 at 16:06:43.727     
------------------------------------------------------------------------
 total:
 * wall-time:     0 d,  0 h,  0 min,  0.015 sec
 *  cpu-time:     0 d,  0 h,  0 min,  0.014 sec
 * ratio c/w:     0.912 speedup
 SCF:
 * wall-time:     0 d,  0 h,  0 min,  0.010 sec
 *  cpu-time:     0 d,  0 h,  0 min,  0.009 sec
 * ratio c/w:     0.871 speedup


-------------------------   --------------------
FINAL SINGLE POINT ENERGY       -34.364242463900
-------------------------   --------------------


-------------
DIPOLE MOMENT
-------------
                                X             Y             Z
Total Dipole Moment    :     -0.24400      -0.90400      -0.69400
                        -----------------------------------------
Magnitude (a.u.)       :      1.16550
Magnitude (Debye)      :      2.96246


------------------
CARTESIAN GRADIENT
------------------

   1   N   :   -0.000009402    0.000102033    0.000028542
   2   C   :   -0.000239029    0.000187760    0.000001812
   3   C   :    0.000101546    0.000003519   -0.000115091
   4   C   :    0.000175848    0.000171353   -0.000238368
   5   C   :   -0.000062054   -0.000161933    0.000052576
   6   N   :    0.000100320   -0.000061825   -0.000038299
   7   C   :   -0.000089004   -0.000044425    0.000007803
   8   N   :    0.000047891    0.000228117    0.000192385
   9   C   :   -0.000036767   -0.000246821    0.000129006
  10   O   :    0.000060651   -0.000127756    0.000028843
  11   O   :    0.000028520    0.000218050   -0.000214265
  12   H   :   -0.000008015   -0.000026683   -0.000046776
  13   H   :   -0.000016513   -0.000154176    0.000083443
  14   H   :    0.000083616    0.000071201   -0.000032612
  15   H   :   -0.000123206   -0.000062343    0.000191262
  16   H   :    0.000102568   -0.000022054   -0.000002084
  17   H   :   -0.000031018    0.000022648   -0.000051520
  18   H   :   -0.000035777   -0.000003034    0.000007752
  19   H   :   -0.000094422   -0.000008514   -0.000057731
  20   H   :    0.000044247   -0.000085116    0.000073322

Difference to translation invariance:
           :    0.0000000000   -0.0000000000    0.0000000000

Difference to rotation invariance:
           :    0.0000693223   -0.0002579948    0.0000645566

Norm of the Cartesian gradient     ...    0.0008567474
RMS gradient                       ...    0.0001106056
MAX gradient                       ...    0.0002468208
------------------------------------------------------------------------------
                         ORCA GEOMETRY RELAXATION STEP
------------------------------------------------------------------------------

Reading the OPT-File                    .... done
Getting information on internals        .... done
Copying old internal coords+grads       .... done
Making the new internal coordinates     .... (2022 redundants) done
Validating the new internal coordinates .... (2022 redundants) done
Calculating the B-matrix                .... done
Calculating the G,G- and P matrices     .... done
Transforming gradient to internals      .... done
Projecting the internal gradient        .... done
Number of atoms                         ....  20
Number of internal coordinates          ....  92
Current Energy                          ....   -34.364242464 Eh
Current gradient norm                   ....     0.000856747 Eh/bohr
Maximum allowed component of the step   ....  0.300
Current trust radius                    ....  0.467
Updating the Hessian (BFGS)             .... done
Forming the augmented Hessian           .... done
Diagonalizing the augmented Hessian     .... done
Last element of RFO vector              ....  0.999632373
Lowest eigenvalues of augmented Hessian:
 -0.000009089  0.002848707  0.008678927  0.011524572  0.017114365
Length of the computed step             ....  0.027123042
The final length of the internal step   ....  0.027123042
Converting the step to Cartesian space:
 Initial RMS(Int)=    0.0028277726
Transforming coordinates:
 Iter   0:  RMS(Cart)=    0.0071583485 RMS(Int)=    0.0028284887
done
Storing new coordinates                 .... done
The predicted energy change is          ....    -0.000004548
Previously predicted energy change      ....    -0.000012878
Actually observed energy change         ....    -0.000016025
Ratio of predicted to observed change   ....     1.244330746
New trust radius                        ....     0.700000000

                                .--------------------.
          ----------------------|Geometry convergence|-------------------------
          Item                value                   Tolerance       Converged
          ---------------------------------------------------------------------
          Energy change      -0.0000160247            0.0000050000      NO
          RMS gradient        0.0000761557            0.0001000000      YES
          MAX gradient        0.0003396684            0.0003000000      NO
          RMS step            0.0028277726            0.0020000000      NO
          MAX step            0.0113322884            0.0040000000      NO
          -------------------------------------------------------------------------
          ........................................................
          Max(Bonds)      0.0032      Max(Angles)    0.08
          Max(Dihed)        0.65      Max(Improp)    0.00
          ---------------------------------------------------------------------

The optimization has not yet converged - more geometry cycles are needed


    ---------------------------------------------------------------------------
                         Redundant Internal Coordinates
                            (Angstroem and degrees)

        Definition                    Value    dE/dq     Step     New-Value
    ----------------------------------------------------------------------------
     1. B(C   1,N   0)                1.4476  0.000042 -0.0002    1.4474   
     2. B(C   2,C   1)                1.5345  0.000113 -0.0004    1.5341   
     3. B(C   3,C   2)                1.4916 -0.000009  0.0000    1.4916   
     4. B(C   4,C   3)                1.3687 -0.000076  0.0001    1.3688   
     5. B(N   5,C   4)                1.3638  0.000028 -0.0000    1.3638   
     6. B(C   6,N   5)                1.3051 -0.000079 -0.0000    1.3051   
     7. B(N   7,C   3)                1.3703 -0.000124  0.0000    1.3703   
     8. B(N   7,C   6)                1.3515 -0.000099  0.0001    1.3516   
     9. B(C   8,C   1)                1.5284 -0.000340  0.0003    1.5287   
    10. B(O   9,C   8)                1.2126 -0.000109  0.0000    1.2126   
    11. B(O  10,C   8)                1.3223 -0.000145  0.0000    1.3223   
    12. B(H  11,N   0)                1.0140 -0.000041  0.0001    1.0141   
    13. B(H  12,N   0)                1.0135  0.000051 -0.0000    1.0135   
    14. B(H  12,O  10)                2.4386  0.000095 -0.0032    2.4354   
    15. B(H  13,C   1)                1.1002 -0.000059  0.0001    1.1003   
    16. B(H  14,C   2)                1.0917 -0.000006 -0.0000    1.0916   
    17. B(H  15,C   2)                1.0930 -0.000016  0.0001    1.0931   
    18. B(H  16,C   4)                1.0716 -0.000006  0.0000    1.0716   
    19. B(H  17,C   6)                1.0706 -0.000035 -0.0000    1.0705   
    20. B(H  18,N   7)                1.0074  0.000019 -0.0000    1.0073   
    21. B(H  19,O  10)                0.9770 -0.000084 -0.0000    0.9770   
    22. A(C   1,N   0,H  12)          110.30  0.000149   -0.08    110.22   
    23. A(H  11,N   0,H  12)          107.74 -0.000034   -0.04    107.70   
    24. A(C   1,N   0,H  11)          110.13 -0.000028    0.00    110.13   
    25. A(N   0,C   1,C   8)          116.07 -0.000016   -0.07    116.01   
    26. A(C   8,C   1,H  13)          104.72  0.000034   -0.04    104.68   
    27. A(N   0,C   1,H  13)          107.19  0.000052   -0.00    107.18   
    28. A(C   2,C   1,H  13)          107.61 -0.000042    0.02    107.64   
    29. A(C   2,C   1,C   8)          109.55 -0.000057    0.05    109.60   
    30. A(N   0,C   1,C   2)          111.15  0.000030    0.04    111.19   
    31. A(C   3,C   2,H  15)          108.95 -0.000047    0.00    108.95   
    32. A(C   3,C   2,H  14)          109.76  0.000079   -0.02    109.75   
    33. A(C   1,C   2,H  14)          107.75 -0.000104    0.07    107.83   
    34. A(H  14,C   2,H  15)          108.89  0.000020   -0.03    108.85   
    35. A(C   1,C   2,C   3)          113.09 -0.000046    0.02    113.11   
    36. A(C   1,C   2,H  15)          108.32  0.000101   -0.05    108.27   
    37. A(C   4,C   3,N   7)          104.93  0.000013   -0.00    104.93   
    38. A(C   2,C   3,N   7)          121.20  0.000174   -0.07    121.13   
    39. A(C   2,C   3,C   4)          133.86 -0.000187    0.07    133.94   
    40. A(N   5,C   4,H  16)          119.58  0.000054   -0.03    119.55   
    41. A(C   3,C   4,H  16)          129.87 -0.000025    0.02    129.90   
    42. A(C   3,C   4,N   5)          110.55 -0.000028    0.00    110.55   
    43. A(C   4,N   5,C   6)          105.41 -0.000020    0.01    105.41   
    44. A(N   5,C   6,H  17)          124.46 -0.000005    0.01    124.46   
    45. A(N   5,C   6,N   7)          111.89  0.000006   -0.01    111.88   
    46. A(N   7,C   6,H  17)          123.66 -0.000001    0.00    123.66   
    47. A(C   3,N   7,H  18)          125.66 -0.000115    0.03    125.68   
    48. A(C   6,N   7,H  18)          127.12  0.000086   -0.03    127.09   
    49. A(C   3,N   7,C   6)          107.22  0.000029    0.00    107.23   
    50. A(O   9,C   8,O  10)          122.86  0.000068   -0.01    122.85   
    51. A(C   1,C   8,O  10)          113.43  0.000070   -0.03    113.40   
    52. A(C   1,C   8,O   9)          123.66 -0.000134    0.03    123.69   
    53. A(C   8,O  10,H  19)          112.83  0.000137   -0.07    112.77   
    54. D(C   2,C   1,N   0,H  11)     56.43 -0.000049    0.22     56.66   
    55. D(C   8,C   1,N   0,H  11)    -69.64  0.000017    0.18    -69.46   
    56. D(C   8,C   1,N   0,H  12)     49.15  0.000050    0.07     49.22   
    57. D(H  13,C   1,N   0,H  11)    173.77 -0.000053    0.27    174.05   
    58. D(C   2,C   1,N   0,H  12)    175.22 -0.000016    0.12    175.34   
    59. D(C   3,C   2,C   1,N   0)    -70.21 -0.000007    0.24    -69.96   
    60. D(C   3,C   2,C   1,C   8)     59.40 -0.000050    0.22     59.62   
    61. D(H  14,C   2,C   1,C   8)   -179.10 -0.000052    0.27   -178.84   
    62. D(H  14,C   2,C   1,N   0)     51.29 -0.000009    0.29     51.57   
    63. D(H  14,C   2,C   1,H  13)    -65.80 -0.000063    0.26    -65.54   
    64. D(C   3,C   2,C   1,H  13)    172.71 -0.000061    0.21    172.92   
    65. D(C   4,C   3,C   2,H  15)    118.47  0.000104   -0.60    117.87   
    66. D(C   4,C   3,C   2,H  14)   -122.39  0.000147   -0.65   -123.04   
    67. D(C   4,C   3,C   2,C   1)     -2.03  0.000040   -0.55     -2.59   
    68. D(N   7,C   3,C   2,C   1)    178.57  0.000040   -0.47    178.10   
    69. D(N   7,C   3,C   2,H  14)     58.21  0.000147   -0.57     57.64   
    70. D(H  16,C   4,C   3,N   7)    179.77 -0.000030    0.07    179.84   
    71. D(H  16,C   4,C   3,C   2)      0.30 -0.000031    0.14      0.44   
    72. D(N   5,C   4,C   3,N   7)      0.09 -0.000040    0.04      0.12   
    73. D(N   5,C   4,C   3,C   2)   -179.38 -0.000040    0.11   -179.27   
    74. D(C   6,N   5,C   4,H  16)   -179.75  0.000021   -0.06   -179.81   
    75. D(C   6,N   5,C   4,C   3)     -0.03  0.000029   -0.03     -0.06   
    76. D(H  17,C   6,N   5,C   4)   -179.99 -0.000015    0.03   -179.95   
    77. D(N   7,C   6,N   5,C   4)     -0.04 -0.000006    0.01     -0.02   
    78. D(C   3,N   7,C   6,H  17)   -179.96 -0.000009   -0.01   -179.97   
    79. D(C   3,N   7,C   6,N   5)      0.09 -0.000018    0.01      0.10   
    80. D(H  18,N   7,C   3,C   4)   -179.65  0.000025   -0.03   -179.68   
    81. D(H  18,N   7,C   3,C   2)     -0.10  0.000024   -0.09     -0.19   
    82. D(C   6,N   7,C   3,C   4)     -0.11  0.000034   -0.03     -0.14   
    83. D(H  18,N   7,C   6,N   5)    179.63 -0.000010    0.01    179.64   
    84. D(C   6,N   7,C   3,C   2)    179.45  0.000033   -0.09    179.36   
    85. D(H  18,N   7,C   6,H  17)     -0.42 -0.000001   -0.00     -0.43   
    86. D(O  10,C   8,C   1,C   2)   -138.30  0.000045   -0.04   -138.34   
    87. D(O  10,C   8,C   1,N   0)    -11.42  0.000023   -0.00    -11.43   
    88. D(O   9,C   8,C   1,H  13)    -70.95  0.000023   -0.03    -70.98   
    89. D(O   9,C   8,C   1,C   2)     44.22 -0.000035   -0.00     44.22   
    90. D(O   9,C   8,C   1,N   0)    171.10 -0.000057    0.04    171.14   
    91. D(H  19,O  10,C   8,O   9)      0.91 -0.000004   -0.03      0.88   
    92. D(H  19,O  10,C   8,C   1)   -176.59 -0.000078    0.01   -176.58   
    ----------------------------------------------------------------------------

Geometry step timings:
Preparation and reading OPT file:      0.000 s ( 0.842 %)
Internal coordinates            :      0.000 s ( 0.842 %)
B/P matrices and projection     :      0.000 s (36.310 %)
Hessian update/contruction      :      0.000 s (11.036 %)
Making the step                 :      0.000 s (32.603 %)
Converting the step to Cartesian:      0.000 s ( 3.286 %)
Storing new data                :      0.000 s ( 1.011 %)
Checking convergence            :      0.000 s ( 1.348 %)
Final printing                  :      0.000 s (12.721 %)
Total time                      :      0.001 s

Time for energy+gradient        :      0.019 s
Time for complete geometry iter :      0.020 s

         *************************************************************
         *                GEOMETRY OPTIMIZATION CYCLE  16            *
         *************************************************************
---------------------------------
CARTESIAN COORDINATES (ANGSTROEM)
---------------------------------
  N    -1.414894   -1.608499    0.694727
  C    -1.383335   -0.723640   -0.450186
  C     0.009029   -0.698810   -1.093752
  C     1.031648   -0.014763   -0.250358
  C     0.989419    0.634852    0.953734
  N     2.225208    1.105331    1.287490
  C     3.008678    0.748823    0.306501
  N     2.339807    0.067479   -0.650126
  C    -1.860215    0.707721   -0.204216
  O    -1.749154    1.602534   -1.015042
  O    -2.458288    0.868378    0.964087
  H    -0.709551   -1.332186    1.368971
  H    -2.317126   -1.555570    1.153423
  H    -2.086849   -1.128164   -1.193210
  H     0.311771   -1.731795   -1.275305
  H    -0.065860   -0.179006   -2.052375
  H     0.162280    0.807993    1.612645
  H     4.056034    0.965067    0.258466
  H     2.717712   -0.308331   -1.504935
  H    -2.806314    1.772586    1.089462

----------------------------
CARTESIAN COORDINATES (A.U.)
----------------------------
  NO LB    ZA    FRAG    MASS        X           Y           Z
   0 N   7.0000    0    14.007   -2.673762   -3.039622    1.312844
   1 C   6.0000    0    12.011   -2.614124   -1.367481   -0.850729
   2 C   6.0000    0    12.011    0.017062   -1.320560   -2.066891
   3 C   6.0000    0    12.011    1.949533   -0.027897   -0.473109
   4 C   6.0000    0    12.011    1.869730    1.199697    1.802295
   5 N   7.0000    0    14.007    4.205034    2.088772    2.433003
   6 C   6.0000    0    12.011    5.685578    1.415070    0.579204
   7 N   7.0000    0    14.007    4.421594    0.127518   -1.228560
   8 C   6.0000    0    12.011   -3.515296    1.337398   -0.385912
   9 O   8.0000    0    15.999   -3.305422    3.028351   -1.918151
  10 O   8.0000    0    15.999   -4.645492    1.640996    1.821861
  11 H   1.0000    0     1.008   -1.340858   -2.517467    2.586980
  12 H   1.0000    0     1.008   -4.378733   -2.939601    2.179653
  13 H   1.0000    0     1.008   -3.943572   -2.131921   -2.254841
  14 H   1.0000    0     1.008    0.589161   -3.272619   -2.409977
  15 H   1.0000    0     1.008   -0.124457   -0.338273   -3.878426
  16 H   1.0000    0     1.008    0.306665    1.526886    3.047457
  17 H   1.0000    0     1.008    7.664793    1.823713    0.488430
  18 H   1.0000    0     1.008    5.135731   -0.582661   -2.843914
  19 H   1.0000    0     1.008   -5.303165    3.349703    2.058784

      -----------------------------------------------------------      
     |                   =====================                   |     
     |                           x T B                           |     
     |                   =====================                   |     
     |                         S. Grimme                         |     
     |          Mulliken Center for Theoretical Chemistry        |     
     |                    University of Bonn                     |     
      -----------------------------------------------------------      

   * xtb version 6.7.1 (edcfbbe) compiled by 'albert@albert-system' on 2024-07-22

   xtb is free software: you can redistribute it and/or modify it under
   the terms of the GNU Lesser General Public License as published by
   the Free Software Foundation, either version 3 of the License, or
   (at your option) any later version.
   
   xtb is distributed in the hope that it will be useful,
   but WITHOUT ANY WARRANTY; without even the implied warranty of
   MERCHANTABILITY or FITNESS FOR A PARTICULAR PURPOSE.  See the
   GNU Lesser General Public License for more details.
   
   Cite this work as:
   * C. Bannwarth, E. Caldeweyher, S. Ehlert, A. Hansen, P. Pracht,
     J. Seibert, S. Spicher, S. Grimme, WIREs Comput. Mol. Sci., 2020, 11,
     e01493. DOI: 10.1002/wcms.1493
   
   for GFN2-xTB:
   * C. Bannwarth, S. Ehlert and S. Grimme., J. Chem. Theory Comput., 2019,
     15, 1652-1671. DOI: 10.1021/acs.jctc.8b01176
   for GFN1-xTB:
   * S. Grimme, C. Bannwarth, P. Shushkov, J. Chem. Theory Comput., 2017,
     13, 1989-2009. DOI: 10.1021/acs.jctc.7b00118
   for GFN0-xTB:
   * P. Pracht, E. Caldeweyher, S. Ehlert, S. Grimme, ChemRxiv, 2019, preprint.
     DOI: 10.26434/chemrxiv.8326202.v1
   for GFN-FF:
   * S. Spicher and S. Grimme, Angew. Chem. Int. Ed., 2020, 59, 15665-15673.
     DOI: 10.1002/anie.202004239
   
   for ALPB and GBSA implicit solvation:
   * S. Ehlert, M. Stahn, S. Spicher, S. Grimme, J. Chem. Theory Comput.,
     2021, 17, 4250-4261. DOI: 10.1021/acs.jctc.1c00471
   
   for ddCOSMO and CPCM-X implicit solvation:
   * M. Stahn, S. Ehlert, S. Grimme, J. Phys. Chem. A,
     2023, XX, XXXX-XXXX. DOI: 10.1021/acs.jpca.3c04382
   
   for DFT-D4:
   * E. Caldeweyher, C. Bannwarth and S. Grimme, J. Chem. Phys., 2017,
     147, 034112. DOI: 10.1063/1.4993215
   * E. Caldeweyher, S. Ehlert, A. Hansen, H. Neugebauer, S. Spicher,
     C. Bannwarth and S. Grimme, J. Chem. Phys., 2019, 150, 154122.
     DOI: 10.1063/1.5090222
   * E. Caldeweyher, J.-M. Mewes, S. Ehlert and S. Grimme, Phys. Chem. Chem. Phys.
     2020, 22, 8499-8512. DOI: 10.1039/D0CP00502A
   
   for sTDA-xTB:
   * S. Grimme and C. Bannwarth, J. Chem. Phys., 2016, 145, 054103.
     DOI: 10.1063/1.4959605
   
   in the mass-spec context:
   * V. Asgeirsson, C. Bauer and S. Grimme, Chem. Sci., 2017, 8, 4879.
     DOI: 10.1039/c7sc00601b
   * J. Koopman and S. Grimme, ACS Omega 2019, 4, 12, 15120-15133.
     DOI: 10.1021/acsomega.9b02011
   
   for metadynamics refer to:
   * S. Grimme, J. Chem. Theory Comput., 2019, 155, 2847-2862
     DOI: 10.1021/acs.jctc.9b00143
   
   for SPH calculations refer to:
   * S. Spicher and S. Grimme, J. Chem. Theory Comput., 2021, 17, 1701-1714
     DOI: 10.1021/acs.jctc.0c01306
   
   for ONIOM refer to:
   * C. Plett, A. Katbashev, S. Ehlert, S. Grimme, M. Bursch,
     Phys. Chem. Chem. Phys., 2023, 25, 17860-17868. DOI: 10.1039/D3CP02178E
   
   for DIPRO refer to:
   * J. Kohn, N. Gildemeister, S. Grimme, D. Fazzi, A. Hansen,
     J. Chem. Phys., 2023, just accepted.
   
   for PTB refer to:
   * S. Grimme, M. Mueller, A. Hansen, J. Chem. Phys., 2023, 158, 124111.
     DOI: 10.1063/5.0137838
   
   with help from (in alphabetical order)
   P. Atkinson, C. Bannwarth, F. Bohle, G. Brandenburg, E. Caldeweyher
   M. Checinski, S. Dohm, S. Ehlert, S. Ehrlich, I. Gerasimov, C. Hölzer
   A. Katbashev, J. Kohn, J. Koopman, C. Lavigne, S. Lehtola, F. März, M. Müller,
   F. Musil, H. Neugebauer, J. Pisarek, C. Plett, P. Pracht, F. Pultar,
   J. Seibert, P. Shushkov, S. Spicher, M. Stahn, M. Steiner, T. Strunk,
   J. Stückrath, T. Rose, and J. Unsleber
   
 * started run on 2026/04/09 at 16:06:43.732     
   ID    Z sym.   atoms
    1    7 N      1, 6, 8
    2    6 C      2-5, 7, 9
    3    8 O      10, 11
    4    1 H      12-20

           -------------------------------------------------
          |                Calculation Setup                |
           -------------------------------------------------

          program call               : /home/analima/Programs/orca-6.1.0-f.0_linux_x86-64/bin/otool_xtb geo_opt_XTB.xyz --grad -c 0 -u 0 -P 1 --namespace geo_opt --input geo_opt_XTB.input.tmp --alpb WATER --acc 0.200000
          calculation namespace      : geo_opt
          coordinate file            : geo_opt_XTB.xyz
          omp threads                :                     1


           -------------------------------------------------
          |                 G F N 2 - x T B                 |
           -------------------------------------------------

        Reference                      10.1021/acs.jctc.8b01176
      * Hamiltonian:
        H0-scaling (s, p, d)           1.850000    2.230000    2.230000
        zeta-weighting                 0.500000
      * Dispersion:
        s8                             2.700000
        a1                             0.520000
        a2                             5.000000
        s9                             5.000000
      * Repulsion:
        kExp                           1.500000    1.000000
        rExp                           1.000000
      * Coulomb:
        alpha                          2.000000
        third order                    shell-resolved
        anisotropic                    true
        a3                             3.000000
        a5                             4.000000
        cn-shift                       1.200000
        cn-exp                         4.000000
        max-rad                        5.000000

      * Solvation model:               ALPB
        Solvent                        WATER
        Parameter file                 internal GFN2-xTB/ALPB
        Dielectric constant                8.0200E+01
        Reference state                gsolv [1 M gas/solution]
        Free energy shift                  1.0808E-03 Eh       6.7819E-01 kcal/mol
        Temperature                        2.9815E+02 K
        Density                            1.0000E+00 kg/L
        Solvent mass                       1.8000E+01 g/mol
        Interaction kernel             P16
        Born radius scaling (c1)           1.4744E+00
        Born radii integrator          GBOBC
        Born offset                        0.0000E+00 a0       0.0000E+00 AA
        H-bond correction              true
        Ion screening                  false
        Surface tension                    1.0000E-05 Eh       1.5569E+01 dyn/cm
        Grid points                               230 per atom
q/qsh data taken from xtbrestart
CAMM data taken from xtbrestart

          ...................................................
          :                      SETUP                      :
          :.................................................:
          :  # basis functions                  53          :
          :  # atomic orbitals                  53          :
          :  # shells                           31          :
          :  # electrons                        60          :
          :  max. iterations                   250          :
          :  Hamiltonian                  GFN2-xTB          :
          :  restarted?                       true          :
          :  GBSA solvation                   true          :
          :  PC potential                    false          :
          :  electronic temp.          300.0000000     K    :
          :  accuracy                    0.2000000          :
          :  -> integral cutoff          0.3198970E+02      :
          :  -> integral neglect         0.2000000E-08      :
          :  -> SCF convergence          0.2000000E-06 Eh   :
          :  -> wf. convergence          0.2000000E-04 e    :
          :  Broyden damping             0.4000000          :
          :  net charge                          0          :
          :  unpaired electrons                  0          :
          ...................................................

 iter      E             dE          RMSdq      gap      omega  full diag
   1    -34.7646315 -0.347646E+02  0.194E-02    3.51       0.0  T
   2    -34.7646315 -0.732267E-07  0.113E-02    3.52       2.0  T
   3    -34.7646315 -0.123291E-07  0.118E-03    3.52      19.0  T
   4    -34.7646316 -0.115839E-07  0.520E-04    3.52      43.0  T
   5    -34.7646316 -0.258645E-09  0.181E-04    3.52     123.6  T
   6    -34.7646316 -0.792042E-10  0.770E-05    3.52     290.4  T

   *** convergence criteria satisfied after 6 iterations ***

         #    Occupation            Energy/Eh            Energy/eV
      -------------------------------------------------------------
         1        2.0000           -0.7536982             -20.5092
       ...           ...                  ...                  ...
        24        2.0000           -0.4659364             -12.6788
        25        2.0000           -0.4522123             -12.3053
        26        2.0000           -0.4446175             -12.0987
        27        2.0000           -0.4279961             -11.6464
        28        2.0000           -0.3820594             -10.3964
        29        2.0000           -0.3807866             -10.3617
        30        2.0000           -0.3737913             -10.1714 (HOMO)
        31                         -0.2446093              -6.6562 (LUMO)
        32                         -0.1997295              -5.4349
        33                         -0.1661344              -4.5207
        34                          0.0196597               0.5350
        35                          0.0330120               0.8983
       ...                                ...                  ...
        53                          0.6287735              17.1098
      -------------------------------------------------------------
                  HL-Gap            0.1291821 Eh            3.5152 eV
             Fermi-level           -0.3092003 Eh           -8.4138 eV

 SCC (total)                   0 d,  0 h,  0 min,  0.010 sec
 SCC setup                      ...        0 min,  0.000 sec (  2.407%)
 Dispersion                     ...        0 min,  0.000 sec (  0.567%)
 classical contributions        ...        0 min,  0.000 sec (  0.119%)
 integral evaluation            ...        0 min,  0.001 sec (  9.142%)
 iterations                     ...        0 min,  0.005 sec ( 47.000%)
 molecular gradient             ...        0 min,  0.004 sec ( 40.205%)
 printout                       ...        0 min,  0.000 sec (  0.467%)

         :::::::::::::::::::::::::::::::::::::::::::::::::::::
         ::                     SUMMARY                     ::
         :::::::::::::::::::::::::::::::::::::::::::::::::::::
         :: total energy             -34.364249767141 Eh    ::
         :: total w/o Gsasa/hb       -34.349979732002 Eh    ::
         :: gradient norm              0.000653135963 Eh/a0 ::
         :: HOMO-LUMO gap              3.515222655265 eV    ::
         ::.................................................::
         :: SCC energy               -34.764528504871 Eh    ::
         :: -> isotropic ES            0.095883208078 Eh    ::
         :: -> anisotropic ES          0.003370887599 Eh    ::
         :: -> anisotropic XC          0.015606670152 Eh    ::
         :: -> dispersion             -0.016895729658 Eh    ::
         :: -> Gsolv                  -0.030218429902 Eh    ::
         ::    -> Gelec               -0.015948394762 Eh    ::
         ::    -> Gsasa               -0.002447361510 Eh    ::
         ::    -> Ghb                 -0.012903433327 Eh    ::
         ::    -> Gshift               0.001080759698 Eh    ::
         :: repulsion energy           0.400278737729 Eh    ::
         :: add. restraining           0.000000000000 Eh    ::
         :: total charge               0.000000000000 e     ::
         :::::::::::::::::::::::::::::::::::::::::::::::::::::


Property printout bound to 'properties.out'

           -------------------------------------------------
          | TOTAL ENERGY              -34.364249767141 Eh   |
          | GRADIENT NORM               0.000653135963 Eh/α |
          | HOMO-LUMO GAP               3.515222655265 eV   |
           -------------------------------------------------

------------------------------------------------------------------------
 * finished run on 2026/04/09 at 16:06:43.748     
------------------------------------------------------------------------
 total:
 * wall-time:     0 d,  0 h,  0 min,  0.015 sec
 *  cpu-time:     0 d,  0 h,  0 min,  0.014 sec
 * ratio c/w:     0.896 speedup
 SCF:
 * wall-time:     0 d,  0 h,  0 min,  0.010 sec
 *  cpu-time:     0 d,  0 h,  0 min,  0.009 sec
 * ratio c/w:     0.869 speedup


-------------------------   --------------------
FINAL SINGLE POINT ENERGY       -34.364249767140
-------------------------   --------------------


-------------
DIPOLE MOMENT
-------------
                                X             Y             Z
Total Dipole Moment    :     -0.24500      -0.91100      -0.69300
                        -----------------------------------------
Magnitude (a.u.)       :      1.17055
Magnitude (Debye)      :      2.97531


------------------
CARTESIAN GRADIENT
------------------

   1   N   :   -0.000017102    0.000143002   -0.000148774
   2   C   :   -0.000044701    0.000042513    0.000016887
   3   C   :    0.000040555   -0.000112388   -0.000042560
   4   C   :    0.000102818    0.000204994   -0.000190191
   5   C   :   -0.000002755   -0.000170369    0.000103517
   6   N   :    0.000077890   -0.000001038   -0.000087713
   7   C   :   -0.000020796    0.000016499    0.000068812
   8   N   :   -0.000070529    0.000096407    0.000087054
   9   C   :   -0.000078346   -0.000183226    0.000236758
  10   O   :    0.000018895   -0.000035575   -0.000020324
  11   O   :   -0.000003875    0.000099952   -0.000157208
  12   H   :   -0.000028453    0.000013223    0.000027136
  13   H   :    0.000024460   -0.000050075    0.000005571
  14   H   :    0.000025554    0.000088683   -0.000014254
  15   H   :   -0.000065785   -0.000037072    0.000118616
  16   H   :    0.000053136   -0.000045164   -0.000006911
  17   H   :    0.000012258    0.000027462    0.000010303
  18   H   :   -0.000046930   -0.000018274    0.000011954
  19   H   :   -0.000063166    0.000008124   -0.000013473
  20   H   :    0.000086871   -0.000087677   -0.000005201

Difference to translation invariance:
           :   -0.0000000000   -0.0000000000    0.0000000000

Difference to rotation invariance:
           :    0.0000747936   -0.0002909048    0.0000821712

Norm of the Cartesian gradient     ...    0.0006531360
RMS gradient                       ...    0.0000843195
MAX gradient                       ...    0.0002367582
------------------------------------------------------------------------------
                         ORCA GEOMETRY RELAXATION STEP
------------------------------------------------------------------------------

Reading the OPT-File                    .... done
Getting information on internals        .... done
Copying old internal coords+grads       .... done
Making the new internal coordinates     .... (2022 redundants) done
Validating the new internal coordinates .... (2022 redundants) done
Calculating the B-matrix                .... done
Calculating the G,G- and P matrices     .... done
Transforming gradient to internals      .... done
Projecting the internal gradient        .... done
Number of atoms                         ....  20
Number of internal coordinates          ....  92
Current Energy                          ....   -34.364249767 Eh
Current gradient norm                   ....     0.000653136 Eh/bohr
Maximum allowed component of the step   ....  0.300
Current trust radius                    ....  0.700
Updating the Hessian (BFGS)             .... done
Forming the augmented Hessian           .... done
Diagonalizing the augmented Hessian     .... done
Last element of RFO vector              ....  0.995988789
Lowest eigenvalues of augmented Hessian:
 -0.000020760  0.002230788  0.003290301  0.011770794  0.017013472
Length of the computed step             ....  0.089838466
The final length of the internal step   ....  0.089838466
Converting the step to Cartesian space:
 Initial RMS(Int)=    0.0093663075
Transforming coordinates:
 Iter   0:  RMS(Cart)=    0.0242349762 RMS(Int)=    0.0093670014
done
Storing new coordinates                 .... done
The predicted energy change is          ....    -0.000010464
Previously predicted energy change      ....    -0.000004548
Actually observed energy change         ....    -0.000007303
Ratio of predicted to observed change   ....     1.605925979
New trust radius                        ....     0.466666667

                                .--------------------.
          ----------------------|Geometry convergence|-------------------------
          Item                value                   Tolerance       Converged
          ---------------------------------------------------------------------
          Energy change      -0.0000073032            0.0000050000      NO
          RMS gradient        0.0000542870            0.0001000000      YES
          MAX gradient        0.0001889208            0.0003000000      YES
          RMS step            0.0093663075            0.0020000000      NO
          MAX step            0.0386426581            0.0040000000      NO
          -------------------------------------------------------------------------
          ........................................................
          Max(Bonds)      0.0062      Max(Angles)    0.17
          Max(Dihed)        2.21      Max(Improp)    0.00
          ---------------------------------------------------------------------

The optimization has not yet converged - more geometry cycles are needed


    ---------------------------------------------------------------------------
                         Redundant Internal Coordinates
                            (Angstroem and degrees)

        Definition                    Value    dE/dq     Step     New-Value
    ----------------------------------------------------------------------------
     1. B(C   1,N   0)                1.4473 -0.000152 -0.0003    1.4470   
     2. B(C   2,C   1)                1.5341 -0.000003 -0.0007    1.5334   
     3. B(C   3,C   2)                1.4916  0.000048 -0.0001    1.4916   
     4. B(C   4,C   3)                1.3688  0.000035  0.0001    1.3689   
     5. B(N   5,C   4)                1.3638  0.000022 -0.0002    1.3636   
     6. B(C   6,N   5)                1.3051 -0.000108  0.0001    1.3051   
     7. B(N   7,C   3)                1.3703 -0.000144 -0.0000    1.3703   
     8. B(N   7,C   6)                1.3516 -0.000027  0.0002    1.3518   
     9. B(C   8,C   1)                1.5286 -0.000189  0.0008    1.5294   
    10. B(O   9,C   8)                1.2126 -0.000012  0.0001    1.2127   
    11. B(O  10,C   8)                1.3223 -0.000176  0.0001    1.3224   
    12. B(H  11,N   0)                1.0141  0.000004  0.0002    1.0143   
    13. B(H  12,N   0)                1.0135 -0.000021  0.0000    1.0136   
    14. B(H  12,O  10)                2.4354  0.000001 -0.0062    2.4292   
    15. B(H  13,C   1)                1.1003 -0.000040  0.0001    1.1004   
    16. B(H  14,C   2)                1.0916 -0.000003 -0.0001    1.0915   
    17. B(H  15,C   2)                1.0931 -0.000020  0.0002    1.0933   
    18. B(H  16,C   4)                1.0716 -0.000001  0.0000    1.0716   
    19. B(H  17,C   6)                1.0705 -0.000049 -0.0000    1.0705   
    20. B(H  18,N   7)                1.0073 -0.000012 -0.0001    1.0073   
    21. B(H  19,O  10)                0.9770 -0.000112  0.0001    0.9770   
    22. A(C   1,N   0,H  12)          110.21  0.000074   -0.09    110.12   
    23. A(H  11,N   0,H  12)          107.70 -0.000030   -0.06    107.64   
    24. A(C   1,N   0,H  11)          110.13  0.000012    0.01    110.14   
    25. A(N   0,C   1,C   8)          116.00 -0.000036   -0.11    115.89   
    26. A(C   8,C   1,H  13)          104.68 -0.000003   -0.08    104.60   
    27. A(N   0,C   1,H  13)          107.19  0.000036   -0.00    107.18   
    28. A(C   2,C   1,H  13)          107.64 -0.000024    0.04    107.68   
    29. A(C   2,C   1,C   8)          109.60  0.000008    0.05    109.65   
    30. A(N   0,C   1,C   2)          111.19  0.000019    0.10    111.29   
    31. A(C   3,C   2,H  15)          108.95 -0.000015    0.03    108.98   
    32. A(C   3,C   2,H  14)          109.75  0.000020   -0.03    109.71   
    33. A(C   1,C   2,H  14)          107.83 -0.000069    0.17    108.00   
    34. A(H  14,C   2,H  15)          108.85 -0.000017   -0.06    108.79   
    35. A(C   1,C   2,C   3)          113.11  0.000078    0.01    113.12   
    36. A(C   1,C   2,H  15)          108.27 -0.000001   -0.13    108.14   
    37. A(C   4,C   3,N   7)          104.93 -0.000021   -0.01    104.92   
    38. A(C   2,C   3,N   7)          121.13 -0.000032   -0.08    121.05   
    39. A(C   2,C   3,C   4)          133.94  0.000053    0.09    134.03   
    40. A(N   5,C   4,H  16)          119.55 -0.000016    0.02    119.57   
    41. A(C   3,C   4,H  16)          129.90  0.000042   -0.03    129.86   
    42. A(C   3,C   4,N   5)          110.55 -0.000026    0.01    110.56   
    43. A(C   4,N   5,C   6)          105.41 -0.000002    0.00    105.42   
    44. A(N   5,C   6,H  17)          124.46  0.000003    0.01    124.47   
    45. A(N   5,C   6,N   7)          111.88 -0.000002   -0.01    111.87   
    46. A(N   7,C   6,H  17)          123.66 -0.000001    0.00    123.66   
    47. A(C   3,N   7,H  18)          125.68 -0.000084    0.11    125.79   
    48. A(C   6,N   7,H  18)          127.09  0.000033   -0.11    126.97   
    49. A(C   3,N   7,C   6)          107.23  0.000051    0.00    107.23   
    50. A(O   9,C   8,O  10)          122.86 -0.000003   -0.02    122.84   
    51. A(C   1,C   8,O  10)          113.39  0.000103   -0.03    113.37   
    52. A(C   1,C   8,O   9)          123.70 -0.000099    0.05    123.74   
    53. A(C   8,O  10,H  19)          112.77 -0.000019   -0.13    112.63   
    54. D(C   2,C   1,N   0,H  11)     56.65  0.000013    0.16     56.81   
    55. D(C   8,C   1,N   0,H  11)    -69.47  0.000016    0.09    -69.37   
    56. D(C   8,C   1,N   0,H  12)     49.22  0.000033   -0.03     49.19   
    57. D(H  13,C   1,N   0,H  11)    174.05  0.000017    0.26    174.31   
    58. D(C   2,C   1,N   0,H  12)    175.34  0.000030    0.04    175.38   
    59. D(C   3,C   2,C   1,N   0)    -69.96 -0.000032    0.88    -69.08   
    60. D(C   3,C   2,C   1,C   8)     59.62 -0.000059    0.86     60.48   
    61. D(H  14,C   2,C   1,C   8)   -178.84 -0.000032    0.95   -177.89   
    62. D(H  14,C   2,C   1,N   0)     51.58 -0.000005    0.97     52.55   
    63. D(H  14,C   2,C   1,H  13)    -65.54 -0.000045    0.90    -64.65   
    64. D(C   3,C   2,C   1,H  13)    172.92 -0.000072    0.81    173.73   
    65. D(C   4,C   3,C   2,H  15)    117.87  0.000115   -2.14    115.73   
    66. D(C   4,C   3,C   2,H  14)   -123.04  0.000098   -2.21   -125.25   
    67. D(C   4,C   3,C   2,C   1)     -2.59  0.000076   -2.00     -4.59   
    68. D(N   7,C   3,C   2,C   1)    178.10  0.000071   -1.72    176.38   
    69. D(N   7,C   3,C   2,H  14)     57.64  0.000093   -1.93     55.71   
    70. D(H  16,C   4,C   3,N   7)    179.84 -0.000010    0.08    179.91   
    71. D(H  16,C   4,C   3,C   2)      0.44 -0.000014    0.33      0.77   
    72. D(N   5,C   4,C   3,N   7)      0.12  0.000003   -0.05      0.07   
    73. D(N   5,C   4,C   3,C   2)   -179.27 -0.000001    0.20   -179.08   
    74. D(C   6,N   5,C   4,H  16)   -179.81  0.000002   -0.07   -179.88   
    75. D(C   6,N   5,C   4,C   3)     -0.06 -0.000009    0.05     -0.01   
    76. D(H  17,C   6,N   5,C   4)   -179.95  0.000005   -0.00   -179.96   
    77. D(N   7,C   6,N   5,C   4)     -0.03  0.000012   -0.04     -0.06   
    78. D(C   3,N   7,C   6,H  17)   -179.97 -0.000004   -0.03   -180.00   
    79. D(C   3,N   7,C   6,N   5)      0.10 -0.000011    0.00      0.11   
    80. D(H  18,N   7,C   3,C   4)   -179.68  0.000007   -0.08   -179.76   
    81. D(H  18,N   7,C   3,C   2)     -0.19  0.000011   -0.29     -0.49   
    82. D(C   6,N   7,C   3,C   4)     -0.13  0.000005    0.03     -0.10   
    83. D(H  18,N   7,C   6,N   5)    179.64 -0.000014    0.12    179.76   
    84. D(C   6,N   7,C   3,C   2)    179.36  0.000008   -0.18    179.17   
    85. D(H  18,N   7,C   6,H  17)     -0.43 -0.000008    0.08     -0.35   
    86. D(O  10,C   8,C   1,C   2)   -138.34  0.000025   -0.37   -138.72   
    87. D(O  10,C   8,C   1,N   0)    -11.43  0.000029   -0.28    -11.71   
    88. D(O   9,C   8,C   1,H  13)    -70.98  0.000008   -0.33    -71.31   
    89. D(O   9,C   8,C   1,C   2)     44.22 -0.000018   -0.30     43.92   
    90. D(O   9,C   8,C   1,N   0)    171.14 -0.000015   -0.21    170.93   
    91. D(H  19,O  10,C   8,O   9)      0.88 -0.000024    0.01      0.89   
    92. D(H  19,O  10,C   8,C   1)   -176.58 -0.000065    0.07   -176.50   
    ----------------------------------------------------------------------------

Geometry step timings:
Preparation and reading OPT file:      0.000 s ( 0.683 %)
Internal coordinates            :      0.000 s ( 0.853 %)
B/P matrices and projection     :      0.000 s (37.201 %)
Hessian update/contruction      :      0.000 s (11.092 %)
Making the step                 :      0.000 s (32.338 %)
Converting the step to Cartesian:      0.000 s ( 2.901 %)
Storing new data                :      0.000 s ( 0.853 %)
Checking convergence            :      0.000 s ( 1.024 %)
Final printing                  :      0.000 s (13.055 %)
Total time                      :      0.001 s

Time for energy+gradient        :      0.019 s
Time for complete geometry iter :      0.021 s

         *************************************************************
         *                GEOMETRY OPTIMIZATION CYCLE  17            *
         *************************************************************
---------------------------------
CARTESIAN COORDINATES (ANGSTROEM)
---------------------------------
  N    -1.400869   -1.606640    0.696524
  C    -1.380872   -0.723390   -0.449449
  C     0.007574   -0.685561   -1.099206
  C     1.032360   -0.009255   -0.252300
  C     0.990197    0.654738    0.944078
  N     2.229786    1.111307    1.282336
  C     3.015637    0.733553    0.311186
  N     2.344386    0.050822   -0.643098
  C    -1.871774    0.703598   -0.201241
  O    -1.769563    1.601429   -1.010033
  O    -2.472904    0.855551    0.966745
  H    -0.697434   -1.321653    1.369408
  H    -2.302767   -1.560296    1.156656
  H    -2.084754   -1.134172   -1.188901
  H     0.314916   -1.713793   -1.298434
  H    -0.076007   -0.152420   -2.050035
  H     0.160531    0.845321    1.595027
  H     4.066241    0.934600    0.268916
  H     2.725426   -0.340101   -1.489607
  H    -2.830109    1.756361    1.091429

----------------------------
CARTESIAN COORDINATES (A.U.)
----------------------------
  NO LB    ZA    FRAG    MASS        X           Y           Z
   0 N   7.0000    0    14.007   -2.647258   -3.036110    1.316239
   1 C   6.0000    0    12.011   -2.609471   -1.367009   -0.849335
   2 C   6.0000    0    12.011    0.014313   -1.295523   -2.077199
   3 C   6.0000    0    12.011    1.950878   -0.017489   -0.476779
   4 C   6.0000    0    12.011    1.871202    1.237275    1.784048
   5 N   7.0000    0    14.007    4.213685    2.100066    2.423263
   6 C   6.0000    0    12.011    5.698727    1.386215    0.588057
   7 N   7.0000    0    14.007    4.430248    0.096040   -1.215280
   8 C   6.0000    0    12.011   -3.537141    1.329607   -0.380290
   9 O   8.0000    0    15.999   -3.343990    3.026263   -1.908686
  10 O   8.0000    0    15.999   -4.673112    1.616757    1.826883
  11 H   1.0000    0     1.008   -1.317959   -2.497562    2.587805
  12 H   1.0000    0     1.008   -4.351599   -2.948531    2.185763
  13 H   1.0000    0     1.008   -3.939614   -2.143274   -2.246697
  14 H   1.0000    0     1.008    0.595104   -3.238599   -2.453684
  15 H   1.0000    0     1.008   -0.143633   -0.288032   -3.874005
  16 H   1.0000    0     1.008    0.303360    1.597425    3.014164
  17 H   1.0000    0     1.008    7.684082    1.766138    0.508178
  18 H   1.0000    0     1.008    5.150309   -0.642698   -2.814948
  19 H   1.0000    0     1.008   -5.348130    3.319042    2.062501

      -----------------------------------------------------------      
     |                   =====================                   |     
     |                           x T B                           |     
     |                   =====================                   |     
     |                         S. Grimme                         |     
     |          Mulliken Center for Theoretical Chemistry        |     
     |                    University of Bonn                     |     
      -----------------------------------------------------------      

   * xtb version 6.7.1 (edcfbbe) compiled by 'albert@albert-system' on 2024-07-22

   xtb is free software: you can redistribute it and/or modify it under
   the terms of the GNU Lesser General Public License as published by
   the Free Software Foundation, either version 3 of the License, or
   (at your option) any later version.
   
   xtb is distributed in the hope that it will be useful,
   but WITHOUT ANY WARRANTY; without even the implied warranty of
   MERCHANTABILITY or FITNESS FOR A PARTICULAR PURPOSE.  See the
   GNU Lesser General Public License for more details.
   
   Cite this work as:
   * C. Bannwarth, E. Caldeweyher, S. Ehlert, A. Hansen, P. Pracht,
     J. Seibert, S. Spicher, S. Grimme, WIREs Comput. Mol. Sci., 2020, 11,
     e01493. DOI: 10.1002/wcms.1493
   
   for GFN2-xTB:
   * C. Bannwarth, S. Ehlert and S. Grimme., J. Chem. Theory Comput., 2019,
     15, 1652-1671. DOI: 10.1021/acs.jctc.8b01176
   for GFN1-xTB:
   * S. Grimme, C. Bannwarth, P. Shushkov, J. Chem. Theory Comput., 2017,
     13, 1989-2009. DOI: 10.1021/acs.jctc.7b00118
   for GFN0-xTB:
   * P. Pracht, E. Caldeweyher, S. Ehlert, S. Grimme, ChemRxiv, 2019, preprint.
     DOI: 10.26434/chemrxiv.8326202.v1
   for GFN-FF:
   * S. Spicher and S. Grimme, Angew. Chem. Int. Ed., 2020, 59, 15665-15673.
     DOI: 10.1002/anie.202004239
   
   for ALPB and GBSA implicit solvation:
   * S. Ehlert, M. Stahn, S. Spicher, S. Grimme, J. Chem. Theory Comput.,
     2021, 17, 4250-4261. DOI: 10.1021/acs.jctc.1c00471
   
   for ddCOSMO and CPCM-X implicit solvation:
   * M. Stahn, S. Ehlert, S. Grimme, J. Phys. Chem. A,
     2023, XX, XXXX-XXXX. DOI: 10.1021/acs.jpca.3c04382
   
   for DFT-D4:
   * E. Caldeweyher, C. Bannwarth and S. Grimme, J. Chem. Phys., 2017,
     147, 034112. DOI: 10.1063/1.4993215
   * E. Caldeweyher, S. Ehlert, A. Hansen, H. Neugebauer, S. Spicher,
     C. Bannwarth and S. Grimme, J. Chem. Phys., 2019, 150, 154122.
     DOI: 10.1063/1.5090222
   * E. Caldeweyher, J.-M. Mewes, S. Ehlert and S. Grimme, Phys. Chem. Chem. Phys.
     2020, 22, 8499-8512. DOI: 10.1039/D0CP00502A
   
   for sTDA-xTB:
   * S. Grimme and C. Bannwarth, J. Chem. Phys., 2016, 145, 054103.
     DOI: 10.1063/1.4959605
   
   in the mass-spec context:
   * V. Asgeirsson, C. Bauer and S. Grimme, Chem. Sci., 2017, 8, 4879.
     DOI: 10.1039/c7sc00601b
   * J. Koopman and S. Grimme, ACS Omega 2019, 4, 12, 15120-15133.
     DOI: 10.1021/acsomega.9b02011
   
   for metadynamics refer to:
   * S. Grimme, J. Chem. Theory Comput., 2019, 155, 2847-2862
     DOI: 10.1021/acs.jctc.9b00143
   
   for SPH calculations refer to:
   * S. Spicher and S. Grimme, J. Chem. Theory Comput., 2021, 17, 1701-1714
     DOI: 10.1021/acs.jctc.0c01306
   
   for ONIOM refer to:
   * C. Plett, A. Katbashev, S. Ehlert, S. Grimme, M. Bursch,
     Phys. Chem. Chem. Phys., 2023, 25, 17860-17868. DOI: 10.1039/D3CP02178E
   
   for DIPRO refer to:
   * J. Kohn, N. Gildemeister, S. Grimme, D. Fazzi, A. Hansen,
     J. Chem. Phys., 2023, just accepted.
   
   for PTB refer to:
   * S. Grimme, M. Mueller, A. Hansen, J. Chem. Phys., 2023, 158, 124111.
     DOI: 10.1063/5.0137838
   
   with help from (in alphabetical order)
   P. Atkinson, C. Bannwarth, F. Bohle, G. Brandenburg, E. Caldeweyher
   M. Checinski, S. Dohm, S. Ehlert, S. Ehrlich, I. Gerasimov, C. Hölzer
   A. Katbashev, J. Kohn, J. Koopman, C. Lavigne, S. Lehtola, F. März, M. Müller,
   F. Musil, H. Neugebauer, J. Pisarek, C. Plett, P. Pracht, F. Pultar,
   J. Seibert, P. Shushkov, S. Spicher, M. Stahn, M. Steiner, T. Strunk,
   J. Stückrath, T. Rose, and J. Unsleber
   
 * started run on 2026/04/09 at 16:06:43.753     
   ID    Z sym.   atoms
    1    7 N      1, 6, 8
    2    6 C      2-5, 7, 9
    3    8 O      10, 11
    4    1 H      12-20

           -------------------------------------------------
          |                Calculation Setup                |
           -------------------------------------------------

          program call               : /home/analima/Programs/orca-6.1.0-f.0_linux_x86-64/bin/otool_xtb geo_opt_XTB.xyz --grad -c 0 -u 0 -P 1 --namespace geo_opt --input geo_opt_XTB.input.tmp --alpb WATER --acc 0.200000
          calculation namespace      : geo_opt
          coordinate file            : geo_opt_XTB.xyz
          omp threads                :                     1


           -------------------------------------------------
          |                 G F N 2 - x T B                 |
           -------------------------------------------------

        Reference                      10.1021/acs.jctc.8b01176
      * Hamiltonian:
        H0-scaling (s, p, d)           1.850000    2.230000    2.230000
        zeta-weighting                 0.500000
      * Dispersion:
        s8                             2.700000
        a1                             0.520000
        a2                             5.000000
        s9                             5.000000
      * Repulsion:
        kExp                           1.500000    1.000000
        rExp                           1.000000
      * Coulomb:
        alpha                          2.000000
        third order                    shell-resolved
        anisotropic                    true
        a3                             3.000000
        a5                             4.000000
        cn-shift                       1.200000
        cn-exp                         4.000000
        max-rad                        5.000000

      * Solvation model:               ALPB
        Solvent                        WATER
        Parameter file                 internal GFN2-xTB/ALPB
        Dielectric constant                8.0200E+01
        Reference state                gsolv [1 M gas/solution]
        Free energy shift                  1.0808E-03 Eh       6.7819E-01 kcal/mol
        Temperature                        2.9815E+02 K
        Density                            1.0000E+00 kg/L
        Solvent mass                       1.8000E+01 g/mol
        Interaction kernel             P16
        Born radius scaling (c1)           1.4744E+00
        Born radii integrator          GBOBC
        Born offset                        0.0000E+00 a0       0.0000E+00 AA
        H-bond correction              true
        Ion screening                  false
        Surface tension                    1.0000E-05 Eh       1.5569E+01 dyn/cm
        Grid points                               230 per atom
q/qsh data taken from xtbrestart
CAMM data taken from xtbrestart

          ...................................................
          :                      SETUP                      :
          :.................................................:
          :  # basis functions                  53          :
          :  # atomic orbitals                  53          :
          :  # shells                           31          :
          :  # electrons                        60          :
          :  max. iterations                   250          :
          :  Hamiltonian                  GFN2-xTB          :
          :  restarted?                       true          :
          :  GBSA solvation                   true          :
          :  PC potential                    false          :
          :  electronic temp.          300.0000000     K    :
          :  accuracy                    0.2000000          :
          :  -> integral cutoff          0.3198970E+02      :
          :  -> integral neglect         0.2000000E-08      :
          :  -> SCF convergence          0.2000000E-06 Eh   :
          :  -> wf. convergence          0.2000000E-04 e    :
          :  Broyden damping             0.4000000          :
          :  net charge                          0          :
          :  unpaired electrons                  0          :
          ...................................................

 iter      E             dE          RMSdq      gap      omega  full diag
   1    -34.7645230 -0.347645E+02  0.631E-02    3.51       0.0  T
   2    -34.7645236 -0.602085E-06  0.366E-02    3.51       1.0  T
   3    -34.7645238 -0.149434E-06  0.327E-03    3.51       6.8  T
   4    -34.7645238 -0.818972E-07  0.160E-03    3.51      14.0  T
   5    -34.7645238 -0.188340E-08  0.339E-04    3.51      66.0  T
   6    -34.7645238 -0.779082E-09  0.141E-04    3.51     158.9  T
   7    -34.7645238 -0.758860E-10  0.800E-05    3.51     279.7  T

   *** convergence criteria satisfied after 7 iterations ***

         #    Occupation            Energy/Eh            Energy/eV
      -------------------------------------------------------------
         1        2.0000           -0.7538134             -20.5123
       ...           ...                  ...                  ...
        24        2.0000           -0.4659819             -12.6800
        25        2.0000           -0.4522336             -12.3059
        26        2.0000           -0.4447187             -12.1014
        27        2.0000           -0.4280242             -11.6471
        28        2.0000           -0.3821404             -10.3986
        29        2.0000           -0.3807499             -10.3607
        30        2.0000           -0.3738156             -10.1720 (HOMO)
        31                         -0.2447245              -6.6593 (LUMO)
        32                         -0.1997864              -5.4365
        33                         -0.1661763              -4.5219
        34                          0.0197913               0.5385
        35                          0.0330230               0.8986
       ...                                ...                  ...
        53                          0.6285225              17.1030
      -------------------------------------------------------------
                  HL-Gap            0.1290911 Eh            3.5127 eV
             Fermi-level           -0.3092700 Eh           -8.4157 eV

 SCC (total)                   0 d,  0 h,  0 min,  0.008 sec
 SCC setup                      ...        0 min,  0.000 sec (  3.160%)
 Dispersion                     ...        0 min,  0.000 sec (  0.701%)
 classical contributions        ...        0 min,  0.000 sec (  0.142%)
 integral evaluation            ...        0 min,  0.001 sec ( 11.881%)
 iterations                     ...        0 min,  0.004 sec ( 50.943%)
 molecular gradient             ...        0 min,  0.003 sec ( 32.618%)
 printout                       ...        0 min,  0.000 sec (  0.454%)

         :::::::::::::::::::::::::::::::::::::::::::::::::::::
         ::                     SUMMARY                     ::
         :::::::::::::::::::::::::::::::::::::::::::::::::::::
         :: total energy             -34.364264380438 Eh    ::
         :: total w/o Gsasa/hb       -34.350001599814 Eh    ::
         :: gradient norm              0.001111501201 Eh/a0 ::
         :: HOMO-LUMO gap              3.512748711703 eV    ::
         ::.................................................::
         :: SCC energy               -34.764421450934 Eh    ::
         :: -> isotropic ES            0.095848256960 Eh    ::
         :: -> anisotropic ES          0.003403410466 Eh    ::
         :: -> anisotropic XC          0.015618947245 Eh    ::
         :: -> dispersion             -0.016884102309 Eh    ::
         :: -> Gsolv                  -0.030223887845 Eh    ::
         ::    -> Gelec               -0.015961107221 Eh    ::
         ::    -> Gsasa               -0.002453127096 Eh    ::
         ::    -> Ghb                 -0.012890413227 Eh    ::
         ::    -> Gshift               0.001080759698 Eh    ::
         :: repulsion energy           0.400157070496 Eh    ::
         :: add. restraining           0.000000000000 Eh    ::
         :: total charge              -0.000000000000 e     ::
         :::::::::::::::::::::::::::::::::::::::::::::::::::::


Property printout bound to 'properties.out'

           -------------------------------------------------
          | TOTAL ENERGY              -34.364264380438 Eh   |
          | GRADIENT NORM               0.001111501201 Eh/α |
          | HOMO-LUMO GAP               3.512748711703 eV   |
           -------------------------------------------------

------------------------------------------------------------------------
 * finished run on 2026/04/09 at 16:06:43.765     
------------------------------------------------------------------------
 total:
 * wall-time:     0 d,  0 h,  0 min,  0.012 sec
 *  cpu-time:     0 d,  0 h,  0 min,  0.011 sec
 * ratio c/w:     0.889 speedup
 SCF:
 * wall-time:     0 d,  0 h,  0 min,  0.008 sec
 *  cpu-time:     0 d,  0 h,  0 min,  0.007 sec
 * ratio c/w:     0.835 speedup


-------------------------   --------------------
FINAL SINGLE POINT ENERGY       -34.364264380440
-------------------------   --------------------


-------------
DIPOLE MOMENT
-------------
                                X             Y             Z
Total Dipole Moment    :     -0.24400      -0.93300      -0.68700
                        -----------------------------------------
Magnitude (a.u.)       :      1.18406
Magnitude (Debye)      :      3.00964


------------------
CARTESIAN GRADIENT
------------------

   1   N   :   -0.000034265    0.000244519   -0.000380088
   2   C   :    0.000349620   -0.000282889   -0.000050065
   3   C   :   -0.000030498   -0.000281874    0.000127571
   4   C   :   -0.000044765    0.000117368   -0.000013643
   5   C   :    0.000159815    0.000055454    0.000162350
   6   N   :    0.000011924   -0.000077518   -0.000075688
   7   C   :    0.000138634    0.000143684    0.000116690
   8   N   :   -0.000402465   -0.000099042   -0.000187434
   9   C   :   -0.000169224   -0.000018688    0.000436111
  10   O   :   -0.000016514    0.000140702   -0.000111455
  11   O   :   -0.000051474   -0.000113223   -0.000026385
  12   H   :   -0.000049334    0.000027648    0.000122730
  13   H   :    0.000034140    0.000073715   -0.000047386
  14   H   :   -0.000076290    0.000096722   -0.000000114
  15   H   :    0.000027861    0.000009806   -0.000036966
  16   H   :   -0.000035935   -0.000060681   -0.000017768
  17   H   :    0.000014585    0.000032531    0.000051743
  18   H   :   -0.000049228   -0.000021660    0.000007723
  19   H   :    0.000085858    0.000052300    0.000077741
  20   H   :    0.000137556   -0.000038873   -0.000155667

Difference to translation invariance:
           :    0.0000000000   -0.0000000000   -0.0000000000

Difference to rotation invariance:
           :    0.0001055830   -0.0003390423    0.0000662644

Norm of the Cartesian gradient     ...    0.0011115012
RMS gradient                       ...    0.0001434942
MAX gradient                       ...    0.0004361108
------------------------------------------------------------------------------
                         ORCA GEOMETRY RELAXATION STEP
------------------------------------------------------------------------------

Reading the OPT-File                    .... done
Getting information on internals        .... done
Copying old internal coords+grads       .... done
Making the new internal coordinates     .... (2022 redundants) done
Validating the new internal coordinates .... (2022 redundants) done
Calculating the B-matrix                .... done
Calculating the G,G- and P matrices     .... done
Transforming gradient to internals      .... done
Projecting the internal gradient        .... done
Number of atoms                         ....  20
Number of internal coordinates          ....  92
Current Energy                          ....   -34.364264380 Eh
Current gradient norm                   ....     0.001111501 Eh/bohr
Maximum allowed component of the step   ....  0.300
Current trust radius                    ....  0.467
Updating the Hessian (BFGS)             .... done
Forming the augmented Hessian           .... done
Diagonalizing the augmented Hessian     .... done
Last element of RFO vector              ....  0.994884526
Lowest eigenvalues of augmented Hessian:
 -0.000016105  0.001197919  0.003007449  0.011866511  0.017079060
Length of the computed step             ....  0.101538122
The final length of the internal step   ....  0.101538122
Converting the step to Cartesian space:
 Initial RMS(Int)=    0.0105860810
Transforming coordinates:
 Iter   0:  RMS(Cart)=    0.0283922130 RMS(Int)=    0.0105800935
done
Storing new coordinates                 .... done
The predicted energy change is          ....    -0.000008136
Previously predicted energy change      ....    -0.000010464
Actually observed energy change         ....    -0.000014613
Ratio of predicted to observed change   ....     1.396562975
New trust radius                        ....     0.466666667

                                .--------------------.
          ----------------------|Geometry convergence|-------------------------
          Item                value                   Tolerance       Converged
          ---------------------------------------------------------------------
          Energy change      -0.0000146133            0.0000050000      NO
          RMS gradient        0.0001087875            0.0001000000      NO
          MAX gradient        0.0004001599            0.0003000000      NO
          RMS step            0.0105860810            0.0020000000      NO
          MAX step            0.0414334767            0.0040000000      NO
          -------------------------------------------------------------------------
          ........................................................
          Max(Bonds)      0.0041      Max(Angles)    0.12
          Max(Dihed)        2.37      Max(Improp)    0.00
          ---------------------------------------------------------------------

The optimization has not yet converged - more geometry cycles are needed


    ---------------------------------------------------------------------------
                         Redundant Internal Coordinates
                            (Angstroem and degrees)

        Definition                    Value    dE/dq     Step     New-Value
    ----------------------------------------------------------------------------
     1. B(C   1,N   0)                1.4470 -0.000379  0.0000    1.4470   
     2. B(C   2,C   1)                1.5334 -0.000197 -0.0003    1.5332   
     3. B(C   3,C   2)                1.4916  0.000097 -0.0001    1.4915   
     4. B(C   4,C   3)                1.3689  0.000216  0.0001    1.3690   
     5. B(N   5,C   4)                1.3636 -0.000031 -0.0002    1.3634   
     6. B(C   6,N   5)                1.3051 -0.000103  0.0001    1.3053   
     7. B(N   7,C   3)                1.3703 -0.000154  0.0000    1.3703   
     8. B(N   7,C   6)                1.3518  0.000118  0.0001    1.3519   
     9. B(C   8,C   1)                1.5293  0.000123  0.0005    1.5299   
    10. B(O   9,C   8)                1.2127  0.000176 -0.0000    1.2127   
    11. B(O  10,C   8)                1.3224 -0.000206  0.0002    1.3226   
    12. B(H  11,N   0)                1.0143  0.000058  0.0001    1.0144   
    13. B(H  12,N   0)                1.0136 -0.000055 -0.0000    1.0135   
    14. B(H  12,O  10)                2.4293 -0.000099 -0.0041    2.4251   
    15. B(H  13,C   1)                1.1004  0.000011  0.0001    1.1006   
    16. B(H  14,C   2)                1.0915  0.000006 -0.0001    1.0914   
    17. B(H  15,C   2)                1.0933 -0.000012  0.0002    1.0935   
    18. B(H  16,C   4)                1.0716  0.000023  0.0000    1.0717   
    19. B(H  17,C   6)                1.0705 -0.000052  0.0000    1.0705   
    20. B(H  18,N   7)                1.0073 -0.000050 -0.0000    1.0072   
    21. B(H  19,O  10)                0.9770 -0.000105  0.0002    0.9772   
    22. A(C   1,N   0,H  12)          110.12 -0.000010   -0.03    110.08   
    23. A(H  11,N   0,H  12)          107.64 -0.000040    0.00    107.65   
    24. A(C   1,N   0,H  11)          110.14  0.000106   -0.00    110.14   
    25. A(N   0,C   1,C   8)          115.89 -0.000107   -0.03    115.85   
    26. A(C   8,C   1,H  13)          104.60 -0.000033   -0.05    104.54   
    27. A(N   0,C   1,H  13)          107.19 -0.000002   -0.01    107.18   
    28. A(C   2,C   1,H  13)          107.68  0.000004    0.02    107.69   
    29. A(C   2,C   1,C   8)          109.66  0.000052    0.02    109.68   
    30. A(N   0,C   1,C   2)          111.29  0.000083    0.06    111.35   
    31. A(C   3,C   2,H  15)          108.98  0.000028    0.05    109.03   
    32. A(C   3,C   2,H  14)          109.71 -0.000041   -0.05    109.66   
    33. A(C   1,C   2,H  14)          108.00  0.000004    0.12    108.12   
    34. A(H  14,C   2,H  15)          108.79 -0.000081   -0.02    108.77   
    35. A(C   1,C   2,C   3)          113.12  0.000229   -0.02    113.10   
    36. A(C   1,C   2,H  15)          108.14 -0.000151   -0.08    108.06   
    37. A(C   4,C   3,N   7)          104.92 -0.000062   -0.00    104.92   
    38. A(C   2,C   3,N   7)          121.05 -0.000338    0.01    121.06   
    39. A(C   2,C   3,C   4)          134.03  0.000400   -0.01    134.02   
    40. A(N   5,C   4,H  16)          119.57 -0.000054    0.06    119.64   
    41. A(C   3,C   4,H  16)          129.86  0.000065   -0.08    129.79   
    42. A(C   3,C   4,N   5)          110.56 -0.000011    0.01    110.57   
    43. A(C   4,N   5,C   6)          105.42  0.000032   -0.00    105.41   
    44. A(N   5,C   6,H  17)          124.47  0.000020   -0.00    124.46   
    45. A(N   5,C   6,N   7)          111.87 -0.000024    0.00    111.87   
    46. A(N   7,C   6,H  17)          123.66  0.000004    0.00    123.67   
    47. A(C   3,N   7,H  18)          125.79  0.000073    0.10    125.89   
    48. A(C   6,N   7,H  18)          126.97 -0.000138   -0.09    126.88   
    49. A(C   3,N   7,C   6)          107.23  0.000065   -0.00    107.23   
    50. A(O   9,C   8,O  10)          122.84 -0.000110   -0.01    122.83   
    51. A(C   1,C   8,O  10)          113.36  0.000158   -0.03    113.33   
    52. A(C   1,C   8,O   9)          123.75 -0.000049    0.03    123.78   
    53. A(C   8,O  10,H  19)          112.63 -0.000325   -0.04    112.59   
    54. D(C   2,C   1,N   0,H  11)     56.81  0.000054   -0.08     56.74   
    55. D(C   8,C   1,N   0,H  11)    -69.37 -0.000002   -0.13    -69.50   
    56. D(C   8,C   1,N   0,H  12)     49.19  0.000009   -0.15     49.04   
    57. D(H  13,C   1,N   0,H  11)    174.31  0.000104   -0.03    174.28   
    58. D(C   2,C   1,N   0,H  12)    175.38  0.000065   -0.10    175.27   
    59. D(C   3,C   2,C   1,N   0)    -69.08 -0.000072    1.10    -67.98   
    60. D(C   3,C   2,C   1,C   8)     60.48 -0.000107    1.11     61.59   
    61. D(H  14,C   2,C   1,C   8)   -177.90 -0.000009    1.12   -176.77   
    62. D(H  14,C   2,C   1,N   0)     52.55  0.000027    1.11     53.66   
    63. D(H  14,C   2,C   1,H  13)    -64.65 -0.000020    1.08    -63.57   
    64. D(C   3,C   2,C   1,H  13)    173.73 -0.000118    1.07    174.79   
    65. D(C   4,C   3,C   2,H  15)    115.73  0.000083   -2.35    113.38   
    66. D(C   4,C   3,C   2,H  14)   -125.25 -0.000022   -2.37   -127.63   
    67. D(C   4,C   3,C   2,C   1)     -4.59  0.000107   -2.27     -6.86   
    68. D(N   7,C   3,C   2,C   1)    176.38  0.000135   -2.08    174.30   
    69. D(N   7,C   3,C   2,H  14)     55.71  0.000005   -2.19     53.53   
    70. D(H  16,C   4,C   3,N   7)    179.92 -0.000009    0.08    179.99   
    71. D(H  16,C   4,C   3,C   2)      0.77  0.000018    0.24      1.02   
    72. D(N   5,C   4,C   3,N   7)      0.07 -0.000014    0.03      0.10   
    73. D(N   5,C   4,C   3,C   2)   -179.07  0.000013    0.20   -178.87   
    74. D(C   6,N   5,C   4,H  16)   -179.87  0.000012   -0.08   -179.95   
    75. D(C   6,N   5,C   4,C   3)     -0.01  0.000017   -0.05     -0.06   
    76. D(H  17,C   6,N   5,C   4)   -179.96  0.000002    0.02   -179.93   
    77. D(N   7,C   6,N   5,C   4)     -0.06 -0.000013    0.05     -0.01   
    78. D(C   3,N   7,C   6,H  17)   -180.00 -0.000010   -0.00   -180.00   
    79. D(C   3,N   7,C   6,N   5)      0.11  0.000004   -0.03      0.08   
    80. D(H  18,N   7,C   3,C   4)   -179.76  0.000003   -0.12   -179.88   
    81. D(H  18,N   7,C   3,C   2)     -0.48 -0.000012   -0.26     -0.74   
    82. D(C   6,N   7,C   3,C   4)     -0.10  0.000006   -0.00     -0.11   
    83. D(H  18,N   7,C   6,N   5)    179.76  0.000008    0.09    179.85   
    84. D(C   6,N   7,C   3,C   2)    179.18 -0.000009   -0.14    179.04   
    85. D(H  18,N   7,C   6,H  17)     -0.34 -0.000006    0.12     -0.22   
    86. D(O  10,C   8,C   1,C   2)   -138.72 -0.000039   -0.41   -139.13   
    87. D(O  10,C   8,C   1,N   0)    -11.70  0.000034   -0.34    -12.05   
    88. D(O   9,C   8,C   1,H  13)    -71.31 -0.000034   -0.36    -71.67   
    89. D(O   9,C   8,C   1,C   2)     43.92 -0.000023   -0.36     43.56   
    90. D(O   9,C   8,C   1,N   0)    170.93  0.000050   -0.30    170.64   
    91. D(H  19,O  10,C   8,O   9)      0.89 -0.000048    0.08      0.97   
    92. D(H  19,O  10,C   8,C   1)   -176.50 -0.000034    0.13   -176.37   
    ----------------------------------------------------------------------------

Geometry step timings:
Preparation and reading OPT file:      0.000 s ( 0.769 %)
Internal coordinates            :      0.000 s ( 0.769 %)
B/P matrices and projection     :      0.000 s (37.521 %)
Hessian update/contruction      :      0.000 s (10.342 %)
Making the step                 :      0.000 s (32.821 %)
Converting the step to Cartesian:      0.000 s ( 3.077 %)
Storing new data                :      0.000 s ( 0.940 %)
Checking convergence            :      0.000 s ( 1.026 %)
Final printing                  :      0.000 s (12.735 %)
Total time                      :      0.001 s

Time for energy+gradient        :      0.016 s
Time for complete geometry iter :      0.017 s

         *************************************************************
         *                GEOMETRY OPTIMIZATION CYCLE  18            *
         *************************************************************
---------------------------------
CARTESIAN COORDINATES (ANGSTROEM)
---------------------------------
  N    -1.382061   -1.603737    0.699422
  C    -1.378501   -0.722396   -0.448193
  C     0.004946   -0.669272   -1.106875
  C     1.032808   -0.002653   -0.256249
  C     0.989761    0.675644    0.932105
  N     2.232842    1.116725    1.277307
  C     3.022203    0.714745    0.318650
  N     2.349414    0.031860   -0.634615
  C    -1.885311    0.699431   -0.198968
  O    -1.793892    1.599135   -1.006944
  O    -2.488315    0.843368    0.969334
  H    -0.677087   -1.310420    1.367183
  H    -2.281396   -1.564969    1.165216
  H    -2.082703   -1.142080   -1.182478
  H     0.316375   -1.692190   -1.325527
  H    -0.088709   -0.121060   -2.048392
  H     0.156280    0.885395    1.572225
  H     4.076307    0.898476    0.284735
  H     2.734209   -0.375710   -1.471484
  H    -2.857168    1.739707    1.093548

----------------------------
CARTESIAN COORDINATES (A.U.)
----------------------------
  NO LB    ZA    FRAG    MASS        X           Y           Z
   0 N   7.0000    0    14.007   -2.611717   -3.030623    1.321715
   1 C   6.0000    0    12.011   -2.604989   -1.365130   -0.846962
   2 C   6.0000    0    12.011    0.009346   -1.264741   -2.091690
   3 C   6.0000    0    12.011    1.951723   -0.005014   -0.484240
   4 C   6.0000    0    12.011    1.870377    1.276781    1.761423
   5 N   7.0000    0    14.007    4.219460    2.110305    2.413761
   6 C   6.0000    0    12.011    5.711137    1.350673    0.602160
   7 N   7.0000    0    14.007    4.439748    0.060207   -1.199248
   8 C   6.0000    0    12.011   -3.562721    1.321733   -0.375995
   9 O   8.0000    0    15.999   -3.389965    3.021928   -1.902848
  10 O   8.0000    0    15.999   -4.702235    1.593735    1.831776
  11 H   1.0000    0     1.008   -1.279509   -2.476334    2.583601
  12 H   1.0000    0     1.008   -4.311214   -2.957362    2.201940
  13 H   1.0000    0     1.008   -3.935739   -2.158219   -2.234560
  14 H   1.0000    0     1.008    0.597862   -3.197775   -2.504884
  15 H   1.0000    0     1.008   -0.167636   -0.228769   -3.870900
  16 H   1.0000    0     1.008    0.295327    1.673155    2.971075
  17 H   1.0000    0     1.008    7.703103    1.697873    0.538071
  18 H   1.0000    0     1.008    5.166906   -0.709990   -2.780701
  19 H   1.0000    0     1.008   -5.399265    3.287569    2.066507

      -----------------------------------------------------------      
     |                   =====================                   |     
     |                           x T B                           |     
     |                   =====================                   |     
     |                         S. Grimme                         |     
     |          Mulliken Center for Theoretical Chemistry        |     
     |                    University of Bonn                     |     
      -----------------------------------------------------------      

   * xtb version 6.7.1 (edcfbbe) compiled by 'albert@albert-system' on 2024-07-22

   xtb is free software: you can redistribute it and/or modify it under
   the terms of the GNU Lesser General Public License as published by
   the Free Software Foundation, either version 3 of the License, or
   (at your option) any later version.
   
   xtb is distributed in the hope that it will be useful,
   but WITHOUT ANY WARRANTY; without even the implied warranty of
   MERCHANTABILITY or FITNESS FOR A PARTICULAR PURPOSE.  See the
   GNU Lesser General Public License for more details.
   
   Cite this work as:
   * C. Bannwarth, E. Caldeweyher, S. Ehlert, A. Hansen, P. Pracht,
     J. Seibert, S. Spicher, S. Grimme, WIREs Comput. Mol. Sci., 2020, 11,
     e01493. DOI: 10.1002/wcms.1493
   
   for GFN2-xTB:
   * C. Bannwarth, S. Ehlert and S. Grimme., J. Chem. Theory Comput., 2019,
     15, 1652-1671. DOI: 10.1021/acs.jctc.8b01176
   for GFN1-xTB:
   * S. Grimme, C. Bannwarth, P. Shushkov, J. Chem. Theory Comput., 2017,
     13, 1989-2009. DOI: 10.1021/acs.jctc.7b00118
   for GFN0-xTB:
   * P. Pracht, E. Caldeweyher, S. Ehlert, S. Grimme, ChemRxiv, 2019, preprint.
     DOI: 10.26434/chemrxiv.8326202.v1
   for GFN-FF:
   * S. Spicher and S. Grimme, Angew. Chem. Int. Ed., 2020, 59, 15665-15673.
     DOI: 10.1002/anie.202004239
   
   for ALPB and GBSA implicit solvation:
   * S. Ehlert, M. Stahn, S. Spicher, S. Grimme, J. Chem. Theory Comput.,
     2021, 17, 4250-4261. DOI: 10.1021/acs.jctc.1c00471
   
   for ddCOSMO and CPCM-X implicit solvation:
   * M. Stahn, S. Ehlert, S. Grimme, J. Phys. Chem. A,
     2023, XX, XXXX-XXXX. DOI: 10.1021/acs.jpca.3c04382
   
   for DFT-D4:
   * E. Caldeweyher, C. Bannwarth and S. Grimme, J. Chem. Phys., 2017,
     147, 034112. DOI: 10.1063/1.4993215
   * E. Caldeweyher, S. Ehlert, A. Hansen, H. Neugebauer, S. Spicher,
     C. Bannwarth and S. Grimme, J. Chem. Phys., 2019, 150, 154122.
     DOI: 10.1063/1.5090222
   * E. Caldeweyher, J.-M. Mewes, S. Ehlert and S. Grimme, Phys. Chem. Chem. Phys.
     2020, 22, 8499-8512. DOI: 10.1039/D0CP00502A
   
   for sTDA-xTB:
   * S. Grimme and C. Bannwarth, J. Chem. Phys., 2016, 145, 054103.
     DOI: 10.1063/1.4959605
   
   in the mass-spec context:
   * V. Asgeirsson, C. Bauer and S. Grimme, Chem. Sci., 2017, 8, 4879.
     DOI: 10.1039/c7sc00601b
   * J. Koopman and S. Grimme, ACS Omega 2019, 4, 12, 15120-15133.
     DOI: 10.1021/acsomega.9b02011
   
   for metadynamics refer to:
   * S. Grimme, J. Chem. Theory Comput., 2019, 155, 2847-2862
     DOI: 10.1021/acs.jctc.9b00143
   
   for SPH calculations refer to:
   * S. Spicher and S. Grimme, J. Chem. Theory Comput., 2021, 17, 1701-1714
     DOI: 10.1021/acs.jctc.0c01306
   
   for ONIOM refer to:
   * C. Plett, A. Katbashev, S. Ehlert, S. Grimme, M. Bursch,
     Phys. Chem. Chem. Phys., 2023, 25, 17860-17868. DOI: 10.1039/D3CP02178E
   
   for DIPRO refer to:
   * J. Kohn, N. Gildemeister, S. Grimme, D. Fazzi, A. Hansen,
     J. Chem. Phys., 2023, just accepted.
   
   for PTB refer to:
   * S. Grimme, M. Mueller, A. Hansen, J. Chem. Phys., 2023, 158, 124111.
     DOI: 10.1063/5.0137838
   
   with help from (in alphabetical order)
   P. Atkinson, C. Bannwarth, F. Bohle, G. Brandenburg, E. Caldeweyher
   M. Checinski, S. Dohm, S. Ehlert, S. Ehrlich, I. Gerasimov, C. Hölzer
   A. Katbashev, J. Kohn, J. Koopman, C. Lavigne, S. Lehtola, F. März, M. Müller,
   F. Musil, H. Neugebauer, J. Pisarek, C. Plett, P. Pracht, F. Pultar,
   J. Seibert, P. Shushkov, S. Spicher, M. Stahn, M. Steiner, T. Strunk,
   J. Stückrath, T. Rose, and J. Unsleber
   
 * started run on 2026/04/09 at 16:06:43.770     
   ID    Z sym.   atoms
    1    7 N      1, 6, 8
    2    6 C      2-5, 7, 9
    3    8 O      10, 11
    4    1 H      12-20

           -------------------------------------------------
          |                Calculation Setup                |
           -------------------------------------------------

          program call               : /home/analima/Programs/orca-6.1.0-f.0_linux_x86-64/bin/otool_xtb geo_opt_XTB.xyz --grad -c 0 -u 0 -P 1 --namespace geo_opt --input geo_opt_XTB.input.tmp --alpb WATER --acc 0.200000
          calculation namespace      : geo_opt
          coordinate file            : geo_opt_XTB.xyz
          omp threads                :                     1


           -------------------------------------------------
          |                 G F N 2 - x T B                 |
           -------------------------------------------------

        Reference                      10.1021/acs.jctc.8b01176
      * Hamiltonian:
        H0-scaling (s, p, d)           1.850000    2.230000    2.230000
        zeta-weighting                 0.500000
      * Dispersion:
        s8                             2.700000
        a1                             0.520000
        a2                             5.000000
        s9                             5.000000
      * Repulsion:
        kExp                           1.500000    1.000000
        rExp                           1.000000
      * Coulomb:
        alpha                          2.000000
        third order                    shell-resolved
        anisotropic                    true
        a3                             3.000000
        a5                             4.000000
        cn-shift                       1.200000
        cn-exp                         4.000000
        max-rad                        5.000000

      * Solvation model:               ALPB
        Solvent                        WATER
        Parameter file                 internal GFN2-xTB/ALPB
        Dielectric constant                8.0200E+01
        Reference state                gsolv [1 M gas/solution]
        Free energy shift                  1.0808E-03 Eh       6.7819E-01 kcal/mol
        Temperature                        2.9815E+02 K
        Density                            1.0000E+00 kg/L
        Solvent mass                       1.8000E+01 g/mol
        Interaction kernel             P16
        Born radius scaling (c1)           1.4744E+00
        Born radii integrator          GBOBC
        Born offset                        0.0000E+00 a0       0.0000E+00 AA
        H-bond correction              true
        Ion screening                  false
        Surface tension                    1.0000E-05 Eh       1.5569E+01 dyn/cm
        Grid points                               230 per atom
q/qsh data taken from xtbrestart
CAMM data taken from xtbrestart

          ...................................................
          :                      SETUP                      :
          :.................................................:
          :  # basis functions                  53          :
          :  # atomic orbitals                  53          :
          :  # shells                           31          :
          :  # electrons                        60          :
          :  max. iterations                   250          :
          :  Hamiltonian                  GFN2-xTB          :
          :  restarted?                       true          :
          :  GBSA solvation                   true          :
          :  PC potential                    false          :
          :  electronic temp.          300.0000000     K    :
          :  accuracy                    0.2000000          :
          :  -> integral cutoff          0.3198970E+02      :
          :  -> integral neglect         0.2000000E-08      :
          :  -> SCF convergence          0.2000000E-06 Eh   :
          :  -> wf. convergence          0.2000000E-04 e    :
          :  Broyden damping             0.4000000          :
          :  net charge                          0          :
          :  unpaired electrons                  0          :
          ...................................................

 iter      E             dE          RMSdq      gap      omega  full diag
   1    -34.7644051 -0.347644E+02  0.716E-02    3.51       0.0  T
   2    -34.7644058 -0.731460E-06  0.414E-02    3.51       1.0  T
   3    -34.7644060 -0.245106E-06  0.323E-03    3.51       6.9  T
   4    -34.7644061 -0.518034E-07  0.175E-03    3.51      12.8  T
   5    -34.7644061 -0.303208E-08  0.332E-04    3.51      67.3  T
   6    -34.7644061 -0.964590E-09  0.145E-04    3.51     154.0  T
   7    -34.7644061 -0.586766E-10  0.839E-05    3.51     266.5  T

   *** convergence criteria satisfied after 7 iterations ***

         #    Occupation            Energy/Eh            Energy/eV
      -------------------------------------------------------------
         1        2.0000           -0.7538501             -20.5133
       ...           ...                  ...                  ...
        24        2.0000           -0.4660215             -12.6811
        25        2.0000           -0.4523266             -12.3084
        26        2.0000           -0.4447796             -12.1031
        27        2.0000           -0.4280708             -11.6484
        28        2.0000           -0.3822528             -10.4016
        29        2.0000           -0.3807040             -10.3595
        30        2.0000           -0.3737809             -10.1711 (HOMO)
        31                         -0.2448169              -6.6618 (LUMO)
        32                         -0.1998526              -5.4383
        33                         -0.1662314              -4.5234
        34                          0.0197779               0.5382
        35                          0.0330031               0.8981
       ...                                ...                  ...
        53                          0.6281408              17.0926
      -------------------------------------------------------------
                  HL-Gap            0.1289639 Eh            3.5093 eV
             Fermi-level           -0.3092989 Eh           -8.4165 eV

 SCC (total)                   0 d,  0 h,  0 min,  0.011 sec
 SCC setup                      ...        0 min,  0.000 sec (  3.452%)
 Dispersion                     ...        0 min,  0.000 sec (  0.939%)
 classical contributions        ...        0 min,  0.000 sec (  0.190%)
 integral evaluation            ...        0 min,  0.001 sec ( 13.094%)
 iterations                     ...        0 min,  0.006 sec ( 51.586%)
 molecular gradient             ...        0 min,  0.003 sec ( 30.149%)
 printout                       ...        0 min,  0.000 sec (  0.444%)

         :::::::::::::::::::::::::::::::::::::::::::::::::::::
         ::                     SUMMARY                     ::
         :::::::::::::::::::::::::::::::::::::::::::::::::::::
         :: total energy             -34.364276093152 Eh    ::
         :: total w/o Gsasa/hb       -34.350014518872 Eh    ::
         :: gradient norm              0.001471493613 Eh/a0 ::
         :: HOMO-LUMO gap              3.509287637364 eV    ::
         ::.................................................::
         :: SCC energy               -34.764304440665 Eh    ::
         :: -> isotropic ES            0.095819073196 Eh    ::
         :: -> anisotropic ES          0.003429031175 Eh    ::
         :: -> anisotropic XC          0.015624664399 Eh    ::
         :: -> dispersion             -0.016875114088 Eh    ::
         :: -> Gsolv                  -0.030232778980 Eh    ::
         ::    -> Gelec               -0.015971204701 Eh    ::
         ::    -> Gsasa               -0.002456246858 Eh    ::
         ::    -> Ghb                 -0.012886087119 Eh    ::
         ::    -> Gshift               0.001080759698 Eh    ::
         :: repulsion energy           0.400028347514 Eh    ::
         :: add. restraining           0.000000000000 Eh    ::
         :: total charge               0.000000000000 e     ::
         :::::::::::::::::::::::::::::::::::::::::::::::::::::


Property printout bound to 'properties.out'

           -------------------------------------------------
          | TOTAL ENERGY              -34.364276093152 Eh   |
          | GRADIENT NORM               0.001471493613 Eh/α |
          | HOMO-LUMO GAP               3.509287637364 eV   |
           -------------------------------------------------

------------------------------------------------------------------------
 * finished run on 2026/04/09 at 16:06:43.787     
------------------------------------------------------------------------
 total:
 * wall-time:     0 d,  0 h,  0 min,  0.017 sec
 *  cpu-time:     0 d,  0 h,  0 min,  0.015 sec
 * ratio c/w:     0.883 speedup
 SCF:
 * wall-time:     0 d,  0 h,  0 min,  0.011 sec
 *  cpu-time:     0 d,  0 h,  0 min,  0.009 sec
 * ratio c/w:     0.831 speedup


-------------------------   --------------------
FINAL SINGLE POINT ENERGY       -34.364276093150
-------------------------   --------------------


-------------
DIPOLE MOMENT
-------------
                                X             Y             Z
Total Dipole Moment    :     -0.23900      -0.95700      -0.67900
                        -----------------------------------------
Magnitude (a.u.)       :      1.19750
Magnitude (Debye)      :      3.04381


------------------
CARTESIAN GRADIENT
------------------

   1   N   :   -0.000048388    0.000236150   -0.000326097
   2   C   :    0.000526079   -0.000428543   -0.000123917
   3   C   :   -0.000066982   -0.000296356    0.000193505
   4   C   :   -0.000211242    0.000110416    0.000103918
   5   C   :    0.000324013    0.000078199    0.000262291
   6   N   :   -0.000115009    0.000045194   -0.000117057
   7   C   :    0.000252427    0.000084552    0.000133405
   8   N   :   -0.000567256   -0.000191284   -0.000369289
   9   C   :   -0.000163069    0.000164323    0.000345789
  10   O   :   -0.000025572    0.000214991   -0.000125136
  11   O   :   -0.000084170   -0.000240149    0.000125430
  12   H   :   -0.000045241   -0.000002293    0.000120818
  13   H   :    0.000041060    0.000107993   -0.000070130
  14   H   :   -0.000130512    0.000055781    0.000012803
  15   H   :    0.000071082    0.000044214   -0.000112802
  16   H   :   -0.000067482   -0.000041906   -0.000032159
  17   H   :   -0.000015990   -0.000025994    0.000038749
  18   H   :   -0.000018926   -0.000022839    0.000006236
  19   H   :    0.000235727    0.000063302    0.000136943
  20   H   :    0.000109453    0.000044249   -0.000203298

Difference to translation invariance:
           :   -0.0000000000   -0.0000000000   -0.0000000000

Difference to rotation invariance:
           :    0.0001528362   -0.0003251925   -0.0000053450

Norm of the Cartesian gradient     ...    0.0014714936
RMS gradient                       ...    0.0001899690
MAX gradient                       ...    0.0005672563
------------------------------------------------------------------------------
                         ORCA GEOMETRY RELAXATION STEP
------------------------------------------------------------------------------

Reading the OPT-File                    .... done
Getting information on internals        .... done
Copying old internal coords+grads       .... done
Making the new internal coordinates     .... (2022 redundants) done
Validating the new internal coordinates .... (2022 redundants) done
Calculating the B-matrix                .... done
Calculating the G,G- and P matrices     .... done
Transforming gradient to internals      .... done
Projecting the internal gradient        .... done
Number of atoms                         ....  20
Number of internal coordinates          ....  92
Current Energy                          ....   -34.364276093 Eh
Current gradient norm                   ....     0.001471494 Eh/bohr
Maximum allowed component of the step   ....  0.300
Current trust radius                    ....  0.467
Updating the Hessian (BFGS)             .... done
Forming the augmented Hessian           .... done
Diagonalizing the augmented Hessian     .... done
Last element of RFO vector              ....  0.995515826
Lowest eigenvalues of augmented Hessian:
 -0.000012846  0.000804315  0.002981206  0.011895148  0.017077962
Length of the computed step             ....  0.095021234
The final length of the internal step   ....  0.095021234
Converting the step to Cartesian space:
 Initial RMS(Int)=    0.0099066484
Transforming coordinates:
 Iter   0:  RMS(Cart)=    0.0276575547 RMS(Int)=    0.6550909828
done
Storing new coordinates                 .... done
The predicted energy change is          ....    -0.000006481
Previously predicted energy change      ....    -0.000008136
Actually observed energy change         ....    -0.000011713
Ratio of predicted to observed change   ....     1.439699606
New trust radius                        ....     0.466666667

                                .--------------------.
          ----------------------|Geometry convergence|-------------------------
          Item                value                   Tolerance       Converged
          ---------------------------------------------------------------------
          Energy change      -0.0000117127            0.0000050000      NO
          RMS gradient        0.0001285338            0.0001000000      NO
          MAX gradient        0.0004676312            0.0003000000      NO
          RMS step            0.0099066484            0.0020000000      NO
          MAX step            0.0378478342            0.0040000000      NO
          -------------------------------------------------------------------------
          ........................................................
          Max(Bonds)      0.0013      Max(Angles)    0.09
          Max(Dihed)        2.17      Max(Improp)    0.00
          ---------------------------------------------------------------------

The optimization has not yet converged - more geometry cycles are needed


    ---------------------------------------------------------------------------
                         Redundant Internal Coordinates
                            (Angstroem and degrees)

        Definition                    Value    dE/dq     Step     New-Value
    ----------------------------------------------------------------------------
     1. B(C   1,N   0)                1.4470 -0.000348  0.0003    1.4472   
     2. B(C   2,C   1)                1.5332 -0.000264  0.0002    1.5334   
     3. B(C   3,C   2)                1.4915  0.000081 -0.0002    1.4913   
     4. B(C   4,C   3)                1.3690  0.000245 -0.0000    1.3689   
     5. B(N   5,C   4)                1.3634 -0.000086 -0.0001    1.3633   
     6. B(C   6,N   5)                1.3053 -0.000029  0.0001    1.3054   
     7. B(N   7,C   3)                1.3703 -0.000071  0.0000    1.3704   
     8. B(N   7,C   6)                1.3519  0.000188 -0.0000    1.3519   
     9. B(C   8,C   1)                1.5299  0.000346  0.0001    1.5300   
    10. B(O   9,C   8)                1.2127  0.000239 -0.0001    1.2126   
    11. B(O  10,C   8)                1.3226 -0.000091  0.0003    1.3229   
    12. B(H  11,N   0)                1.0144  0.000052 -0.0000    1.0144   
    13. B(H  12,N   0)                1.0135 -0.000072  0.0000    1.0136   
    14. B(H  12,O  10)                2.4251 -0.000104 -0.0013    2.4239   
    15. B(H  13,C   1)                1.1006  0.000052  0.0000    1.1006   
    16. B(H  14,C   2)                1.0914  0.000002 -0.0001    1.0913   
    17. B(H  15,C   2)                1.0935  0.000011  0.0001    1.0936   
    18. B(H  16,C   4)                1.0717  0.000028 -0.0000    1.0716   
    19. B(H  17,C   6)                1.0705 -0.000022  0.0000    1.0706   
    20. B(H  18,N   7)                1.0072 -0.000046  0.0000    1.0072   
    21. B(H  19,O  10)                0.9772 -0.000026  0.0001    0.9773   
    22. A(C   1,N   0,H  12)          110.08 -0.000062    0.01    110.09   
    23. A(H  11,N   0,H  12)          107.64 -0.000030    0.03    107.68   
    24. A(C   1,N   0,H  11)          110.14  0.000150   -0.02    110.12   
    25. A(N   0,C   1,C   8)          115.85 -0.000118    0.03    115.88   
    26. A(C   8,C   1,H  13)          104.54 -0.000041   -0.02    104.53   
    27. A(N   0,C   1,H  13)          107.18 -0.000034   -0.01    107.17   
    28. A(C   2,C   1,H  13)          107.69  0.000037   -0.01    107.68   
    29. A(C   2,C   1,C   8)          109.68  0.000046    0.00    109.68   
    30. A(N   0,C   1,C   2)          111.35  0.000107    0.00    111.35   
    31. A(C   3,C   2,H  15)          109.03  0.000041    0.06    109.09   
    32. A(C   3,C   2,H  14)          109.67 -0.000061   -0.06    109.61   
    33. A(C   1,C   2,H  14)          108.12  0.000069    0.04    108.17   
    34. A(H  14,C   2,H  15)          108.77 -0.000086    0.02    108.79   
    35. A(C   1,C   2,C   3)          113.10  0.000207   -0.04    113.06   
    36. A(C   1,C   2,H  15)          108.06 -0.000181   -0.02    108.04   
    37. A(C   4,C   3,N   7)          104.92 -0.000069    0.00    104.92   
    38. A(C   2,C   3,N   7)          121.06 -0.000399    0.09    121.15   
    39. A(C   2,C   3,C   4)          134.02  0.000468   -0.09    133.93   
    40. A(N   5,C   4,H  16)          119.64 -0.000016    0.07    119.71   
    41. A(C   3,C   4,H  16)          129.79 -0.000008   -0.08    129.71   
    42. A(C   3,C   4,N   5)          110.57  0.000024    0.01    110.58   
    43. A(C   4,N   5,C   6)          105.41  0.000041   -0.01    105.40   
    44. A(N   5,C   6,H  17)          124.46  0.000028   -0.01    124.45   
    45. A(N   5,C   6,N   7)          111.87 -0.000035    0.01    111.88   
    46. A(N   7,C   6,H  17)          123.67  0.000006    0.00    123.67   
    47. A(C   3,N   7,H  18)          125.89  0.000235    0.04    125.93   
    48. A(C   6,N   7,H  18)          126.88 -0.000273   -0.03    126.85   
    49. A(C   3,N   7,C   6)          107.23  0.000039   -0.01    107.22   
    50. A(O   9,C   8,O  10)          122.83 -0.000133    0.00    122.83   
    51. A(C   1,C   8,O  10)          113.33  0.000113   -0.02    113.31   
    52. A(C   1,C   8,O   9)          123.78  0.000018    0.02    123.80   
    53. A(C   8,O  10,H  19)          112.59 -0.000427    0.06    112.65   
    54. D(C   2,C   1,N   0,H  11)     56.73  0.000035   -0.11     56.63   
    55. D(C   8,C   1,N   0,H  11)    -69.50 -0.000025   -0.14    -69.64   
    56. D(C   8,C   1,N   0,H  12)     49.04 -0.000008   -0.11     48.93   
    57. D(H  13,C   1,N   0,H  11)    174.28  0.000118   -0.13    174.15   
    58. D(C   2,C   1,N   0,H  12)    175.27  0.000052   -0.08    175.19   
    59. D(C   3,C   2,C   1,N   0)    -67.98 -0.000061    1.07    -66.91   
    60. D(C   3,C   2,C   1,C   8)     61.59 -0.000097    1.11     62.70   
    61. D(H  14,C   2,C   1,C   8)   -176.77  0.000008    1.04   -175.73   
    62. D(H  14,C   2,C   1,N   0)     53.66  0.000044    1.00     54.66   
    63. D(H  14,C   2,C   1,H  13)    -63.57  0.000003    1.02    -62.55   
    64. D(C   3,C   2,C   1,H  13)    174.79 -0.000103    1.09    175.88   
    65. D(C   4,C   3,C   2,H  15)    113.38  0.000050   -2.17    111.21   
    66. D(C   4,C   3,C   2,H  14)   -127.63 -0.000066   -2.15   -129.77   
    67. D(C   4,C   3,C   2,C   1)     -6.86  0.000117   -2.16     -9.02   
    68. D(N   7,C   3,C   2,C   1)    174.30  0.000137   -2.05    172.25   
    69. D(N   7,C   3,C   2,H  14)     53.53 -0.000046   -2.03     51.50   
    70. D(H  16,C   4,C   3,N   7)    179.99  0.000008    0.03    180.02   
    71. D(H  16,C   4,C   3,C   2)      1.01  0.000030    0.13      1.14   
    72. D(N   5,C   4,C   3,N   7)      0.10  0.000041   -0.07      0.03   
    73. D(N   5,C   4,C   3,C   2)   -178.87  0.000063    0.03   -178.85   
    74. D(C   6,N   5,C   4,H  16)   -179.96 -0.000020    0.00   -179.96   
    75. D(C   6,N   5,C   4,C   3)     -0.06 -0.000049    0.09      0.04   
    76. D(H  17,C   6,N   5,C   4)   -179.94  0.000029   -0.06   -180.00   
    77. D(N   7,C   6,N   5,C   4)     -0.01  0.000038   -0.08     -0.09   
    78. D(C   3,N   7,C   6,H  17)   -180.00 -0.000005    0.02   -179.98   
    79. D(C   3,N   7,C   6,N   5)      0.08 -0.000013    0.03      0.11   
    80. D(H  18,N   7,C   3,C   4)   -179.88 -0.000030   -0.05   -179.93   
    81. D(H  18,N   7,C   3,C   2)     -0.74 -0.000038   -0.13     -0.88   
    82. D(C   6,N   7,C   3,C   4)     -0.11 -0.000017    0.02     -0.08   
    83. D(H  18,N   7,C   6,N   5)    179.85  0.000002    0.10    179.96   
    84. D(C   6,N   7,C   3,C   2)    179.03 -0.000025   -0.06    178.97   
    85. D(H  18,N   7,C   6,H  17)     -0.22  0.000010    0.09     -0.14   
    86. D(O  10,C   8,C   1,C   2)   -139.13 -0.000077   -0.30   -139.43   
    87. D(O  10,C   8,C   1,N   0)    -12.05  0.000015   -0.27    -12.32   
    88. D(O   9,C   8,C   1,H  13)    -71.67 -0.000065   -0.27    -71.94   
    89. D(O   9,C   8,C   1,C   2)     43.56 -0.000023   -0.29     43.27   
    90. D(O   9,C   8,C   1,N   0)    170.64  0.000070   -0.26    170.38   
    91. D(H  19,O  10,C   8,O   9)      0.97 -0.000048    0.13      1.10   
    92. D(H  19,O  10,C   8,C   1)   -176.37  0.000002    0.14   -176.23   
    ----------------------------------------------------------------------------

Geometry step timings:
Preparation and reading OPT file:      0.000 s ( 0.909 %)
Internal coordinates            :      0.000 s ( 0.992 %)
B/P matrices and projection     :      0.000 s (36.033 %)
Hessian update/contruction      :      0.000 s (12.562 %)
Making the step                 :      0.000 s (32.149 %)
Converting the step to Cartesian:      0.000 s ( 3.058 %)
Storing new data                :      0.000 s ( 0.992 %)
Checking convergence            :      0.000 s ( 0.992 %)
Final printing                  :      0.000 s (12.314 %)
Total time                      :      0.001 s

Time for energy+gradient        :      0.021 s
Time for complete geometry iter :      0.022 s

         *************************************************************
         *                GEOMETRY OPTIMIZATION CYCLE  19            *
         *************************************************************
---------------------------------
CARTESIAN COORDINATES (ANGSTROEM)
---------------------------------
  N    -1.362358   -1.600394    0.702361
  C    -1.376482   -0.720886   -0.446890
  C     0.001995   -0.653107   -1.115006
  C     1.033138    0.004067   -0.261284
  C     0.988441    0.695455    0.919381
  N     2.234727    1.119457    1.273940
  C     3.027432    0.695963    0.327209
  N     2.353971    0.014026   -0.626206
  C    -1.898357    0.695519   -0.197488
  O    -1.818643    1.595828   -1.005843
  O    -2.500797    0.833035    0.972178
  H    -0.655034   -1.298702    1.363862
  H    -2.258492   -1.570165    1.174934
  H    -2.080527   -1.150117   -1.175800
  H     0.316359   -1.671267   -1.350661
  H    -0.100954   -0.091427   -2.047701
  H     0.150961    0.923875    1.547755
  H     4.084594    0.863114    0.302533
  H     2.741655   -0.408686   -1.454196
  H    -2.881628    1.724410    1.096921

----------------------------
CARTESIAN COORDINATES (A.U.)
----------------------------
  NO LB    ZA    FRAG    MASS        X           Y           Z
   0 N   7.0000    0    14.007   -2.574484   -3.024306    1.327270
   1 C   6.0000    0    12.011   -2.601174   -1.362278   -0.844500
   2 C   6.0000    0    12.011    0.003769   -1.234193   -2.107055
   3 C   6.0000    0    12.011    1.952348    0.007686   -0.493755
   4 C   6.0000    0    12.011    1.867882    1.314220    1.737379
   5 N   7.0000    0    14.007    4.223022    2.115468    2.407398
   6 C   6.0000    0    12.011    5.721017    1.315179    0.618336
   7 N   7.0000    0    14.007    4.448360    0.026506   -1.183358
   8 C   6.0000    0    12.011   -3.587375    1.314341   -0.373198
   9 O   8.0000    0    15.999   -3.436737    3.015677   -1.900767
  10 O   8.0000    0    15.999   -4.725821    1.574208    1.837151
  11 H   1.0000    0     1.008   -1.237835   -2.454192    2.577326
  12 H   1.0000    0     1.008   -4.267932   -2.967181    2.220303
  13 H   1.0000    0     1.008   -3.931626   -2.173406   -2.221941
  14 H   1.0000    0     1.008    0.597832   -3.158236   -2.552379
  15 H   1.0000    0     1.008   -0.190775   -0.172771   -3.869594
  16 H   1.0000    0     1.008    0.285275    1.745871    2.924833
  17 H   1.0000    0     1.008    7.718764    1.631049    0.571705
  18 H   1.0000    0     1.008    5.180978   -0.772304   -2.748033
  19 H   1.0000    0     1.008   -5.445488    3.258662    2.072880

      -----------------------------------------------------------      
     |                   =====================                   |     
     |                           x T B                           |     
     |                   =====================                   |     
     |                         S. Grimme                         |     
     |          Mulliken Center for Theoretical Chemistry        |     
     |                    University of Bonn                     |     
      -----------------------------------------------------------      

   * xtb version 6.7.1 (edcfbbe) compiled by 'albert@albert-system' on 2024-07-22

   xtb is free software: you can redistribute it and/or modify it under
   the terms of the GNU Lesser General Public License as published by
   the Free Software Foundation, either version 3 of the License, or
   (at your option) any later version.
   
   xtb is distributed in the hope that it will be useful,
   but WITHOUT ANY WARRANTY; without even the implied warranty of
   MERCHANTABILITY or FITNESS FOR A PARTICULAR PURPOSE.  See the
   GNU Lesser General Public License for more details.
   
   Cite this work as:
   * C. Bannwarth, E. Caldeweyher, S. Ehlert, A. Hansen, P. Pracht,
     J. Seibert, S. Spicher, S. Grimme, WIREs Comput. Mol. Sci., 2020, 11,
     e01493. DOI: 10.1002/wcms.1493
   
   for GFN2-xTB:
   * C. Bannwarth, S. Ehlert and S. Grimme., J. Chem. Theory Comput., 2019,
     15, 1652-1671. DOI: 10.1021/acs.jctc.8b01176
   for GFN1-xTB:
   * S. Grimme, C. Bannwarth, P. Shushkov, J. Chem. Theory Comput., 2017,
     13, 1989-2009. DOI: 10.1021/acs.jctc.7b00118
   for GFN0-xTB:
   * P. Pracht, E. Caldeweyher, S. Ehlert, S. Grimme, ChemRxiv, 2019, preprint.
     DOI: 10.26434/chemrxiv.8326202.v1
   for GFN-FF:
   * S. Spicher and S. Grimme, Angew. Chem. Int. Ed., 2020, 59, 15665-15673.
     DOI: 10.1002/anie.202004239
   
   for ALPB and GBSA implicit solvation:
   * S. Ehlert, M. Stahn, S. Spicher, S. Grimme, J. Chem. Theory Comput.,
     2021, 17, 4250-4261. DOI: 10.1021/acs.jctc.1c00471
   
   for ddCOSMO and CPCM-X implicit solvation:
   * M. Stahn, S. Ehlert, S. Grimme, J. Phys. Chem. A,
     2023, XX, XXXX-XXXX. DOI: 10.1021/acs.jpca.3c04382
   
   for DFT-D4:
   * E. Caldeweyher, C. Bannwarth and S. Grimme, J. Chem. Phys., 2017,
     147, 034112. DOI: 10.1063/1.4993215
   * E. Caldeweyher, S. Ehlert, A. Hansen, H. Neugebauer, S. Spicher,
     C. Bannwarth and S. Grimme, J. Chem. Phys., 2019, 150, 154122.
     DOI: 10.1063/1.5090222
   * E. Caldeweyher, J.-M. Mewes, S. Ehlert and S. Grimme, Phys. Chem. Chem. Phys.
     2020, 22, 8499-8512. DOI: 10.1039/D0CP00502A
   
   for sTDA-xTB:
   * S. Grimme and C. Bannwarth, J. Chem. Phys., 2016, 145, 054103.
     DOI: 10.1063/1.4959605
   
   in the mass-spec context:
   * V. Asgeirsson, C. Bauer and S. Grimme, Chem. Sci., 2017, 8, 4879.
     DOI: 10.1039/c7sc00601b
   * J. Koopman and S. Grimme, ACS Omega 2019, 4, 12, 15120-15133.
     DOI: 10.1021/acsomega.9b02011
   
   for metadynamics refer to:
   * S. Grimme, J. Chem. Theory Comput., 2019, 155, 2847-2862
     DOI: 10.1021/acs.jctc.9b00143
   
   for SPH calculations refer to:
   * S. Spicher and S. Grimme, J. Chem. Theory Comput., 2021, 17, 1701-1714
     DOI: 10.1021/acs.jctc.0c01306
   
   for ONIOM refer to:
   * C. Plett, A. Katbashev, S. Ehlert, S. Grimme, M. Bursch,
     Phys. Chem. Chem. Phys., 2023, 25, 17860-17868. DOI: 10.1039/D3CP02178E
   
   for DIPRO refer to:
   * J. Kohn, N. Gildemeister, S. Grimme, D. Fazzi, A. Hansen,
     J. Chem. Phys., 2023, just accepted.
   
   for PTB refer to:
   * S. Grimme, M. Mueller, A. Hansen, J. Chem. Phys., 2023, 158, 124111.
     DOI: 10.1063/5.0137838
   
   with help from (in alphabetical order)
   P. Atkinson, C. Bannwarth, F. Bohle, G. Brandenburg, E. Caldeweyher
   M. Checinski, S. Dohm, S. Ehlert, S. Ehrlich, I. Gerasimov, C. Hölzer
   A. Katbashev, J. Kohn, J. Koopman, C. Lavigne, S. Lehtola, F. März, M. Müller,
   F. Musil, H. Neugebauer, J. Pisarek, C. Plett, P. Pracht, F. Pultar,
   J. Seibert, P. Shushkov, S. Spicher, M. Stahn, M. Steiner, T. Strunk,
   J. Stückrath, T. Rose, and J. Unsleber
   
 * started run on 2026/04/09 at 16:06:43.792     
   ID    Z sym.   atoms
    1    7 N      1, 6, 8
    2    6 C      2-5, 7, 9
    3    8 O      10, 11
    4    1 H      12-20

           -------------------------------------------------
          |                Calculation Setup                |
           -------------------------------------------------

          program call               : /home/analima/Programs/orca-6.1.0-f.0_linux_x86-64/bin/otool_xtb geo_opt_XTB.xyz --grad -c 0 -u 0 -P 1 --namespace geo_opt --input geo_opt_XTB.input.tmp --alpb WATER --acc 0.200000
          calculation namespace      : geo_opt
          coordinate file            : geo_opt_XTB.xyz
          omp threads                :                     1


           -------------------------------------------------
          |                 G F N 2 - x T B                 |
           -------------------------------------------------

        Reference                      10.1021/acs.jctc.8b01176
      * Hamiltonian:
        H0-scaling (s, p, d)           1.850000    2.230000    2.230000
        zeta-weighting                 0.500000
      * Dispersion:
        s8                             2.700000
        a1                             0.520000
        a2                             5.000000
        s9                             5.000000
      * Repulsion:
        kExp                           1.500000    1.000000
        rExp                           1.000000
      * Coulomb:
        alpha                          2.000000
        third order                    shell-resolved
        anisotropic                    true
        a3                             3.000000
        a5                             4.000000
        cn-shift                       1.200000
        cn-exp                         4.000000
        max-rad                        5.000000

      * Solvation model:               ALPB
        Solvent                        WATER
        Parameter file                 internal GFN2-xTB/ALPB
        Dielectric constant                8.0200E+01
        Reference state                gsolv [1 M gas/solution]
        Free energy shift                  1.0808E-03 Eh       6.7819E-01 kcal/mol
        Temperature                        2.9815E+02 K
        Density                            1.0000E+00 kg/L
        Solvent mass                       1.8000E+01 g/mol
        Interaction kernel             P16
        Born radius scaling (c1)           1.4744E+00
        Born radii integrator          GBOBC
        Born offset                        0.0000E+00 a0       0.0000E+00 AA
        H-bond correction              true
        Ion screening                  false
        Surface tension                    1.0000E-05 Eh       1.5569E+01 dyn/cm
        Grid points                               230 per atom
q/qsh data taken from xtbrestart
CAMM data taken from xtbrestart

          ...................................................
          :                      SETUP                      :
          :.................................................:
          :  # basis functions                  53          :
          :  # atomic orbitals                  53          :
          :  # shells                           31          :
          :  # electrons                        60          :
          :  max. iterations                   250          :
          :  Hamiltonian                  GFN2-xTB          :
          :  restarted?                       true          :
          :  GBSA solvation                   true          :
          :  PC potential                    false          :
          :  electronic temp.          300.0000000     K    :
          :  accuracy                    0.2000000          :
          :  -> integral cutoff          0.3198970E+02      :
          :  -> integral neglect         0.2000000E-08      :
          :  -> SCF convergence          0.2000000E-06 Eh   :
          :  -> wf. convergence          0.2000000E-04 e    :
          :  Broyden damping             0.4000000          :
          :  net charge                          0          :
          :  unpaired electrons                  0          :
          ...................................................

 iter      E             dE          RMSdq      gap      omega  full diag
   1    -34.7643608 -0.347644E+02  0.687E-02    3.51       0.0  T
   2    -34.7643614 -0.667366E-06  0.397E-02    3.51       1.0  T
   3    -34.7643617 -0.262015E-06  0.277E-03    3.51       8.1  T
   4    -34.7643617 -0.949235E-08  0.147E-03    3.51      15.2  T
   5    -34.7643617 -0.311443E-08  0.443E-04    3.51      50.5  T
   6    -34.7643617 -0.181279E-08  0.156E-04    3.51     143.0  T
   7    -34.7643617 -0.133966E-09  0.817E-05    3.51     273.7  T

   *** convergence criteria satisfied after 7 iterations ***

         #    Occupation            Energy/Eh            Energy/eV
      -------------------------------------------------------------
         1        2.0000           -0.7538378             -20.5130
       ...           ...                  ...                  ...
        24        2.0000           -0.4660402             -12.6816
        25        2.0000           -0.4524378             -12.3115
        26        2.0000           -0.4448169             -12.1041
        27        2.0000           -0.4281148             -11.6496
        28        2.0000           -0.3823520             -10.4043
        29        2.0000           -0.3806832             -10.3589
        30        2.0000           -0.3737259             -10.1696 (HOMO)
        31                         -0.2448629              -6.6631 (LUMO)
        32                         -0.1998893              -5.4393
        33                         -0.1662841              -4.5248
        34                          0.0196977               0.5360
        35                          0.0330511               0.8994
       ...                                ...                  ...
        53                          0.6278218              17.0839
      -------------------------------------------------------------
                  HL-Gap            0.1288629 Eh            3.5065 eV
             Fermi-level           -0.3092944 Eh           -8.4163 eV

 SCC (total)                   0 d,  0 h,  0 min,  0.008 sec
 SCC setup                      ...        0 min,  0.000 sec (  3.061%)
 Dispersion                     ...        0 min,  0.000 sec (  0.694%)
 classical contributions        ...        0 min,  0.000 sec (  0.138%)
 integral evaluation            ...        0 min,  0.001 sec ( 11.616%)
 iterations                     ...        0 min,  0.004 sec ( 52.209%)
 molecular gradient             ...        0 min,  0.003 sec ( 31.738%)
 printout                       ...        0 min,  0.000 sec (  0.439%)

         :::::::::::::::::::::::::::::::::::::::::::::::::::::
         ::                     SUMMARY                     ::
         :::::::::::::::::::::::::::::::::::::::::::::::::::::
         :: total energy             -34.364284162984 Eh    ::
         :: total w/o Gsasa/hb       -34.350023714283 Eh    ::
         :: gradient norm              0.001300314127 Eh/a0 ::
         :: HOMO-LUMO gap              3.506538039961 eV    ::
         ::.................................................::
         :: SCC energy               -34.764260705855 Eh    ::
         :: -> isotropic ES            0.095802726572 Eh    ::
         :: -> anisotropic ES          0.003446647383 Eh    ::
         :: -> anisotropic XC          0.015623434222 Eh    ::
         :: -> dispersion             -0.016869728824 Eh    ::
         :: -> Gsolv                  -0.030238758388 Eh    ::
         ::    -> Gelec               -0.015978309687 Eh    ::
         ::    -> Gsasa               -0.002456041122 Eh    ::
         ::    -> Ghb                 -0.012885167277 Eh    ::
         ::    -> Gshift               0.001080759698 Eh    ::
         :: repulsion energy           0.399976542871 Eh    ::
         :: add. restraining           0.000000000000 Eh    ::
         :: total charge              -0.000000000000 e     ::
         :::::::::::::::::::::::::::::::::::::::::::::::::::::


Property printout bound to 'properties.out'

           -------------------------------------------------
          | TOTAL ENERGY              -34.364284162984 Eh   |
          | GRADIENT NORM               0.001300314127 Eh/α |
          | HOMO-LUMO GAP               3.506538039961 eV   |
           -------------------------------------------------

------------------------------------------------------------------------
 * finished run on 2026/04/09 at 16:06:43.805     
------------------------------------------------------------------------
 total:
 * wall-time:     0 d,  0 h,  0 min,  0.012 sec
 *  cpu-time:     0 d,  0 h,  0 min,  0.011 sec
 * ratio c/w:     0.890 speedup
 SCF:
 * wall-time:     0 d,  0 h,  0 min,  0.008 sec
 *  cpu-time:     0 d,  0 h,  0 min,  0.007 sec
 * ratio c/w:     0.843 speedup


-------------------------   --------------------
FINAL SINGLE POINT ENERGY       -34.364284162980
-------------------------   --------------------


-------------
DIPOLE MOMENT
-------------
                                X             Y             Z
Total Dipole Moment    :     -0.23300      -0.97800      -0.67000
                        -----------------------------------------
Magnitude (a.u.)       :      1.20817
Magnitude (Debye)      :      3.07092


------------------
CARTESIAN GRADIENT
------------------

   1   N   :   -0.000016253    0.000142685   -0.000119040
   2   C   :    0.000437661   -0.000345063   -0.000134983
   3   C   :   -0.000077385   -0.000185422    0.000163820
   4   C   :   -0.000265914    0.000031905    0.000211006
   5   C   :    0.000334511    0.000208819    0.000160576
   6   N   :   -0.000148624   -0.000083397    0.000015514
   7   C   :    0.000230274    0.000090754    0.000002037
   8   N   :   -0.000525065   -0.000184410   -0.000373183
   9   C   :   -0.000074934    0.000267838    0.000045270
  10   O   :   -0.000012733    0.000149469   -0.000046466
  11   O   :   -0.000074349   -0.000249370    0.000204081
  12   H   :   -0.000027581   -0.000038149    0.000052145
  13   H   :    0.000019154    0.000079234   -0.000062068
  14   H   :   -0.000122318    0.000005787    0.000033236
  15   H   :    0.000066086    0.000034923   -0.000108065
  16   H   :   -0.000032670   -0.000005069   -0.000029427
  17   H   :   -0.000061225   -0.000058383   -0.000018159
  18   H   :    0.000010346    0.000006557   -0.000009744
  19   H   :    0.000310076    0.000044793    0.000155598
  20   H   :    0.000030943    0.000086497   -0.000142149

Difference to translation invariance:
           :   -0.0000000000    0.0000000000    0.0000000000

Difference to rotation invariance:
           :    0.0001856488   -0.0002848645   -0.0000159109

Norm of the Cartesian gradient     ...    0.0013003141
RMS gradient                       ...    0.0001678698
MAX gradient                       ...    0.0005250653
------------------------------------------------------------------------------
                         ORCA GEOMETRY RELAXATION STEP
------------------------------------------------------------------------------

Reading the OPT-File                    .... done
Getting information on internals        .... done
Copying old internal coords+grads       .... done
Making the new internal coordinates     .... (2022 redundants) done
Validating the new internal coordinates .... (2022 redundants) done
Calculating the B-matrix                .... done
Calculating the G,G- and P matrices     .... done
Transforming gradient to internals      .... done
Projecting the internal gradient        .... done
Number of atoms                         ....  20
Number of internal coordinates          ....  92
Current Energy                          ....   -34.364284163 Eh
Current gradient norm                   ....     0.001300314 Eh/bohr
Maximum allowed component of the step   ....  0.300
Current trust radius                    ....  0.467
Updating the Hessian (BFGS)             .... done
Forming the augmented Hessian           .... done
Diagonalizing the augmented Hessian     .... done
Last element of RFO vector              ....  0.999473074
Lowest eigenvalues of augmented Hessian:
 -0.000005593  0.000838528  0.002971804  0.011981200  0.017067321
Length of the computed step             ....  0.032475935
The final length of the internal step   ....  0.032475935
Converting the step to Cartesian space:
 Initial RMS(Int)=    0.0033858503
Transforming coordinates:
 Iter   0:  RMS(Cart)=    0.0103840633 RMS(Int)=    0.6550406221
done
Storing new coordinates                 .... done
The predicted energy change is          ....    -0.000002800
Previously predicted energy change      ....    -0.000006481
Actually observed energy change         ....    -0.000008070
Ratio of predicted to observed change   ....     1.245165674
New trust radius                        ....     0.700000000

                                .--------------------.
          ----------------------|Geometry convergence|-------------------------
          Item                value                   Tolerance       Converged
          ---------------------------------------------------------------------
          Energy change      -0.0000080698            0.0000050000      NO
          RMS gradient        0.0000988481            0.0001000000      YES
          MAX gradient        0.0003557423            0.0003000000      NO
          RMS step            0.0033858503            0.0020000000      NO
          MAX step            0.0136690076            0.0040000000      NO
          -------------------------------------------------------------------------
          ........................................................
          Max(Bonds)      0.0015      Max(Angles)    0.10
          Max(Dihed)        0.78      Max(Improp)    0.00
          ---------------------------------------------------------------------

The optimization has not yet converged - more geometry cycles are needed


    ---------------------------------------------------------------------------
                         Redundant Internal Coordinates
                            (Angstroem and degrees)

        Definition                    Value    dE/dq     Step     New-Value
    ----------------------------------------------------------------------------
     1. B(C   1,N   0)                1.4472 -0.000159  0.0003    1.4475   
     2. B(C   2,C   1)                1.5334 -0.000214  0.0004    1.5338   
     3. B(C   3,C   2)                1.4913  0.000015 -0.0000    1.4913   
     4. B(C   4,C   3)                1.3689  0.000138 -0.0001    1.3688   
     5. B(N   5,C   4)                1.3633 -0.000109  0.0001    1.3634   
     6. B(C   6,N   5)                1.3054  0.000054  0.0000    1.3054   
     7. B(N   7,C   3)                1.3704  0.000023  0.0000    1.3704   
     8. B(N   7,C   6)                1.3519  0.000144 -0.0001    1.3517   
     9. B(C   8,C   1)                1.5300  0.000356 -0.0004    1.5295   
    10. B(O   9,C   8)                1.2126  0.000140 -0.0001    1.2125   
    11. B(O  10,C   8)                1.3229  0.000064  0.0001    1.3229   
    12. B(H  11,N   0)                1.0144  0.000008 -0.0000    1.0143   
    13. B(H  12,N   0)                1.0136 -0.000048  0.0000    1.0136   
    14. B(H  12,O  10)                2.4239 -0.000070  0.0015    2.4254   
    15. B(H  13,C   1)                1.1006  0.000053 -0.0001    1.1005   
    16. B(H  14,C   2)                1.0913  0.000011 -0.0000    1.0913   
    17. B(H  15,C   2)                1.0936  0.000023 -0.0000    1.0936   
    18. B(H  16,C   4)                1.0716  0.000023 -0.0000    1.0716   
    19. B(H  17,C   6)                1.0706  0.000012  0.0000    1.0706   
    20. B(H  18,N   7)                1.0072 -0.000025  0.0000    1.0073   
    21. B(H  19,O  10)                0.9773  0.000050 -0.0000    0.9773   
    22. A(C   1,N   0,H  12)          110.09 -0.000064    0.03    110.12   
    23. A(H  11,N   0,H  12)          107.67 -0.000005    0.03    107.70   
    24. A(C   1,N   0,H  11)          110.12  0.000126   -0.03    110.09   
    25. A(N   0,C   1,C   8)          115.88 -0.000061    0.06    115.94   
    26. A(C   8,C   1,H  13)          104.53 -0.000034    0.02    104.55   
    27. A(N   0,C   1,H  13)          107.17 -0.000050    0.00    107.17   
    28. A(C   2,C   1,H  13)          107.68  0.000064   -0.04    107.65   
    29. A(C   2,C   1,C   8)          109.68  0.000015   -0.01    109.67   
    30. A(N   0,C   1,C   2)          111.35  0.000068   -0.04    111.31   
    31. A(C   3,C   2,H  15)          109.09  0.000009    0.04    109.12   
    32. A(C   3,C   2,H  14)          109.61 -0.000032   -0.03    109.57   
    33. A(C   1,C   2,H  14)          108.17  0.000086   -0.05    108.12   
    34. A(H  14,C   2,H  15)          108.79 -0.000052    0.04    108.83   
    35. A(C   1,C   2,C   3)          113.06  0.000070   -0.03    113.03   
    36. A(C   1,C   2,H  15)          108.04 -0.000086    0.03    108.07   
    37. A(C   4,C   3,N   7)          104.92 -0.000041    0.01    104.93   
    38. A(C   2,C   3,N   7)          121.15 -0.000266    0.09    121.23   
    39. A(C   2,C   3,C   4)          133.93  0.000307   -0.09    133.83   
    40. A(N   5,C   4,H  16)          119.71  0.000053    0.02    119.73   
    41. A(C   3,C   4,H  16)          129.71 -0.000100   -0.01    129.70   
    42. A(C   3,C   4,N   5)          110.58  0.000047   -0.00    110.58   
    43. A(C   4,N   5,C   6)          105.40  0.000027   -0.01    105.40   
    44. A(N   5,C   6,H  17)          124.45  0.000027   -0.01    124.44   
    45. A(N   5,C   6,N   7)          111.88 -0.000032    0.01    111.89   
    46. A(N   7,C   6,H  17)          123.67  0.000005    0.00    123.67   
    47. A(C   3,N   7,H  18)          125.93  0.000319   -0.05    125.88   
    48. A(C   6,N   7,H  18)          126.85 -0.000318    0.06    126.91   
    49. A(C   3,N   7,C   6)          107.22 -0.000001   -0.01    107.21   
    50. A(O   9,C   8,O  10)          122.83 -0.000077    0.01    122.84   
    51. A(C   1,C   8,O  10)          113.31 -0.000004    0.00    113.31   
    52. A(C   1,C   8,O   9)          123.80  0.000078   -0.01    123.79   
    53. A(C   8,O  10,H  19)          112.65 -0.000300    0.10    112.75   
    54. D(C   2,C   1,N   0,H  11)     56.63 -0.000007   -0.07     56.56   
    55. D(C   8,C   1,N   0,H  11)    -69.64 -0.000036   -0.07    -69.71   
    56. D(C   8,C   1,N   0,H  12)     48.93 -0.000003   -0.04     48.88   
    57. D(H  13,C   1,N   0,H  11)    174.15  0.000078   -0.13    174.02   
    58. D(C   2,C   1,N   0,H  12)    175.20  0.000026   -0.04    175.16   
    59. D(C   3,C   2,C   1,N   0)    -66.91 -0.000036    0.39    -66.51   
    60. D(C   3,C   2,C   1,C   8)     62.70 -0.000052    0.43     63.14   
    61. D(H  14,C   2,C   1,C   8)   -175.73  0.000013    0.34   -175.39   
    62. D(H  14,C   2,C   1,N   0)     54.66  0.000029    0.30     54.96   
    63. D(H  14,C   2,C   1,H  13)    -62.55  0.000014    0.34    -62.20   
    64. D(C   3,C   2,C   1,H  13)    175.88 -0.000051    0.43    176.32   
    65. D(C   4,C   3,C   2,H  15)    111.21  0.000011   -0.67    110.54   
    66. D(C   4,C   3,C   2,H  14)   -129.77 -0.000066   -0.63   -130.40   
    67. D(C   4,C   3,C   2,C   1)     -9.02  0.000068   -0.73     -9.74   
    68. D(N   7,C   3,C   2,C   1)    172.25  0.000093   -0.78    171.47   
    69. D(N   7,C   3,C   2,H  14)     51.50 -0.000041   -0.69     50.81   
    70. D(H  16,C   4,C   3,N   7)   -179.98  0.000011   -0.02   -180.00   
    71. D(H  16,C   4,C   3,C   2)      1.14  0.000036   -0.07      1.07   
    72. D(N   5,C   4,C   3,N   7)      0.03 -0.000003    0.03      0.06   
    73. D(N   5,C   4,C   3,C   2)   -178.85  0.000022   -0.02   -178.87   
    74. D(C   6,N   5,C   4,H  16)   -179.95  0.000004   -0.01   -179.96   
    75. D(C   6,N   5,C   4,C   3)      0.03  0.000017   -0.05     -0.02   
    76. D(H  17,C   6,N   5,C   4)   -180.00 -0.000003    0.01   -179.99   
    77. D(N   7,C   6,N   5,C   4)     -0.09 -0.000025    0.06     -0.03   
    78. D(C   3,N   7,C   6,H  17)   -179.98  0.000001    0.01   -179.97   
    79. D(C   3,N   7,C   6,N   5)      0.11  0.000024   -0.04      0.07   
    80. D(H  18,N   7,C   3,C   4)   -179.93 -0.000028    0.02   -179.91   
    81. D(H  18,N   7,C   3,C   2)     -0.88 -0.000042    0.07     -0.81   
    82. D(C   6,N   7,C   3,C   4)     -0.08 -0.000011    0.01     -0.08   
    83. D(H  18,N   7,C   6,N   5)    179.96  0.000042   -0.06    179.90   
    84. D(C   6,N   7,C   3,C   2)    178.97 -0.000025    0.05    179.02   
    85. D(H  18,N   7,C   6,H  17)     -0.14  0.000020   -0.01     -0.14   
    86. D(O  10,C   8,C   1,C   2)   -139.43 -0.000070    0.04   -139.39   
    87. D(O  10,C   8,C   1,N   0)    -12.32 -0.000013    0.03    -12.29   
    88. D(O   9,C   8,C   1,H  13)    -71.94 -0.000075    0.05    -71.88   
    89. D(O   9,C   8,C   1,C   2)     43.27 -0.000012    0.02     43.29   
    90. D(O   9,C   8,C   1,N   0)    170.38  0.000045    0.01    170.39   
    91. D(H  19,O  10,C   8,O   9)      1.10 -0.000024    0.07      1.17   
    92. D(H  19,O  10,C   8,C   1)   -176.23  0.000029    0.05   -176.19   
    ----------------------------------------------------------------------------

Geometry step timings:
Preparation and reading OPT file:      0.000 s ( 0.765 %)
Internal coordinates            :      0.000 s ( 0.765 %)
B/P matrices and projection     :      0.000 s (37.128 %)
Hessian update/contruction      :      0.000 s (11.045 %)
Making the step                 :      0.000 s (32.455 %)
Converting the step to Cartesian:      0.000 s ( 2.889 %)
Storing new data                :      0.000 s ( 0.850 %)
Checking convergence            :      0.000 s ( 1.105 %)
Final printing                  :      0.000 s (12.999 %)
Total time                      :      0.001 s

Time for energy+gradient        :      0.016 s
Time for complete geometry iter :      0.018 s

         *************************************************************
         *                GEOMETRY OPTIMIZATION CYCLE  20            *
         *************************************************************
---------------------------------
CARTESIAN COORDINATES (ANGSTROEM)
---------------------------------
  N    -1.354226   -1.599055    0.703368
  C    -1.376095   -0.720014   -0.446474
  C     0.000627   -0.646900   -1.118626
  C     1.033153    0.006862   -0.264040
  C     0.986976    0.701922    0.914309
  N     2.234059    1.120206    1.273121
  C     3.028630    0.688524    0.331651
  N     2.355691    0.007920   -0.622885
  C    -1.903320    0.694071   -0.197614
  O    -1.829954    1.593359   -1.007541
  O    -2.502463    0.830807    0.973908
  H    -0.645269   -1.294077    1.361571
  H    -2.248602   -1.572506    1.179542
  H    -2.079632   -1.153382   -1.173323
  H     0.315442   -1.663790   -1.359051
  H    -0.105408   -0.081147   -2.048458
  H     0.147765    0.937217    1.537749
  H     4.086856    0.849528    0.311403
  H     2.743757   -0.419548   -1.448304
  H    -2.887986    1.720004    1.099694

----------------------------
CARTESIAN COORDINATES (A.U.)
----------------------------
  NO LB    ZA    FRAG    MASS        X           Y           Z
   0 N   7.0000    0    14.007   -2.559117   -3.021776    1.329172
   1 C   6.0000    0    12.011   -2.600443   -1.360630   -0.843714
   2 C   6.0000    0    12.011    0.001185   -1.222464   -2.113897
   3 C   6.0000    0    12.011    1.952376    0.012968   -0.498963
   4 C   6.0000    0    12.011    1.865115    1.326440    1.727793
   5 N   7.0000    0    14.007    4.221759    2.116883    2.405850
   6 C   6.0000    0    12.011    5.723280    1.301122    0.626729
   7 N   7.0000    0    14.007    4.451610    0.014966   -1.177083
   8 C   6.0000    0    12.011   -3.596753    1.311604   -0.373436
   9 O   8.0000    0    15.999   -3.458113    3.011011   -1.903977
  10 O   8.0000    0    15.999   -4.728970    1.569999    1.840420
  11 H   1.0000    0     1.008   -1.219382   -2.445451    2.572996
  12 H   1.0000    0     1.008   -4.249242   -2.971607    2.229012
  13 H   1.0000    0     1.008   -3.929935   -2.179577   -2.217260
  14 H   1.0000    0     1.008    0.596099   -3.144107   -2.568233
  15 H   1.0000    0     1.008   -0.199191   -0.153345   -3.871025
  16 H   1.0000    0     1.008    0.279235    1.771084    2.905925
  17 H   1.0000    0     1.008    7.723039    1.605375    0.588466
  18 H   1.0000    0     1.008    5.184950   -0.792831   -2.736898
  19 H   1.0000    0     1.008   -5.457503    3.250336    2.078121

      -----------------------------------------------------------      
     |                   =====================                   |     
     |                           x T B                           |     
     |                   =====================                   |     
     |                         S. Grimme                         |     
     |          Mulliken Center for Theoretical Chemistry        |     
     |                    University of Bonn                     |     
      -----------------------------------------------------------      

   * xtb version 6.7.1 (edcfbbe) compiled by 'albert@albert-system' on 2024-07-22

   xtb is free software: you can redistribute it and/or modify it under
   the terms of the GNU Lesser General Public License as published by
   the Free Software Foundation, either version 3 of the License, or
   (at your option) any later version.
   
   xtb is distributed in the hope that it will be useful,
   but WITHOUT ANY WARRANTY; without even the implied warranty of
   MERCHANTABILITY or FITNESS FOR A PARTICULAR PURPOSE.  See the
   GNU Lesser General Public License for more details.
   
   Cite this work as:
   * C. Bannwarth, E. Caldeweyher, S. Ehlert, A. Hansen, P. Pracht,
     J. Seibert, S. Spicher, S. Grimme, WIREs Comput. Mol. Sci., 2020, 11,
     e01493. DOI: 10.1002/wcms.1493
   
   for GFN2-xTB:
   * C. Bannwarth, S. Ehlert and S. Grimme., J. Chem. Theory Comput., 2019,
     15, 1652-1671. DOI: 10.1021/acs.jctc.8b01176
   for GFN1-xTB:
   * S. Grimme, C. Bannwarth, P. Shushkov, J. Chem. Theory Comput., 2017,
     13, 1989-2009. DOI: 10.1021/acs.jctc.7b00118
   for GFN0-xTB:
   * P. Pracht, E. Caldeweyher, S. Ehlert, S. Grimme, ChemRxiv, 2019, preprint.
     DOI: 10.26434/chemrxiv.8326202.v1
   for GFN-FF:
   * S. Spicher and S. Grimme, Angew. Chem. Int. Ed., 2020, 59, 15665-15673.
     DOI: 10.1002/anie.202004239
   
   for ALPB and GBSA implicit solvation:
   * S. Ehlert, M. Stahn, S. Spicher, S. Grimme, J. Chem. Theory Comput.,
     2021, 17, 4250-4261. DOI: 10.1021/acs.jctc.1c00471
   
   for ddCOSMO and CPCM-X implicit solvation:
   * M. Stahn, S. Ehlert, S. Grimme, J. Phys. Chem. A,
     2023, XX, XXXX-XXXX. DOI: 10.1021/acs.jpca.3c04382
   
   for DFT-D4:
   * E. Caldeweyher, C. Bannwarth and S. Grimme, J. Chem. Phys., 2017,
     147, 034112. DOI: 10.1063/1.4993215
   * E. Caldeweyher, S. Ehlert, A. Hansen, H. Neugebauer, S. Spicher,
     C. Bannwarth and S. Grimme, J. Chem. Phys., 2019, 150, 154122.
     DOI: 10.1063/1.5090222
   * E. Caldeweyher, J.-M. Mewes, S. Ehlert and S. Grimme, Phys. Chem. Chem. Phys.
     2020, 22, 8499-8512. DOI: 10.1039/D0CP00502A
   
   for sTDA-xTB:
   * S. Grimme and C. Bannwarth, J. Chem. Phys., 2016, 145, 054103.
     DOI: 10.1063/1.4959605
   
   in the mass-spec context:
   * V. Asgeirsson, C. Bauer and S. Grimme, Chem. Sci., 2017, 8, 4879.
     DOI: 10.1039/c7sc00601b
   * J. Koopman and S. Grimme, ACS Omega 2019, 4, 12, 15120-15133.
     DOI: 10.1021/acsomega.9b02011
   
   for metadynamics refer to:
   * S. Grimme, J. Chem. Theory Comput., 2019, 155, 2847-2862
     DOI: 10.1021/acs.jctc.9b00143
   
   for SPH calculations refer to:
   * S. Spicher and S. Grimme, J. Chem. Theory Comput., 2021, 17, 1701-1714
     DOI: 10.1021/acs.jctc.0c01306
   
   for ONIOM refer to:
   * C. Plett, A. Katbashev, S. Ehlert, S. Grimme, M. Bursch,
     Phys. Chem. Chem. Phys., 2023, 25, 17860-17868. DOI: 10.1039/D3CP02178E
   
   for DIPRO refer to:
   * J. Kohn, N. Gildemeister, S. Grimme, D. Fazzi, A. Hansen,
     J. Chem. Phys., 2023, just accepted.
   
   for PTB refer to:
   * S. Grimme, M. Mueller, A. Hansen, J. Chem. Phys., 2023, 158, 124111.
     DOI: 10.1063/5.0137838
   
   with help from (in alphabetical order)
   P. Atkinson, C. Bannwarth, F. Bohle, G. Brandenburg, E. Caldeweyher
   M. Checinski, S. Dohm, S. Ehlert, S. Ehrlich, I. Gerasimov, C. Hölzer
   A. Katbashev, J. Kohn, J. Koopman, C. Lavigne, S. Lehtola, F. März, M. Müller,
   F. Musil, H. Neugebauer, J. Pisarek, C. Plett, P. Pracht, F. Pultar,
   J. Seibert, P. Shushkov, S. Spicher, M. Stahn, M. Steiner, T. Strunk,
   J. Stückrath, T. Rose, and J. Unsleber
   
 * started run on 2026/04/09 at 16:06:43.810     
   ID    Z sym.   atoms
    1    7 N      1, 6, 8
    2    6 C      2-5, 7, 9
    3    8 O      10, 11
    4    1 H      12-20

           -------------------------------------------------
          |                Calculation Setup                |
           -------------------------------------------------

          program call               : /home/analima/Programs/orca-6.1.0-f.0_linux_x86-64/bin/otool_xtb geo_opt_XTB.xyz --grad -c 0 -u 0 -P 1 --namespace geo_opt --input geo_opt_XTB.input.tmp --alpb WATER --acc 0.200000
          calculation namespace      : geo_opt
          coordinate file            : geo_opt_XTB.xyz
          omp threads                :                     1


           -------------------------------------------------
          |                 G F N 2 - x T B                 |
           -------------------------------------------------

        Reference                      10.1021/acs.jctc.8b01176
      * Hamiltonian:
        H0-scaling (s, p, d)           1.850000    2.230000    2.230000
        zeta-weighting                 0.500000
      * Dispersion:
        s8                             2.700000
        a1                             0.520000
        a2                             5.000000
        s9                             5.000000
      * Repulsion:
        kExp                           1.500000    1.000000
        rExp                           1.000000
      * Coulomb:
        alpha                          2.000000
        third order                    shell-resolved
        anisotropic                    true
        a3                             3.000000
        a5                             4.000000
        cn-shift                       1.200000
        cn-exp                         4.000000
        max-rad                        5.000000

      * Solvation model:               ALPB
        Solvent                        WATER
        Parameter file                 internal GFN2-xTB/ALPB
        Dielectric constant                8.0200E+01
        Reference state                gsolv [1 M gas/solution]
        Free energy shift                  1.0808E-03 Eh       6.7819E-01 kcal/mol
        Temperature                        2.9815E+02 K
        Density                            1.0000E+00 kg/L
        Solvent mass                       1.8000E+01 g/mol
        Interaction kernel             P16
        Born radius scaling (c1)           1.4744E+00
        Born radii integrator          GBOBC
        Born offset                        0.0000E+00 a0       0.0000E+00 AA
        H-bond correction              true
        Ion screening                  false
        Surface tension                    1.0000E-05 Eh       1.5569E+01 dyn/cm
        Grid points                               230 per atom
q/qsh data taken from xtbrestart
CAMM data taken from xtbrestart

          ...................................................
          :                      SETUP                      :
          :.................................................:
          :  # basis functions                  53          :
          :  # atomic orbitals                  53          :
          :  # shells                           31          :
          :  # electrons                        60          :
          :  max. iterations                   250          :
          :  Hamiltonian                  GFN2-xTB          :
          :  restarted?                       true          :
          :  GBSA solvation                   true          :
          :  PC potential                    false          :
          :  electronic temp.          300.0000000     K    :
          :  accuracy                    0.2000000          :
          :  -> integral cutoff          0.3198970E+02      :
          :  -> integral neglect         0.2000000E-08      :
          :  -> SCF convergence          0.2000000E-06 Eh   :
          :  -> wf. convergence          0.2000000E-04 e    :
          :  Broyden damping             0.4000000          :
          :  net charge                          0          :
          :  unpaired electrons                  0          :
          ...................................................

 iter      E             dE          RMSdq      gap      omega  full diag
   1    -34.7644083 -0.347644E+02  0.269E-02    3.51       0.0  T
   2    -34.7644085 -0.132500E-06  0.155E-02    3.51       1.4  T
   3    -34.7644085 -0.274117E-07  0.157E-03    3.51      14.2  T
   4    -34.7644085 -0.221668E-07  0.738E-04    3.51      30.3  T
   5    -34.7644085 -0.779025E-09  0.283E-04    3.51      78.9  T
   6    -34.7644085 -0.277808E-09  0.946E-05    3.51     236.4  T
   7    -34.7644085 -0.719780E-10  0.418E-05    3.51     534.6  T

   *** convergence criteria satisfied after 7 iterations ***

         #    Occupation            Energy/Eh            Energy/eV
      -------------------------------------------------------------
         1        2.0000           -0.7538101             -20.5122
       ...           ...                  ...                  ...
        24        2.0000           -0.4660263             -12.6812
        25        2.0000           -0.4524865             -12.3128
        26        2.0000           -0.4448048             -12.1038
        27        2.0000           -0.4281272             -11.6499
        28        2.0000           -0.3824132             -10.4060
        29        2.0000           -0.3806691             -10.3585
        30        2.0000           -0.3737073             -10.1691 (HOMO)
        31                         -0.2448393              -6.6624 (LUMO)
        32                         -0.1998757              -5.4389
        33                         -0.1663090              -4.5255
        34                          0.0196078               0.5336
        35                          0.0331432               0.9019
       ...                                ...                  ...
        53                          0.6277673              17.0824
      -------------------------------------------------------------
                  HL-Gap            0.1288680 Eh            3.5067 eV
             Fermi-level           -0.3092733 Eh           -8.4158 eV

 SCC (total)                   0 d,  0 h,  0 min,  0.009 sec
 SCC setup                      ...        0 min,  0.000 sec (  4.156%)
 Dispersion                     ...        0 min,  0.000 sec (  1.106%)
 classical contributions        ...        0 min,  0.000 sec (  0.231%)
 integral evaluation            ...        0 min,  0.002 sec ( 18.616%)
 iterations                     ...        0 min,  0.004 sec ( 45.531%)
 molecular gradient             ...        0 min,  0.003 sec ( 29.762%)
 printout                       ...        0 min,  0.000 sec (  0.447%)

         :::::::::::::::::::::::::::::::::::::::::::::::::::::
         ::                     SUMMARY                     ::
         :::::::::::::::::::::::::::::::::::::::::::::::::::::
         :: total energy             -34.364288090780 Eh    ::
         :: total w/o Gsasa/hb       -34.350025279536 Eh    ::
         :: gradient norm              0.000794611777 Eh/a0 ::
         :: HOMO-LUMO gap              3.506676791031 eV    ::
         ::.................................................::
         :: SCC energy               -34.764307718735 Eh    ::
         :: -> isotropic ES            0.095813091562 Eh    ::
         :: -> anisotropic ES          0.003444210236 Eh    ::
         :: -> anisotropic XC          0.015617195331 Eh    ::
         :: -> dispersion             -0.016869676832 Eh    ::
         :: -> Gsolv                  -0.030243954028 Eh    ::
         ::    -> Gelec               -0.015981142784 Eh    ::
         ::    -> Gsasa               -0.002455655978 Eh    ::
         ::    -> Ghb                 -0.012887914964 Eh    ::
         ::    -> Gshift               0.001080759698 Eh    ::
         :: repulsion energy           0.400019627955 Eh    ::
         :: add. restraining           0.000000000000 Eh    ::
         :: total charge              -0.000000000000 e     ::
         :::::::::::::::::::::::::::::::::::::::::::::::::::::


Property printout bound to 'properties.out'

           -------------------------------------------------
          | TOTAL ENERGY              -34.364288090780 Eh   |
          | GRADIENT NORM               0.000794611777 Eh/α |
          | HOMO-LUMO GAP               3.506676791031 eV   |
           -------------------------------------------------

------------------------------------------------------------------------
 * finished run on 2026/04/09 at 16:06:43.824     
------------------------------------------------------------------------
 total:
 * wall-time:     0 d,  0 h,  0 min,  0.014 sec
 *  cpu-time:     0 d,  0 h,  0 min,  0.013 sec
 * ratio c/w:     0.903 speedup
 SCF:
 * wall-time:     0 d,  0 h,  0 min,  0.009 sec
 *  cpu-time:     0 d,  0 h,  0 min,  0.007 sec
 * ratio c/w:     0.850 speedup


-------------------------   --------------------
FINAL SINGLE POINT ENERGY       -34.364288090780
-------------------------   --------------------


-------------
DIPOLE MOMENT
-------------
                                X             Y             Z
Total Dipole Moment    :     -0.22800      -0.98400      -0.66500
                        -----------------------------------------
Magnitude (a.u.)       :      1.20932
Magnitude (Debye)      :      3.07386


------------------
CARTESIAN GRADIENT
------------------

   1   N   :    0.000017002    0.000016404    0.000045393
   2   C   :    0.000189257   -0.000125971   -0.000075897
   3   C   :   -0.000063714   -0.000031614    0.000043986
   4   C   :   -0.000180164    0.000022164    0.000161048
   5   C   :    0.000240046    0.000055089    0.000117872
   6   N   :   -0.000124769    0.000049491   -0.000027374
   7   C   :    0.000141387   -0.000073370   -0.000003783
   8   N   :   -0.000334292   -0.000032858   -0.000235761
   9   C   :    0.000007531    0.000211977   -0.000180116
  10   O   :    0.000001402    0.000027205    0.000050872
  11   O   :   -0.000039003   -0.000133968    0.000137693
  12   H   :   -0.000003317   -0.000040608   -0.000011435
  13   H   :   -0.000013220    0.000032983   -0.000031164
  14   H   :   -0.000069519   -0.000015790    0.000042506
  15   H   :    0.000041016    0.000009036   -0.000035328
  16   H   :    0.000021316    0.000010993   -0.000019578
  17   H   :   -0.000066687   -0.000068833   -0.000040027
  18   H   :    0.000016747    0.000006484   -0.000003367
  19   H   :    0.000238807    0.000026392    0.000102758
  20   H   :   -0.000019824    0.000054794   -0.000038299

Difference to translation invariance:
           :   -0.0000000000    0.0000000000   -0.0000000000

Difference to rotation invariance:
           :    0.0002002388   -0.0002598712    0.0000201544

Norm of the Cartesian gradient     ...    0.0007946118
RMS gradient                       ...    0.0001025839
MAX gradient                       ...    0.0003342924
------------------------------------------------------------------------------
                         ORCA GEOMETRY RELAXATION STEP
------------------------------------------------------------------------------

Reading the OPT-File                    .... done
Getting information on internals        .... done
Copying old internal coords+grads       .... done
Making the new internal coordinates     .... (2022 redundants) done
Validating the new internal coordinates .... (2022 redundants) done
Calculating the B-matrix                .... done
Calculating the G,G- and P matrices     .... done
Transforming gradient to internals      .... done
Projecting the internal gradient        .... done
Number of atoms                         ....  20
Number of internal coordinates          ....  92
Current Energy                          ....   -34.364288091 Eh
Current gradient norm                   ....     0.000794612 Eh/bohr
Maximum allowed component of the step   ....  0.300
Current trust radius                    ....  0.700
Updating the Hessian (BFGS)             .... done
Forming the augmented Hessian           .... done
Diagonalizing the augmented Hessian     .... done
Last element of RFO vector              ....  0.999426400
Lowest eigenvalues of augmented Hessian:
 -0.000003253  0.000725694  0.002994164  0.011011758  0.017110954
Length of the computed step             ....  0.033884914
The final length of the internal step   ....  0.033884914
Converting the step to Cartesian space:
 Initial RMS(Int)=    0.0035327465
Transforming coordinates:
 Iter   0:  RMS(Cart)=    0.0105780857 RMS(Int)=    0.6550172098
done
Storing new coordinates                 .... done
The predicted energy change is          ....    -0.000001628
Previously predicted energy change      ....    -0.000002800
Actually observed energy change         ....    -0.000003928
Ratio of predicted to observed change   ....     1.402947704
New trust radius                        ....     0.700000000

                                .--------------------.
          ----------------------|Geometry convergence|-------------------------
          Item                value                   Tolerance       Converged
          ---------------------------------------------------------------------
          Energy change      -0.0000039278            0.0000050000      YES
          RMS gradient        0.0000557753            0.0001000000      YES
          MAX gradient        0.0002454354            0.0003000000      YES
          RMS step            0.0035327465            0.0020000000      NO
          MAX step            0.0143847949            0.0040000000      NO
          -------------------------------------------------------------------------
          ........................................................
          Max(Bonds)      0.0020      Max(Angles)    0.09
          Max(Dihed)        0.82      Max(Improp)    0.00
          ---------------------------------------------------------------------

The optimization has not yet converged - more geometry cycles are needed


    ---------------------------------------------------------------------------
                         Redundant Internal Coordinates
                            (Angstroem and degrees)

        Definition                    Value    dE/dq     Step     New-Value
    ----------------------------------------------------------------------------
     1. B(C   1,N   0)                1.4475  0.000022  0.0001    1.4477   
     2. B(C   2,C   1)                1.5338 -0.000084  0.0004    1.5341   
     3. B(C   3,C   2)                1.4913 -0.000026 -0.0000    1.4912   
     4. B(C   4,C   3)                1.3688  0.000012 -0.0001    1.3688   
     5. B(N   5,C   4)                1.3634 -0.000076  0.0001    1.3635   
     6. B(C   6,N   5)                1.3054  0.000063 -0.0000    1.3054   
     7. B(N   7,C   3)                1.3704  0.000043 -0.0000    1.3703   
     8. B(N   7,C   6)                1.3517  0.000044 -0.0001    1.3516   
     9. B(C   8,C   1)                1.5296  0.000186 -0.0005    1.5291   
    10. B(O   9,C   8)                1.2125 -0.000015 -0.0000    1.2124   
    11. B(O  10,C   8)                1.3229  0.000109 -0.0000    1.3229   
    12. B(H  11,N   0)                1.0143 -0.000018  0.0000    1.0144   
    13. B(H  12,N   0)                1.0136 -0.000003  0.0000    1.0136   
    14. B(H  12,O  10)                2.4254 -0.000027  0.0020    2.4274   
    15. B(H  13,C   1)                1.1005  0.000021 -0.0001    1.1004   
    16. B(H  14,C   2)                1.0913  0.000013 -0.0000    1.0913   
    17. B(H  15,C   2)                1.0936  0.000018 -0.0000    1.0935   
    18. B(H  16,C   4)                1.0716  0.000012 -0.0000    1.0715   
    19. B(H  17,C   6)                1.0706  0.000018 -0.0000    1.0706   
    20. B(H  18,N   7)                1.0073 -0.000001  0.0000    1.0073   
    21. B(H  19,O  10)                0.9773  0.000054 -0.0001    0.9772   
    22. A(C   1,N   0,H  12)          110.12 -0.000038    0.02    110.13   
    23. A(H  11,N   0,H  12)          107.70  0.000017   -0.00    107.70   
    24. A(C   1,N   0,H  11)          110.09  0.000055   -0.04    110.05   
    25. A(N   0,C   1,C   8)          115.94  0.000006    0.04    115.98   
    26. A(C   8,C   1,H  13)          104.55 -0.000020    0.02    104.56   
    27. A(N   0,C   1,H  13)          107.17 -0.000045    0.01    107.18   
    28. A(C   2,C   1,H  13)          107.65  0.000063   -0.05    107.60   
    29. A(C   2,C   1,C   8)          109.67 -0.000019    0.01    109.68   
    30. A(N   0,C   1,C   2)          111.32  0.000019   -0.03    111.28   
    31. A(C   3,C   2,H  15)          109.12 -0.000019    0.04    109.16   
    32. A(C   3,C   2,H  14)          109.57 -0.000010   -0.03    109.54   
    33. A(C   1,C   2,H  14)          108.12  0.000069   -0.04    108.08   
    34. A(H  14,C   2,H  15)          108.83 -0.000010    0.03    108.86   
    35. A(C   1,C   2,C   3)          113.03 -0.000047   -0.01    113.03   
    36. A(C   1,C   2,H  15)          108.07  0.000018    0.02    108.09   
    37. A(C   4,C   3,N   7)          104.93 -0.000014    0.01    104.93   
    38. A(C   2,C   3,N   7)          121.23 -0.000081    0.07    121.30   
    39. A(C   2,C   3,C   4)          133.83  0.000094   -0.07    133.76   
    40. A(N   5,C   4,H  16)          119.73  0.000078   -0.01    119.72   
    41. A(C   3,C   4,H  16)          129.70 -0.000120    0.02    129.71   
    42. A(C   3,C   4,N   5)          110.58  0.000042   -0.01    110.57   
    43. A(C   4,N   5,C   6)          105.40  0.000002   -0.00    105.39   
    44. A(N   5,C   6,H  17)          124.44  0.000014   -0.01    124.43   
    45. A(N   5,C   6,N   7)          111.89 -0.000016    0.01    111.89   
    46. A(N   7,C   6,H  17)          123.67  0.000002    0.00    123.67   
    47. A(C   3,N   7,H  18)          125.88  0.000245   -0.08    125.79   
    48. A(C   6,N   7,H  18)          126.91 -0.000231    0.09    126.99   
    49. A(C   3,N   7,C   6)          107.21 -0.000014   -0.00    107.21   
    50. A(O   9,C   8,O  10)          122.84 -0.000017    0.00    122.84   
    51. A(C   1,C   8,O  10)          113.31 -0.000076    0.01    113.32   
    52. A(C   1,C   8,O   9)          123.79  0.000091   -0.01    123.78   
    53. A(C   8,O  10,H  19)          112.75 -0.000082    0.08    112.82   
    54. D(C   2,C   1,N   0,H  11)     56.56 -0.000032    0.09     56.65   
    55. D(C   8,C   1,N   0,H  11)    -69.71 -0.000026    0.08    -69.64   
    56. D(C   8,C   1,N   0,H  12)     48.89  0.000004    0.06     48.95   
    57. D(H  13,C   1,N   0,H  11)    174.02  0.000027    0.03    174.04   
    58. D(C   2,C   1,N   0,H  12)    175.16 -0.000001    0.08    175.23   
    59. D(C   3,C   2,C   1,N   0)    -66.51 -0.000007    0.37    -66.15   
    60. D(C   3,C   2,C   1,C   8)     63.14 -0.000001    0.40     63.54   
    61. D(H  14,C   2,C   1,C   8)   -175.39  0.000006    0.32   -175.06   
    62. D(H  14,C   2,C   1,N   0)     54.96 -0.000001    0.29     55.26   
    63. D(H  14,C   2,C   1,H  13)    -62.20  0.000005    0.32    -61.88   
    64. D(C   3,C   2,C   1,H  13)    176.32 -0.000001    0.40    176.71   
    65. D(C   4,C   3,C   2,H  15)    110.54  0.000012   -0.72    109.81   
    66. D(C   4,C   3,C   2,H  14)   -130.40 -0.000017   -0.68   -131.08   
    67. D(C   4,C   3,C   2,C   1)     -9.74  0.000033   -0.77    -10.51   
    68. D(N   7,C   3,C   2,C   1)    171.47  0.000045   -0.82    170.64   
    69. D(N   7,C   3,C   2,H  14)     50.81 -0.000006   -0.74     50.07   
    70. D(H  16,C   4,C   3,N   7)    180.00  0.000005   -0.01    179.99   
    71. D(H  16,C   4,C   3,C   2)      1.07  0.000017   -0.06      1.01   
    72. D(N   5,C   4,C   3,N   7)      0.06  0.000019   -0.03      0.03   
    73. D(N   5,C   4,C   3,C   2)   -178.87  0.000030   -0.08   -178.95   
    74. D(C   6,N   5,C   4,H  16)   -179.96 -0.000019    0.04   -179.92   
    75. D(C   6,N   5,C   4,C   3)     -0.02 -0.000032    0.06      0.04   
    76. D(H  17,C   6,N   5,C   4)   -179.99  0.000012   -0.03   -180.02   
    77. D(N   7,C   6,N   5,C   4)     -0.03  0.000032   -0.07     -0.11   
    78. D(C   3,N   7,C   6,H  17)   -179.97 -0.000001    0.02   -179.95   
    79. D(C   3,N   7,C   6,N   5)      0.07 -0.000021    0.05      0.13   
    80. D(H  18,N   7,C   3,C   4)   -179.91 -0.000027    0.07   -179.84   
    81. D(H  18,N   7,C   3,C   2)     -0.81 -0.000035    0.11     -0.70   
    82. D(C   6,N   7,C   3,C   4)     -0.08  0.000001   -0.02     -0.09   
    83. D(H  18,N   7,C   6,N   5)    179.90  0.000008   -0.03    179.87   
    84. D(C   6,N   7,C   3,C   2)    179.02 -0.000007    0.03    179.05   
    85. D(H  18,N   7,C   6,H  17)     -0.15  0.000028   -0.07     -0.21   
    86. D(O  10,C   8,C   1,C   2)   -139.39 -0.000034    0.10   -139.29   
    87. D(O  10,C   8,C   1,N   0)    -12.29 -0.000021    0.09    -12.20   
    88. D(O   9,C   8,C   1,H  13)    -71.88 -0.000057    0.12    -71.76   
    89. D(O   9,C   8,C   1,C   2)     43.29 -0.000004    0.08     43.37   
    90. D(O   9,C   8,C   1,N   0)    170.39  0.000010    0.07    170.46   
    91. D(H  19,O  10,C   8,O   9)      1.17 -0.000002    0.03      1.19   
    92. D(H  19,O  10,C   8,C   1)   -176.19  0.000025    0.01   -176.18   
    ----------------------------------------------------------------------------

Geometry step timings:
Preparation and reading OPT file:      0.000 s ( 0.953 %)
Internal coordinates            :      0.000 s ( 0.867 %)
B/P matrices and projection     :      0.000 s (37.782 %)
Hessian update/contruction      :      0.000 s (10.832 %)
Making the step                 :      0.000 s (32.236 %)
Converting the step to Cartesian:      0.000 s ( 3.033 %)
Storing new data                :      0.000 s ( 0.867 %)
Checking convergence            :      0.000 s ( 1.127 %)
Final printing                  :      0.000 s (12.305 %)
Total time                      :      0.001 s

Time for energy+gradient        :      0.018 s
Time for complete geometry iter :      0.020 s

         *************************************************************
         *                GEOMETRY OPTIMIZATION CYCLE  21            *
         *************************************************************
---------------------------------
CARTESIAN COORDINATES (ANGSTROEM)
---------------------------------
  N    -1.346452   -1.597953    0.703874
  C    -1.375571   -0.719271   -0.446256
  C    -0.000477   -0.640617   -1.121935
  C     1.033358    0.010035   -0.266570
  C     0.985971    0.709734    0.908915
  N     2.234230    1.120841    1.272366
  C     3.030176    0.681366    0.335717
  N     2.357501    0.001291   -0.619205
  C    -1.908521    0.692135   -0.197374
  O    -1.842341    1.590510   -1.008882
  O    -2.503705    0.827828    0.976247
  H    -0.637865   -1.288220    1.360302
  H    -2.239923   -1.576421    1.182029
  H    -2.078210   -1.156431   -1.171610
  H     0.314952   -1.656137   -1.367110
  H    -0.109748   -0.070963   -2.048952
  H     0.145513    0.952884    1.527562
  H     4.089441    0.835849    0.319735
  H     2.745194   -0.431367   -1.442138
  H    -2.893522    1.714908    1.103286

----------------------------
CARTESIAN COORDINATES (A.U.)
----------------------------
  NO LB    ZA    FRAG    MASS        X           Y           Z
   0 N   7.0000    0    14.007   -2.544425   -3.019694    1.330130
   1 C   6.0000    0    12.011   -2.599453   -1.359225   -0.843302
   2 C   6.0000    0    12.011   -0.000902   -1.210592   -2.120150
   3 C   6.0000    0    12.011    1.952764    0.018963   -0.503745
   4 C   6.0000    0    12.011    1.863216    1.341202    1.717600
   5 N   7.0000    0    14.007    4.222083    2.118083    2.404423
   6 C   6.0000    0    12.011    5.726202    1.287595    0.634413
   7 N   7.0000    0    14.007    4.455032    0.002440   -1.170129
   8 C   6.0000    0    12.011   -3.606583    1.307947   -0.372983
   9 O   8.0000    0    15.999   -3.481519    3.005628   -1.906510
  10 O   8.0000    0    15.999   -4.731318    1.564369    1.844839
  11 H   1.0000    0     1.008   -1.205391   -2.434383    2.570598
  12 H   1.0000    0     1.008   -4.232841   -2.979004    2.233711
  13 H   1.0000    0     1.008   -3.927248   -2.185339   -2.214022
  14 H   1.0000    0     1.008    0.595172   -3.129645   -2.583464
  15 H   1.0000    0     1.008   -0.207394   -0.134101   -3.871958
  16 H   1.0000    0     1.008    0.274979    1.800691    2.886674
  17 H   1.0000    0     1.008    7.727924    1.579525    0.604212
  18 H   1.0000    0     1.008    5.187665   -0.815166   -2.725245
  19 H   1.0000    0     1.008   -5.467964    3.240707    2.084909

      -----------------------------------------------------------      
     |                   =====================                   |     
     |                           x T B                           |     
     |                   =====================                   |     
     |                         S. Grimme                         |     
     |          Mulliken Center for Theoretical Chemistry        |     
     |                    University of Bonn                     |     
      -----------------------------------------------------------      

   * xtb version 6.7.1 (edcfbbe) compiled by 'albert@albert-system' on 2024-07-22

   xtb is free software: you can redistribute it and/or modify it under
   the terms of the GNU Lesser General Public License as published by
   the Free Software Foundation, either version 3 of the License, or
   (at your option) any later version.
   
   xtb is distributed in the hope that it will be useful,
   but WITHOUT ANY WARRANTY; without even the implied warranty of
   MERCHANTABILITY or FITNESS FOR A PARTICULAR PURPOSE.  See the
   GNU Lesser General Public License for more details.
   
   Cite this work as:
   * C. Bannwarth, E. Caldeweyher, S. Ehlert, A. Hansen, P. Pracht,
     J. Seibert, S. Spicher, S. Grimme, WIREs Comput. Mol. Sci., 2020, 11,
     e01493. DOI: 10.1002/wcms.1493
   
   for GFN2-xTB:
   * C. Bannwarth, S. Ehlert and S. Grimme., J. Chem. Theory Comput., 2019,
     15, 1652-1671. DOI: 10.1021/acs.jctc.8b01176
   for GFN1-xTB:
   * S. Grimme, C. Bannwarth, P. Shushkov, J. Chem. Theory Comput., 2017,
     13, 1989-2009. DOI: 10.1021/acs.jctc.7b00118
   for GFN0-xTB:
   * P. Pracht, E. Caldeweyher, S. Ehlert, S. Grimme, ChemRxiv, 2019, preprint.
     DOI: 10.26434/chemrxiv.8326202.v1
   for GFN-FF:
   * S. Spicher and S. Grimme, Angew. Chem. Int. Ed., 2020, 59, 15665-15673.
     DOI: 10.1002/anie.202004239
   
   for ALPB and GBSA implicit solvation:
   * S. Ehlert, M. Stahn, S. Spicher, S. Grimme, J. Chem. Theory Comput.,
     2021, 17, 4250-4261. DOI: 10.1021/acs.jctc.1c00471
   
   for ddCOSMO and CPCM-X implicit solvation:
   * M. Stahn, S. Ehlert, S. Grimme, J. Phys. Chem. A,
     2023, XX, XXXX-XXXX. DOI: 10.1021/acs.jpca.3c04382
   
   for DFT-D4:
   * E. Caldeweyher, C. Bannwarth and S. Grimme, J. Chem. Phys., 2017,
     147, 034112. DOI: 10.1063/1.4993215
   * E. Caldeweyher, S. Ehlert, A. Hansen, H. Neugebauer, S. Spicher,
     C. Bannwarth and S. Grimme, J. Chem. Phys., 2019, 150, 154122.
     DOI: 10.1063/1.5090222
   * E. Caldeweyher, J.-M. Mewes, S. Ehlert and S. Grimme, Phys. Chem. Chem. Phys.
     2020, 22, 8499-8512. DOI: 10.1039/D0CP00502A
   
   for sTDA-xTB:
   * S. Grimme and C. Bannwarth, J. Chem. Phys., 2016, 145, 054103.
     DOI: 10.1063/1.4959605
   
   in the mass-spec context:
   * V. Asgeirsson, C. Bauer and S. Grimme, Chem. Sci., 2017, 8, 4879.
     DOI: 10.1039/c7sc00601b
   * J. Koopman and S. Grimme, ACS Omega 2019, 4, 12, 15120-15133.
     DOI: 10.1021/acsomega.9b02011
   
   for metadynamics refer to:
   * S. Grimme, J. Chem. Theory Comput., 2019, 155, 2847-2862
     DOI: 10.1021/acs.jctc.9b00143
   
   for SPH calculations refer to:
   * S. Spicher and S. Grimme, J. Chem. Theory Comput., 2021, 17, 1701-1714
     DOI: 10.1021/acs.jctc.0c01306
   
   for ONIOM refer to:
   * C. Plett, A. Katbashev, S. Ehlert, S. Grimme, M. Bursch,
     Phys. Chem. Chem. Phys., 2023, 25, 17860-17868. DOI: 10.1039/D3CP02178E
   
   for DIPRO refer to:
   * J. Kohn, N. Gildemeister, S. Grimme, D. Fazzi, A. Hansen,
     J. Chem. Phys., 2023, just accepted.
   
   for PTB refer to:
   * S. Grimme, M. Mueller, A. Hansen, J. Chem. Phys., 2023, 158, 124111.
     DOI: 10.1063/5.0137838
   
   with help from (in alphabetical order)
   P. Atkinson, C. Bannwarth, F. Bohle, G. Brandenburg, E. Caldeweyher
   M. Checinski, S. Dohm, S. Ehlert, S. Ehrlich, I. Gerasimov, C. Hölzer
   A. Katbashev, J. Kohn, J. Koopman, C. Lavigne, S. Lehtola, F. März, M. Müller,
   F. Musil, H. Neugebauer, J. Pisarek, C. Plett, P. Pracht, F. Pultar,
   J. Seibert, P. Shushkov, S. Spicher, M. Stahn, M. Steiner, T. Strunk,
   J. Stückrath, T. Rose, and J. Unsleber
   
 * started run on 2026/04/09 at 16:06:43.830     
   ID    Z sym.   atoms
    1    7 N      1, 6, 8
    2    6 C      2-5, 7, 9
    3    8 O      10, 11
    4    1 H      12-20

           -------------------------------------------------
          |                Calculation Setup                |
           -------------------------------------------------

          program call               : /home/analima/Programs/orca-6.1.0-f.0_linux_x86-64/bin/otool_xtb geo_opt_XTB.xyz --grad -c 0 -u 0 -P 1 --namespace geo_opt --input geo_opt_XTB.input.tmp --alpb WATER --acc 0.200000
          calculation namespace      : geo_opt
          coordinate file            : geo_opt_XTB.xyz
          omp threads                :                     1


           -------------------------------------------------
          |                 G F N 2 - x T B                 |
           -------------------------------------------------

        Reference                      10.1021/acs.jctc.8b01176
      * Hamiltonian:
        H0-scaling (s, p, d)           1.850000    2.230000    2.230000
        zeta-weighting                 0.500000
      * Dispersion:
        s8                             2.700000
        a1                             0.520000
        a2                             5.000000
        s9                             5.000000
      * Repulsion:
        kExp                           1.500000    1.000000
        rExp                           1.000000
      * Coulomb:
        alpha                          2.000000
        third order                    shell-resolved
        anisotropic                    true
        a3                             3.000000
        a5                             4.000000
        cn-shift                       1.200000
        cn-exp                         4.000000
        max-rad                        5.000000

      * Solvation model:               ALPB
        Solvent                        WATER
        Parameter file                 internal GFN2-xTB/ALPB
        Dielectric constant                8.0200E+01
        Reference state                gsolv [1 M gas/solution]
        Free energy shift                  1.0808E-03 Eh       6.7819E-01 kcal/mol
        Temperature                        2.9815E+02 K
        Density                            1.0000E+00 kg/L
        Solvent mass                       1.8000E+01 g/mol
        Interaction kernel             P16
        Born radius scaling (c1)           1.4744E+00
        Born radii integrator          GBOBC
        Born offset                        0.0000E+00 a0       0.0000E+00 AA
        H-bond correction              true
        Ion screening                  false
        Surface tension                    1.0000E-05 Eh       1.5569E+01 dyn/cm
        Grid points                               230 per atom
q/qsh data taken from xtbrestart
CAMM data taken from xtbrestart

          ...................................................
          :                      SETUP                      :
          :.................................................:
          :  # basis functions                  53          :
          :  # atomic orbitals                  53          :
          :  # shells                           31          :
          :  # electrons                        60          :
          :  max. iterations                   250          :
          :  Hamiltonian                  GFN2-xTB          :
          :  restarted?                       true          :
          :  GBSA solvation                   true          :
          :  PC potential                    false          :
          :  electronic temp.          300.0000000     K    :
          :  accuracy                    0.2000000          :
          :  -> integral cutoff          0.3198970E+02      :
          :  -> integral neglect         0.2000000E-08      :
          :  -> SCF convergence          0.2000000E-06 Eh   :
          :  -> wf. convergence          0.2000000E-04 e    :
          :  Broyden damping             0.4000000          :
          :  net charge                          0          :
          :  unpaired electrons                  0          :
          ...................................................

 iter      E             dE          RMSdq      gap      omega  full diag
   1    -34.7644733 -0.347645E+02  0.283E-02    3.51       0.0  T
   2    -34.7644734 -0.137197E-06  0.164E-02    3.51       1.4  T
   3    -34.7644734 -0.249025E-07  0.174E-03    3.51      12.8  T
   4    -34.7644735 -0.308075E-07  0.795E-04    3.51      28.1  T
   5    -34.7644735 -0.548283E-09  0.277E-04    3.51      80.7  T
   6    -34.7644735 -0.400938E-09  0.872E-05    3.51     256.3  T
   7    -34.7644735 -0.507185E-10  0.475E-05    3.51     470.4  T

   *** convergence criteria satisfied after 7 iterations ***

         #    Occupation            Energy/Eh            Energy/eV
      -------------------------------------------------------------
         1        2.0000           -0.7538182             -20.5124
       ...           ...                  ...                  ...
        24        2.0000           -0.4660051             -12.6806
        25        2.0000           -0.4525017             -12.3132
        26        2.0000           -0.4448152             -12.1040
        27        2.0000           -0.4281297             -11.6500
        28        2.0000           -0.3824502             -10.4070
        29        2.0000           -0.3806771             -10.3588
        30        2.0000           -0.3737158             -10.1693 (HOMO)
        31                         -0.2448281              -6.6621 (LUMO)
        32                         -0.1998469              -5.4381
        33                         -0.1663374              -4.5263
        34                          0.0195810               0.5328
        35                          0.0332927               0.9059
       ...                                ...                  ...
        53                          0.6277470              17.0819
      -------------------------------------------------------------
                  HL-Gap            0.1288877 Eh            3.5072 eV
             Fermi-level           -0.3092719 Eh           -8.4157 eV

 SCC (total)                   0 d,  0 h,  0 min,  0.009 sec
 SCC setup                      ...        0 min,  0.000 sec (  2.597%)
 Dispersion                     ...        0 min,  0.000 sec (  0.619%)
 classical contributions        ...        0 min,  0.000 sec (  0.121%)
 integral evaluation            ...        0 min,  0.001 sec ( 10.260%)
 iterations                     ...        0 min,  0.005 sec ( 55.772%)
 molecular gradient             ...        0 min,  0.003 sec ( 30.023%)
 printout                       ...        0 min,  0.000 sec (  0.508%)

         :::::::::::::::::::::::::::::::::::::::::::::::::::::
         ::                     SUMMARY                     ::
         :::::::::::::::::::::::::::::::::::::::::::::::::::::
         :: total energy             -34.364290065206 Eh    ::
         :: total w/o Gsasa/hb       -34.350028813444 Eh    ::
         :: gradient norm              0.000460847202 Eh/a0 ::
         :: HOMO-LUMO gap              3.507212914691 eV    ::
         ::.................................................::
         :: SCC energy               -34.764372829536 Eh    ::
         :: -> isotropic ES            0.095829301586 Eh    ::
         :: -> anisotropic ES          0.003444534455 Eh    ::
         :: -> anisotropic XC          0.015611941060 Eh    ::
         :: -> dispersion             -0.016868157999 Eh    ::
         :: -> Gsolv                  -0.030247732808 Eh    ::
         ::    -> Gelec               -0.015986481046 Eh    ::
         ::    -> Gsasa               -0.002455058566 Eh    ::
         ::    -> Ghb                 -0.012886952894 Eh    ::
         ::    -> Gshift               0.001080759698 Eh    ::
         :: repulsion energy           0.400082764330 Eh    ::
         :: add. restraining           0.000000000000 Eh    ::
         :: total charge               0.000000000000 e     ::
         :::::::::::::::::::::::::::::::::::::::::::::::::::::


Property printout bound to 'properties.out'

           -------------------------------------------------
          | TOTAL ENERGY              -34.364290065206 Eh   |
          | GRADIENT NORM               0.000460847202 Eh/α |
          | HOMO-LUMO GAP               3.507212914691 eV   |
           -------------------------------------------------

------------------------------------------------------------------------
 * finished run on 2026/04/09 at 16:06:43.844     
------------------------------------------------------------------------
 total:
 * wall-time:     0 d,  0 h,  0 min,  0.014 sec
 *  cpu-time:     0 d,  0 h,  0 min,  0.012 sec
 * ratio c/w:     0.896 speedup
 SCF:
 * wall-time:     0 d,  0 h,  0 min,  0.009 sec
 *  cpu-time:     0 d,  0 h,  0 min,  0.008 sec
 * ratio c/w:     0.850 speedup


-------------------------   --------------------
FINAL SINGLE POINT ENERGY       -34.364290065210
-------------------------   --------------------


-------------
DIPOLE MOMENT
-------------
                                X             Y             Z
Total Dipole Moment    :     -0.22500      -0.99100      -0.65900
                        -----------------------------------------
Magnitude (a.u.)       :      1.21119
Magnitude (Debye)      :      3.07861


------------------
CARTESIAN GRADIENT
------------------

   1   N   :    0.000029264   -0.000080487    0.000098839
   2   C   :   -0.000011204    0.000078152    0.000009741
   3   C   :   -0.000064216    0.000055829   -0.000052785
   4   C   :   -0.000038808   -0.000010598    0.000092553
   5   C   :    0.000074854    0.000050801   -0.000011726
   6   N   :   -0.000022021   -0.000057159    0.000058221
   7   C   :    0.000020766   -0.000025466   -0.000077132
   8   N   :   -0.000133270    0.000031481   -0.000039286
   9   C   :    0.000058880    0.000071515   -0.000259094
  10   O   :    0.000011339   -0.000055400    0.000095307
  11   O   :   -0.000013667   -0.000017401    0.000032430
  12   H   :    0.000007592   -0.000015338   -0.000038702
  13   H   :   -0.000020316    0.000010669   -0.000012931
  14   H   :   -0.000019407   -0.000015505    0.000039431
  15   H   :    0.000008243   -0.000006984    0.000022646
  16   H   :    0.000054417    0.000012344    0.000000561
  17   H   :   -0.000045976   -0.000041706   -0.000042711
  18   H   :    0.000005350    0.000021036   -0.000005866
  19   H   :    0.000129364   -0.000005457    0.000045683
  20   H   :   -0.000031185   -0.000000326    0.000044820

Difference to translation invariance:
           :    0.0000000000   -0.0000000000    0.0000000000

Difference to rotation invariance:
           :    0.0002047201   -0.0002370929    0.0000537465

Norm of the Cartesian gradient     ...    0.0004608472
RMS gradient                       ...    0.0000594951
MAX gradient                       ...    0.0002590942
------------------------------------------------------------------------------
                         ORCA GEOMETRY RELAXATION STEP
------------------------------------------------------------------------------

Reading the OPT-File                    .... done
Getting information on internals        .... done
Copying old internal coords+grads       .... done
Making the new internal coordinates     .... (2022 redundants) done
Validating the new internal coordinates .... (2022 redundants) done
Calculating the B-matrix                .... done
Calculating the G,G- and P matrices     .... done
Transforming gradient to internals      .... done
Projecting the internal gradient        .... done
Number of atoms                         ....  20
Number of internal coordinates          ....  92
Current Energy                          ....   -34.364290065 Eh
Current gradient norm                   ....     0.000460847 Eh/bohr
Maximum allowed component of the step   ....  0.300
Current trust radius                    ....  0.700
Updating the Hessian (BFGS)             .... done
Forming the augmented Hessian           .... done
Diagonalizing the augmented Hessian     .... done
Last element of RFO vector              ....  0.999746925
Lowest eigenvalues of augmented Hessian:
 -0.000001051  0.000612835  0.002992348  0.009285078  0.016957680
Length of the computed step             ....  0.022502068
The final length of the internal step   ....  0.022502068
Converting the step to Cartesian space:
 Initial RMS(Int)=    0.0023460028
Transforming coordinates:
 Iter   0:  RMS(Cart)=    0.0068712008 RMS(Int)=    0.6550265755
done
Storing new coordinates                 .... done
The predicted energy change is          ....    -0.000000526
Previously predicted energy change      ....    -0.000001628
Actually observed energy change         ....    -0.000001974
Ratio of predicted to observed change   ....     1.212702703
New trust radius                        ....     0.700000000

                                .--------------------.
          ----------------------|Geometry convergence|-------------------------
          Item                value                   Tolerance       Converged
          ---------------------------------------------------------------------
          Energy change      -0.0000019744            0.0000050000      YES
          RMS gradient        0.0000394108            0.0001000000      YES
          MAX gradient        0.0001242954            0.0003000000      YES
          RMS step            0.0023460028            0.0020000000      NO
          MAX step            0.0092493256            0.0040000000      NO
          -------------------------------------------------------------------------
          ........................................................
          Max(Bonds)      0.0009      Max(Angles)    0.05
          Max(Dihed)        0.53      Max(Improp)    0.00
          ---------------------------------------------------------------------

The optimization has not yet converged - more geometry cycles are needed


    ---------------------------------------------------------------------------
                         Redundant Internal Coordinates
                            (Angstroem and degrees)

        Definition                    Value    dE/dq     Step     New-Value
    ----------------------------------------------------------------------------
     1. B(C   1,N   0)                1.4477  0.000103 -0.0000    1.4476   
     2. B(C   2,C   1)                1.5341  0.000002  0.0001    1.5343   
     3. B(C   3,C   2)                1.4912 -0.000024  0.0000    1.4912   
     4. B(C   4,C   3)                1.3688 -0.000060 -0.0000    1.3688   
     5. B(N   5,C   4)                1.3635 -0.000020  0.0001    1.3636   
     6. B(C   6,N   5)                1.3054  0.000035 -0.0000    1.3053   
     7. B(N   7,C   3)                1.3703  0.000022 -0.0000    1.3703   
     8. B(N   7,C   6)                1.3516 -0.000034 -0.0000    1.3516   
     9. B(C   8,C   1)                1.5291 -0.000014 -0.0002    1.5289   
    10. B(O   9,C   8)                1.2124 -0.000105  0.0000    1.2125   
    11. B(O  10,C   8)                1.3229  0.000087 -0.0001    1.3228   
    12. B(H  11,N   0)                1.0144 -0.000020  0.0001    1.0144   
    13. B(H  12,N   0)                1.0136  0.000013  0.0000    1.0136   
    14. B(H  12,O  10)                2.4274 -0.000009  0.0009    2.4283   
    15. B(H  13,C   1)                1.1004 -0.000009 -0.0000    1.1004   
    16. B(H  14,C   2)                1.0913  0.000005 -0.0000    1.0912   
    17. B(H  15,C   2)                1.0935 -0.000002  0.0000    1.0935   
    18. B(H  16,C   4)                1.0715  0.000000 -0.0000    1.0715   
    19. B(H  17,C   6)                1.0706  0.000009 -0.0000    1.0706   
    20. B(H  18,N   7)                1.0073  0.000017 -0.0000    1.0073   
    21. B(H  19,O  10)                0.9772  0.000020 -0.0000    0.9772   
    22. A(C   1,N   0,H  12)          110.13 -0.000014    0.00    110.13   
    23. A(H  11,N   0,H  12)          107.70  0.000024   -0.02    107.68   
    24. A(C   1,N   0,H  11)          110.05 -0.000015   -0.02    110.03   
    25. A(N   0,C   1,C   8)          115.97  0.000055    0.00    115.97   
    26. A(C   8,C   1,H  13)          104.56 -0.000011    0.00    104.56   
    27. A(N   0,C   1,H  13)          107.18 -0.000030    0.02    107.20   
    28. A(C   2,C   1,H  13)          107.60  0.000045   -0.03    107.57   
    29. A(C   2,C   1,C   8)          109.68 -0.000033    0.01    109.69   
    30. A(N   0,C   1,C   2)          111.28 -0.000024   -0.00    111.28   
    31. A(C   3,C   2,H  15)          109.16 -0.000035    0.02    109.18   
    32. A(C   3,C   2,H  14)          109.54  0.000009   -0.01    109.53   
    33. A(C   1,C   2,H  14)          108.08  0.000029   -0.01    108.07   
    34. A(H  14,C   2,H  15)          108.86  0.000015    0.01    108.86   
    35. A(C   1,C   2,C   3)          113.03 -0.000092    0.01    113.03   
    36. A(C   1,C   2,H  15)          108.09  0.000080   -0.02    108.07   
    37. A(C   4,C   3,N   7)          104.93  0.000003    0.00    104.94   
    38. A(C   2,C   3,N   7)          121.30  0.000051    0.02    121.32   
    39. A(C   2,C   3,C   4)          133.76 -0.000054   -0.02    133.74   
    40. A(N   5,C   4,H  16)          119.72  0.000063   -0.02    119.70   
    41. A(C   3,C   4,H  16)          129.71 -0.000086    0.02    129.74   
    42. A(C   3,C   4,N   5)          110.57  0.000023   -0.01    110.56   
    43. A(C   4,N   5,C   6)          105.39 -0.000019    0.00    105.39   
    44. A(N   5,C   6,H  17)          124.43 -0.000001   -0.00    124.43   
    45. A(N   5,C   6,N   7)          111.89  0.000002    0.00    111.89   
    46. A(N   7,C   6,H  17)          123.67 -0.000001    0.00    123.68   
    47. A(C   3,N   7,H  18)          125.79  0.000124   -0.05    125.74   
    48. A(C   6,N   7,H  18)          126.99 -0.000115    0.05    127.05   
    49. A(C   3,N   7,C   6)          107.21 -0.000009   -0.00    107.21   
    50. A(O   9,C   8,O  10)          122.84  0.000024   -0.00    122.84   
    51. A(C   1,C   8,O  10)          113.32 -0.000094    0.01    113.34   
    52. A(C   1,C   8,O   9)          123.78  0.000070   -0.01    123.77   
    53. A(C   8,O  10,H  19)          112.82  0.000090    0.01    112.83   
    54. D(C   2,C   1,N   0,H  11)     56.65 -0.000026    0.10     56.75   
    55. D(C   8,C   1,N   0,H  11)    -69.64 -0.000005    0.09    -69.55   
    56. D(C   8,C   1,N   0,H  12)     48.95  0.000006    0.06     49.01   
    57. D(H  13,C   1,N   0,H  11)    174.04 -0.000003    0.08    174.12   
    58. D(C   2,C   1,N   0,H  12)    175.23 -0.000014    0.08    175.31   
    59. D(C   3,C   2,C   1,N   0)    -66.15  0.000002    0.22    -65.93   
    60. D(C   3,C   2,C   1,C   8)     63.53  0.000030    0.22     63.76   
    61. D(H  14,C   2,C   1,C   8)   -175.06  0.000002    0.21   -174.85   
    62. D(H  14,C   2,C   1,N   0)     55.26 -0.000026    0.20     55.46   
    63. D(H  14,C   2,C   1,H  13)    -61.88 -0.000003    0.20    -61.68   
    64. D(C   3,C   2,C   1,H  13)    176.71  0.000025    0.22    176.93   
    65. D(C   4,C   3,C   2,H  15)    109.81  0.000012   -0.50    109.31   
    66. D(C   4,C   3,C   2,H  14)   -131.08  0.000015   -0.49   -131.57   
    67. D(C   4,C   3,C   2,C   1)    -10.51 -0.000004   -0.50    -11.01   
    68. D(N   7,C   3,C   2,C   1)    170.64  0.000005   -0.53    170.11   
    69. D(N   7,C   3,C   2,H  14)     50.07  0.000024   -0.52     49.55   
    70. D(H  16,C   4,C   3,N   7)    179.99  0.000003   -0.00    179.99   
    71. D(H  16,C   4,C   3,C   2)      1.01  0.000011   -0.02      0.99   
    72. D(N   5,C   4,C   3,N   7)      0.03 -0.000017    0.02      0.06   
    73. D(N   5,C   4,C   3,C   2)   -178.95 -0.000009    0.00   -178.95   
    74. D(C   6,N   5,C   4,H  16)   -179.92  0.000009   -0.01   -179.93   
    75. D(C   6,N   5,C   4,C   3)      0.04  0.000026   -0.04      0.01   
    76. D(H  17,C   6,N   5,C   4)    179.98 -0.000016    0.03    180.00   
    77. D(N   7,C   6,N   5,C   4)     -0.11 -0.000026    0.04     -0.07   
    78. D(C   3,N   7,C   6,H  17)   -179.95  0.000006   -0.01   -179.96   
    79. D(C   3,N   7,C   6,N   5)      0.13  0.000016   -0.02      0.11   
    80. D(H  18,N   7,C   3,C   4)   -179.84 -0.000010    0.04   -179.79   
    81. D(H  18,N   7,C   3,C   2)     -0.70 -0.000017    0.06     -0.63   
    82. D(C   6,N   7,C   3,C   4)     -0.09  0.000001   -0.00     -0.09   
    83. D(H  18,N   7,C   6,N   5)    179.87  0.000027   -0.06    179.80   
    84. D(C   6,N   7,C   3,C   2)    179.05 -0.000007    0.02    179.07   
    85. D(H  18,N   7,C   6,H  17)     -0.21  0.000018   -0.06     -0.27   
    86. D(O  10,C   8,C   1,C   2)   -139.29 -0.000000    0.07   -139.22   
    87. D(O  10,C   8,C   1,N   0)    -12.20 -0.000017    0.08    -12.12   
    88. D(O   9,C   8,C   1,H  13)    -71.76 -0.000031    0.10    -71.66   
    89. D(O   9,C   8,C   1,C   2)     43.37  0.000000    0.07     43.44   
    90. D(O   9,C   8,C   1,N   0)    170.46 -0.000017    0.08    170.54   
    91. D(H  19,O  10,C   8,O   9)      1.19  0.000006    0.00      1.20   
    92. D(H  19,O  10,C   8,C   1)   -176.18  0.000006    0.00   -176.17   
    ----------------------------------------------------------------------------

Geometry step timings:
Preparation and reading OPT file:      0.000 s ( 0.777 %)
Internal coordinates            :      0.000 s ( 0.863 %)
B/P matrices and projection     :      0.000 s (37.360 %)
Hessian update/contruction      :      0.000 s (11.303 %)
Making the step                 :      0.000 s (32.442 %)
Converting the step to Cartesian:      0.000 s ( 2.761 %)
Storing new data                :      0.000 s ( 0.863 %)
Checking convergence            :      0.000 s ( 1.208 %)
Final printing                  :      0.000 s (12.425 %)
Total time                      :      0.001 s

Time for energy+gradient        :      0.018 s
Time for complete geometry iter :      0.019 s

         *************************************************************
         *                GEOMETRY OPTIMIZATION CYCLE  22            *
         *************************************************************
---------------------------------
CARTESIAN COORDINATES (ANGSTROEM)
---------------------------------
  N    -1.342077   -1.597523    0.703877
  C    -1.375096   -0.719021   -0.446246
  C    -0.000947   -0.636666   -1.123660
  C     1.033563    0.012240   -0.267784
  C     0.985886    0.715397    0.905623
  N     2.234915    1.122641    1.271019
  C     3.031539    0.676774    0.338025
  N     2.358582   -0.003117   -0.616791
  C    -1.911919    0.690639   -0.196834
  O    -1.850459    1.588693   -1.009130
  O    -2.504764    0.825288    0.978004
  H    -0.634598   -1.284564    1.360046
  H    -2.235413   -1.579408    1.182447
  H    -2.077014   -1.158180   -1.171075
  H     0.315200   -1.651080   -1.372288
  H    -0.112518   -0.064380   -2.048792
  H     0.145036    0.964019    1.521521
  H     4.091501    0.826583    0.324603
  H     2.745711   -0.439483   -1.438028
  H    -2.897129    1.711148    1.105464

----------------------------
CARTESIAN COORDINATES (A.U.)
----------------------------
  NO LB    ZA    FRAG    MASS        X           Y           Z
   0 N   7.0000    0    14.007   -2.536158   -3.018881    1.330134
   1 C   6.0000    0    12.011   -2.598554   -1.358754   -0.843283
   2 C   6.0000    0    12.011   -0.001790   -1.203124   -2.123410
   3 C   6.0000    0    12.011    1.953151    0.023131   -0.506038
   4 C   6.0000    0    12.011    1.863054    1.351905    1.711379
   5 N   7.0000    0    14.007    4.223377    2.121485    2.401879
   6 C   6.0000    0    12.011    5.728779    1.278918    0.638774
   7 N   7.0000    0    14.007    4.457075   -0.005890   -1.165566
   8 C   6.0000    0    12.011   -3.613003    1.305119   -0.371962
   9 O   8.0000    0    15.999   -3.496860    3.002194   -1.906980
  10 O   8.0000    0    15.999   -4.733318    1.559567    1.848159
  11 H   1.0000    0     1.008   -1.199216   -2.427474    2.570115
  12 H   1.0000    0     1.008   -4.224318   -2.984649    2.234501
  13 H   1.0000    0     1.008   -3.924987   -2.188643   -2.213012
  14 H   1.0000    0     1.008    0.595641   -3.120090   -2.593249
  15 H   1.0000    0     1.008   -0.212629   -0.121660   -3.871657
  16 H   1.0000    0     1.008    0.274078    1.821732    2.875259
  17 H   1.0000    0     1.008    7.731816    1.562015    0.613411
  18 H   1.0000    0     1.008    5.188642   -0.830503   -2.717478
  19 H   1.0000    0     1.008   -5.474780    3.233601    2.089025

      -----------------------------------------------------------      
     |                   =====================                   |     
     |                           x T B                           |     
     |                   =====================                   |     
     |                         S. Grimme                         |     
     |          Mulliken Center for Theoretical Chemistry        |     
     |                    University of Bonn                     |     
      -----------------------------------------------------------      

   * xtb version 6.7.1 (edcfbbe) compiled by 'albert@albert-system' on 2024-07-22

   xtb is free software: you can redistribute it and/or modify it under
   the terms of the GNU Lesser General Public License as published by
   the Free Software Foundation, either version 3 of the License, or
   (at your option) any later version.
   
   xtb is distributed in the hope that it will be useful,
   but WITHOUT ANY WARRANTY; without even the implied warranty of
   MERCHANTABILITY or FITNESS FOR A PARTICULAR PURPOSE.  See the
   GNU Lesser General Public License for more details.
   
   Cite this work as:
   * C. Bannwarth, E. Caldeweyher, S. Ehlert, A. Hansen, P. Pracht,
     J. Seibert, S. Spicher, S. Grimme, WIREs Comput. Mol. Sci., 2020, 11,
     e01493. DOI: 10.1002/wcms.1493
   
   for GFN2-xTB:
   * C. Bannwarth, S. Ehlert and S. Grimme., J. Chem. Theory Comput., 2019,
     15, 1652-1671. DOI: 10.1021/acs.jctc.8b01176
   for GFN1-xTB:
   * S. Grimme, C. Bannwarth, P. Shushkov, J. Chem. Theory Comput., 2017,
     13, 1989-2009. DOI: 10.1021/acs.jctc.7b00118
   for GFN0-xTB:
   * P. Pracht, E. Caldeweyher, S. Ehlert, S. Grimme, ChemRxiv, 2019, preprint.
     DOI: 10.26434/chemrxiv.8326202.v1
   for GFN-FF:
   * S. Spicher and S. Grimme, Angew. Chem. Int. Ed., 2020, 59, 15665-15673.
     DOI: 10.1002/anie.202004239
   
   for ALPB and GBSA implicit solvation:
   * S. Ehlert, M. Stahn, S. Spicher, S. Grimme, J. Chem. Theory Comput.,
     2021, 17, 4250-4261. DOI: 10.1021/acs.jctc.1c00471
   
   for ddCOSMO and CPCM-X implicit solvation:
   * M. Stahn, S. Ehlert, S. Grimme, J. Phys. Chem. A,
     2023, XX, XXXX-XXXX. DOI: 10.1021/acs.jpca.3c04382
   
   for DFT-D4:
   * E. Caldeweyher, C. Bannwarth and S. Grimme, J. Chem. Phys., 2017,
     147, 034112. DOI: 10.1063/1.4993215
   * E. Caldeweyher, S. Ehlert, A. Hansen, H. Neugebauer, S. Spicher,
     C. Bannwarth and S. Grimme, J. Chem. Phys., 2019, 150, 154122.
     DOI: 10.1063/1.5090222
   * E. Caldeweyher, J.-M. Mewes, S. Ehlert and S. Grimme, Phys. Chem. Chem. Phys.
     2020, 22, 8499-8512. DOI: 10.1039/D0CP00502A
   
   for sTDA-xTB:
   * S. Grimme and C. Bannwarth, J. Chem. Phys., 2016, 145, 054103.
     DOI: 10.1063/1.4959605
   
   in the mass-spec context:
   * V. Asgeirsson, C. Bauer and S. Grimme, Chem. Sci., 2017, 8, 4879.
     DOI: 10.1039/c7sc00601b
   * J. Koopman and S. Grimme, ACS Omega 2019, 4, 12, 15120-15133.
     DOI: 10.1021/acsomega.9b02011
   
   for metadynamics refer to:
   * S. Grimme, J. Chem. Theory Comput., 2019, 155, 2847-2862
     DOI: 10.1021/acs.jctc.9b00143
   
   for SPH calculations refer to:
   * S. Spicher and S. Grimme, J. Chem. Theory Comput., 2021, 17, 1701-1714
     DOI: 10.1021/acs.jctc.0c01306
   
   for ONIOM refer to:
   * C. Plett, A. Katbashev, S. Ehlert, S. Grimme, M. Bursch,
     Phys. Chem. Chem. Phys., 2023, 25, 17860-17868. DOI: 10.1039/D3CP02178E
   
   for DIPRO refer to:
   * J. Kohn, N. Gildemeister, S. Grimme, D. Fazzi, A. Hansen,
     J. Chem. Phys., 2023, just accepted.
   
   for PTB refer to:
   * S. Grimme, M. Mueller, A. Hansen, J. Chem. Phys., 2023, 158, 124111.
     DOI: 10.1063/5.0137838
   
   with help from (in alphabetical order)
   P. Atkinson, C. Bannwarth, F. Bohle, G. Brandenburg, E. Caldeweyher
   M. Checinski, S. Dohm, S. Ehlert, S. Ehrlich, I. Gerasimov, C. Hölzer
   A. Katbashev, J. Kohn, J. Koopman, C. Lavigne, S. Lehtola, F. März, M. Müller,
   F. Musil, H. Neugebauer, J. Pisarek, C. Plett, P. Pracht, F. Pultar,
   J. Seibert, P. Shushkov, S. Spicher, M. Stahn, M. Steiner, T. Strunk,
   J. Stückrath, T. Rose, and J. Unsleber
   
 * started run on 2026/04/09 at 16:06:43.849     
   ID    Z sym.   atoms
    1    7 N      1, 6, 8
    2    6 C      2-5, 7, 9
    3    8 O      10, 11
    4    1 H      12-20

           -------------------------------------------------
          |                Calculation Setup                |
           -------------------------------------------------

          program call               : /home/analima/Programs/orca-6.1.0-f.0_linux_x86-64/bin/otool_xtb geo_opt_XTB.xyz --grad -c 0 -u 0 -P 1 --namespace geo_opt --input geo_opt_XTB.input.tmp --alpb WATER --acc 0.200000
          calculation namespace      : geo_opt
          coordinate file            : geo_opt_XTB.xyz
          omp threads                :                     1


           -------------------------------------------------
          |                 G F N 2 - x T B                 |
           -------------------------------------------------

        Reference                      10.1021/acs.jctc.8b01176
      * Hamiltonian:
        H0-scaling (s, p, d)           1.850000    2.230000    2.230000
        zeta-weighting                 0.500000
      * Dispersion:
        s8                             2.700000
        a1                             0.520000
        a2                             5.000000
        s9                             5.000000
      * Repulsion:
        kExp                           1.500000    1.000000
        rExp                           1.000000
      * Coulomb:
        alpha                          2.000000
        third order                    shell-resolved
        anisotropic                    true
        a3                             3.000000
        a5                             4.000000
        cn-shift                       1.200000
        cn-exp                         4.000000
        max-rad                        5.000000

      * Solvation model:               ALPB
        Solvent                        WATER
        Parameter file                 internal GFN2-xTB/ALPB
        Dielectric constant                8.0200E+01
        Reference state                gsolv [1 M gas/solution]
        Free energy shift                  1.0808E-03 Eh       6.7819E-01 kcal/mol
        Temperature                        2.9815E+02 K
        Density                            1.0000E+00 kg/L
        Solvent mass                       1.8000E+01 g/mol
        Interaction kernel             P16
        Born radius scaling (c1)           1.4744E+00
        Born radii integrator          GBOBC
        Born offset                        0.0000E+00 a0       0.0000E+00 AA
        H-bond correction              true
        Ion screening                  false
        Surface tension                    1.0000E-05 Eh       1.5569E+01 dyn/cm
        Grid points                               230 per atom
q/qsh data taken from xtbrestart
CAMM data taken from xtbrestart

          ...................................................
          :                      SETUP                      :
          :.................................................:
          :  # basis functions                  53          :
          :  # atomic orbitals                  53          :
          :  # shells                           31          :
          :  # electrons                        60          :
          :  max. iterations                   250          :
          :  Hamiltonian                  GFN2-xTB          :
          :  restarted?                       true          :
          :  GBSA solvation                   true          :
          :  PC potential                    false          :
          :  electronic temp.          300.0000000     K    :
          :  accuracy                    0.2000000          :
          :  -> integral cutoff          0.3198970E+02      :
          :  -> integral neglect         0.2000000E-08      :
          :  -> SCF convergence          0.2000000E-06 Eh   :
          :  -> wf. convergence          0.2000000E-04 e    :
          :  Broyden damping             0.4000000          :
          :  net charge                          0          :
          :  unpaired electrons                  0          :
          ...................................................

 iter      E             dE          RMSdq      gap      omega  full diag
   1    -34.7644902 -0.347645E+02  0.196E-02    3.51       0.0  T
   2    -34.7644903 -0.605344E-07  0.113E-02    3.51       2.0  T
   3    -34.7644903 -0.168248E-07  0.101E-03    3.51      22.2  T
   4    -34.7644903 -0.692224E-08  0.533E-04    3.51      42.0  T
   5    -34.7644903 -0.683279E-09  0.182E-04    3.51     122.9  T
   6    -34.7644903 -0.975007E-10  0.667E-05    3.51     335.5  T

   *** convergence criteria satisfied after 6 iterations ***

         #    Occupation            Energy/Eh            Energy/eV
      -------------------------------------------------------------
         1        2.0000           -0.7538482             -20.5133
       ...           ...                  ...                  ...
        24        2.0000           -0.4659947             -12.6804
        25        2.0000           -0.4524973             -12.3131
        26        2.0000           -0.4448329             -12.1045
        27        2.0000           -0.4281296             -11.6500
        28        2.0000           -0.3824828             -10.4079
        29        2.0000           -0.3806647             -10.3584
        30        2.0000           -0.3737319             -10.1698 (HOMO)
        31                         -0.2448393              -6.6624 (LUMO)
        32                         -0.1998331              -5.4377
        33                         -0.1663584              -4.5268
        34                          0.0196139               0.5337
        35                          0.0333755               0.9082
       ...                                ...                  ...
        53                          0.6277397              17.0817
      -------------------------------------------------------------
                  HL-Gap            0.1288926 Eh            3.5073 eV
             Fermi-level           -0.3092856 Eh           -8.4161 eV

 SCC (total)                   0 d,  0 h,  0 min,  0.007 sec
 SCC setup                      ...        0 min,  0.000 sec (  3.220%)
 Dispersion                     ...        0 min,  0.000 sec (  0.742%)
 classical contributions        ...        0 min,  0.000 sec (  0.148%)
 integral evaluation            ...        0 min,  0.001 sec ( 12.465%)
 iterations                     ...        0 min,  0.004 sec ( 48.829%)
 molecular gradient             ...        0 min,  0.003 sec ( 34.009%)
 printout                       ...        0 min,  0.000 sec (  0.516%)

         :::::::::::::::::::::::::::::::::::::::::::::::::::::
         ::                     SUMMARY                     ::
         :::::::::::::::::::::::::::::::::::::::::::::::::::::
         :: total energy             -34.364290817631 Eh    ::
         :: total w/o Gsasa/hb       -34.350033637750 Eh    ::
         :: gradient norm              0.000346799162 Eh/a0 ::
         :: HOMO-LUMO gap              3.507347113153 eV    ::
         ::.................................................::
         :: SCC energy               -34.764389789361 Eh    ::
         :: -> isotropic ES            0.095838327905 Eh    ::
         :: -> anisotropic ES          0.003447793728 Eh    ::
         :: -> anisotropic XC          0.015610951241 Eh    ::
         :: -> dispersion             -0.016865704274 Eh    ::
         :: -> Gsolv                  -0.030248715555 Eh    ::
         ::    -> Gelec               -0.015991535675 Eh    ::
         ::    -> Gsasa               -0.002454578448 Eh    ::
         ::    -> Ghb                 -0.012883361131 Eh    ::
         ::    -> Gshift               0.001080759698 Eh    ::
         :: repulsion energy           0.400098971730 Eh    ::
         :: add. restraining           0.000000000000 Eh    ::
         :: total charge              -0.000000000000 e     ::
         :::::::::::::::::::::::::::::::::::::::::::::::::::::


Property printout bound to 'properties.out'

           -------------------------------------------------
          | TOTAL ENERGY              -34.364290817631 Eh   |
          | GRADIENT NORM               0.000346799162 Eh/α |
          | HOMO-LUMO GAP               3.507347113153 eV   |
           -------------------------------------------------

------------------------------------------------------------------------
 * finished run on 2026/04/09 at 16:06:43.861     
------------------------------------------------------------------------
 total:
 * wall-time:     0 d,  0 h,  0 min,  0.012 sec
 *  cpu-time:     0 d,  0 h,  0 min,  0.011 sec
 * ratio c/w:     0.887 speedup
 SCF:
 * wall-time:     0 d,  0 h,  0 min,  0.007 sec
 *  cpu-time:     0 d,  0 h,  0 min,  0.006 sec
 * ratio c/w:     0.824 speedup


-------------------------   --------------------
FINAL SINGLE POINT ENERGY       -34.364290817630
-------------------------   --------------------


-------------
DIPOLE MOMENT
-------------
                                X             Y             Z
Total Dipole Moment    :     -0.22300      -0.99700      -0.65500
                        -----------------------------------------
Magnitude (a.u.)       :      1.21357
Magnitude (Debye)      :      3.08466


------------------
CARTESIAN GRADIENT
------------------

   1   N   :    0.000020206   -0.000090023    0.000053796
   2   C   :   -0.000050820    0.000129218    0.000040359
   3   C   :   -0.000057206    0.000053242   -0.000071215
   4   C   :    0.000028862   -0.000009438    0.000042061
   5   C   :   -0.000001877   -0.000029913   -0.000012603
   6   N   :    0.000013097    0.000030775    0.000006560
   7   C   :   -0.000011468   -0.000073163   -0.000021120
   8   N   :   -0.000047199    0.000073845    0.000001112
   9   C   :    0.000051769   -0.000013968   -0.000180390
  10   O   :    0.000010540   -0.000055375    0.000074835
  11   O   :   -0.000005157    0.000019996   -0.000023431
  12   H   :    0.000010553   -0.000000018   -0.000024868
  13   H   :   -0.000017708    0.000013168   -0.000003953
  14   H   :   -0.000001814   -0.000007722    0.000022393
  15   H   :   -0.000001784   -0.000006698    0.000031864
  16   H   :    0.000044922    0.000008750    0.000005739
  17   H   :   -0.000017908   -0.000021131   -0.000017730
  18   H   :   -0.000001056    0.000007530    0.000003671
  19   H   :    0.000051831   -0.000005021    0.000018036
  20   H   :   -0.000017785   -0.000024053    0.000054882

Difference to translation invariance:
           :    0.0000000000   -0.0000000000   -0.0000000000

Difference to rotation invariance:
           :    0.0002130342   -0.0002273876    0.0000585690

Norm of the Cartesian gradient     ...    0.0003467992
RMS gradient                       ...    0.0000447716
MAX gradient                       ...    0.0001803896
------------------------------------------------------------------------------
                         ORCA GEOMETRY RELAXATION STEP
------------------------------------------------------------------------------

Reading the OPT-File                    .... done
Getting information on internals        .... done
Copying old internal coords+grads       .... done
Making the new internal coordinates     .... (2022 redundants) done
Validating the new internal coordinates .... (2022 redundants) done
Calculating the B-matrix                .... done
Calculating the G,G- and P matrices     .... done
Transforming gradient to internals      .... done
Projecting the internal gradient        .... done
Number of atoms                         ....  20
Number of internal coordinates          ....  92
Current Energy                          ....   -34.364290818 Eh
Current gradient norm                   ....     0.000346799 Eh/bohr
Maximum allowed component of the step   ....  0.300
Current trust radius                    ....  0.700
Updating the Hessian (BFGS)             .... done
Forming the augmented Hessian           .... done
Diagonalizing the augmented Hessian     .... done
Last element of RFO vector              ....  0.999533423
Lowest eigenvalues of augmented Hessian:
 -0.000000854  0.000433197  0.002973289  0.007777315  0.016958937
Length of the computed step             ....  0.030558271
The final length of the internal step   ....  0.030558271
Converting the step to Cartesian space:
 Initial RMS(Int)=    0.0031859200
Transforming coordinates:
 Iter   0:  RMS(Cart)=    0.0089483086 RMS(Int)=    0.6550452746
done
Storing new coordinates                 .... done
The predicted energy change is          ....    -0.000000427
Previously predicted energy change      ....    -0.000000526
Actually observed energy change         ....    -0.000000752
Ratio of predicted to observed change   ....     1.431602882
New trust radius                        ....     0.700000000

                                .--------------------.
          ----------------------|Geometry convergence|-------------------------
          Item                value                   Tolerance       Converged
          ---------------------------------------------------------------------
          Energy change      -0.0000007524            0.0000050000      YES
          RMS gradient        0.0000295997            0.0001000000      YES
          MAX gradient        0.0001105207            0.0003000000      YES
          RMS step            0.0031859200            0.0020000000      NO
          MAX step            0.0122637502            0.0040000000      NO
          -------------------------------------------------------------------------
          ........................................................
          Max(Bonds)      0.0012      Max(Angles)    0.05
          Max(Dihed)        0.70      Max(Improp)    0.00
          ---------------------------------------------------------------------

The optimization has not yet converged - more geometry cycles are needed


    ---------------------------------------------------------------------------
                         Redundant Internal Coordinates
                            (Angstroem and degrees)

        Definition                    Value    dE/dq     Step     New-Value
    ----------------------------------------------------------------------------
     1. B(C   1,N   0)                1.4476  0.000081 -0.0001    1.4475   
     2. B(C   2,C   1)                1.5343  0.000014  0.0001    1.5343   
     3. B(C   3,C   2)                1.4912 -0.000002 -0.0000    1.4912   
     4. B(C   4,C   3)                1.3688 -0.000049  0.0000    1.3688   
     5. B(N   5,C   4)                1.3636  0.000012  0.0000    1.3637   
     6. B(C   6,N   5)                1.3053  0.000007 -0.0000    1.3053   
     7. B(N   7,C   3)                1.3703 -0.000002 -0.0000    1.3703   
     8. B(N   7,C   6)                1.3516 -0.000042  0.0000    1.3516   
     9. B(C   8,C   1)                1.5289 -0.000081  0.0000    1.5289   
    10. B(O   9,C   8)                1.2125 -0.000091  0.0001    1.2126   
    11. B(O  10,C   8)                1.3228  0.000038 -0.0001    1.3227   
    12. B(H  11,N   0)                1.0144 -0.000005  0.0001    1.0145   
    13. B(H  12,N   0)                1.0136  0.000015 -0.0000    1.0136   
    14. B(H  12,O  10)                2.4284 -0.000011  0.0012    2.4296   
    15. B(H  13,C   1)                1.1004 -0.000012  0.0000    1.1004   
    16. B(H  14,C   2)                1.0912  0.000000 -0.0001    1.0912   
    17. B(H  15,C   2)                1.0935 -0.000007  0.0000    1.0936   
    18. B(H  16,C   4)                1.0715 -0.000003 -0.0000    1.0715   
    19. B(H  17,C   6)                1.0706  0.000001 -0.0000    1.0706   
    20. B(H  18,N   7)                1.0073  0.000010 -0.0000    1.0073   
    21. B(H  19,O  10)                0.9772 -0.000005 -0.0000    0.9772   
    22. A(C   1,N   0,H  12)          110.13 -0.000006    0.00    110.13   
    23. A(H  11,N   0,H  12)          107.68  0.000015   -0.02    107.66   
    24. A(C   1,N   0,H  11)          110.04 -0.000027   -0.01    110.02   
    25. A(N   0,C   1,C   8)          115.97  0.000054   -0.01    115.96   
    26. A(C   8,C   1,H  13)          104.56 -0.000006   -0.01    104.56   
    27. A(N   0,C   1,H  13)          107.20 -0.000018    0.02    107.22   
    28. A(C   2,C   1,H  13)          107.57  0.000024   -0.03    107.54   
    29. A(C   2,C   1,C   8)          109.69 -0.000023    0.02    109.71   
    30. A(N   0,C   1,C   2)          111.28 -0.000029    0.00    111.28   
    31. A(C   3,C   2,H  15)          109.18 -0.000028    0.02    109.21   
    32. A(C   3,C   2,H  14)          109.53  0.000009   -0.01    109.52   
    33. A(C   1,C   2,H  14)          108.07  0.000004    0.01    108.08   
    34. A(H  14,C   2,H  15)          108.86  0.000015    0.00    108.86   
    35. A(C   1,C   2,C   3)          113.03 -0.000062    0.01    113.05   
    36. A(C   1,C   2,H  15)          108.07  0.000065   -0.04    108.04   
    37. A(C   4,C   3,N   7)          104.94  0.000005    0.00    104.94   
    38. A(C   2,C   3,N   7)          121.32  0.000056    0.00    121.32   
    39. A(C   2,C   3,C   4)          133.74 -0.000062   -0.01    133.73   
    40. A(N   5,C   4,H  16)          119.70  0.000028   -0.02    119.68   
    41. A(C   3,C   4,H  16)          129.74 -0.000035    0.02    129.76   
    42. A(C   3,C   4,N   5)          110.56  0.000007   -0.01    110.56   
    43. A(C   4,N   5,C   6)          105.39 -0.000020    0.00    105.40   
    44. A(N   5,C   6,H  17)          124.43 -0.000006   -0.00    124.43   
    45. A(N   5,C   6,N   7)          111.89  0.000009   -0.00    111.89   
    46. A(N   7,C   6,H  17)          123.68 -0.000002    0.00    123.68   
    47. A(C   3,N   7,H  18)          125.74  0.000046   -0.05    125.69   
    48. A(C   6,N   7,H  18)          127.05 -0.000045    0.05    127.10   
    49. A(C   3,N   7,C   6)          107.21 -0.000001   -0.00    107.21   
    50. A(O   9,C   8,O  10)          122.84  0.000023   -0.01    122.84   
    51. A(C   1,C   8,O  10)          113.33 -0.000062    0.02    113.35   
    52. A(C   1,C   8,O   9)          123.77  0.000039   -0.01    123.75   
    53. A(C   8,O  10,H  19)          112.83  0.000111   -0.02    112.82   
    54. D(C   2,C   1,N   0,H  11)     56.75 -0.000010    0.16     56.92   
    55. D(C   8,C   1,N   0,H  11)    -69.55  0.000002    0.15    -69.40   
    56. D(C   8,C   1,N   0,H  12)     49.01 -0.000000    0.12     49.12   
    57. D(H  13,C   1,N   0,H  11)    174.12 -0.000009    0.15    174.27   
    58. D(C   2,C   1,N   0,H  12)    175.31 -0.000013    0.13    175.44   
    59. D(C   3,C   2,C   1,N   0)    -65.93 -0.000004    0.30    -65.63   
    60. D(C   3,C   2,C   1,C   8)     63.76  0.000026    0.30     64.05   
    61. D(H  14,C   2,C   1,C   8)   -174.86  0.000001    0.30   -174.56   
    62. D(H  14,C   2,C   1,N   0)     55.46 -0.000029    0.30     55.76   
    63. D(H  14,C   2,C   1,H  13)    -61.68 -0.000005    0.28    -61.40   
    64. D(C   3,C   2,C   1,H  13)    176.93  0.000020    0.28    177.21   
    65. D(C   4,C   3,C   2,H  15)    109.31  0.000010   -0.69    108.62   
    66. D(C   4,C   3,C   2,H  14)   -131.57  0.000017   -0.68   -132.25   
    67. D(C   4,C   3,C   2,C   1)    -11.01 -0.000013   -0.67    -11.68   
    68. D(N   7,C   3,C   2,C   1)    170.11 -0.000007   -0.69    169.42   
    69. D(N   7,C   3,C   2,H  14)     49.55  0.000022   -0.70     48.85   
    70. D(H  16,C   4,C   3,N   7)    179.99 -0.000003    0.02    180.01   
    71. D(H  16,C   4,C   3,C   2)      0.99  0.000001   -0.00      0.99   
    72. D(N   5,C   4,C   3,N   7)      0.05  0.000000    0.00      0.06   
    73. D(N   5,C   4,C   3,C   2)   -178.95  0.000004   -0.01   -178.96   
    74. D(C   6,N   5,C   4,H  16)   -179.94 -0.000006    0.00   -179.93   
    75. D(C   6,N   5,C   4,C   3)      0.01 -0.000009    0.01      0.02   
    76. D(H  17,C   6,N   5,C   4)   -180.00  0.000001    0.01   -179.99   
    77. D(N   7,C   6,N   5,C   4)     -0.07  0.000014   -0.03     -0.10   
    78. D(C   3,N   7,C   6,H  17)   -179.96 -0.000001   -0.01   -179.97   
    79. D(C   3,N   7,C   6,N   5)      0.11 -0.000015    0.03      0.13   
    80. D(H  18,N   7,C   3,C   4)   -179.79 -0.000007    0.05   -179.74   
    81. D(H  18,N   7,C   3,C   2)     -0.64 -0.000012    0.07     -0.57   
    82. D(C   6,N   7,C   3,C   4)     -0.09  0.000008   -0.02     -0.11   
    83. D(H  18,N   7,C   6,N   5)    179.80  0.000001   -0.04    179.76   
    84. D(C   6,N   7,C   3,C   2)    179.06  0.000003   -0.01    179.06   
    85. D(H  18,N   7,C   6,H  17)     -0.27  0.000015   -0.08     -0.35   
    86. D(O  10,C   8,C   1,C   2)   -139.22  0.000006    0.07   -139.15   
    87. D(O  10,C   8,C   1,N   0)    -12.12 -0.000011    0.08    -12.04   
    88. D(O   9,C   8,C   1,H  13)    -71.66 -0.000015    0.10    -71.56   
    89. D(O   9,C   8,C   1,C   2)     43.44 -0.000001    0.07     43.52   
    90. D(O   9,C   8,C   1,N   0)    170.54 -0.000018    0.08    170.62   
    91. D(H  19,O  10,C   8,O   9)      1.20  0.000003    0.01      1.21   
    92. D(H  19,O  10,C   8,C   1)   -176.17 -0.000004    0.02   -176.15   
    ----------------------------------------------------------------------------

Geometry step timings:
Preparation and reading OPT file:      0.000 s ( 0.659 %)
Internal coordinates            :      0.000 s ( 0.824 %)
B/P matrices and projection     :      0.000 s (34.596 %)
Hessian update/contruction      :      0.000 s ( 9.555 %)
Making the step                 :      0.000 s (34.761 %)
Converting the step to Cartesian:      0.000 s ( 3.213 %)
Storing new data                :      0.000 s ( 1.483 %)
Checking convergence            :      0.000 s ( 1.400 %)
Final printing                  :      0.000 s (13.509 %)
Total time                      :      0.001 s

Time for energy+gradient        :      0.016 s
Time for complete geometry iter :      0.017 s

         *************************************************************
         *                GEOMETRY OPTIMIZATION CYCLE  23            *
         *************************************************************
---------------------------------
CARTESIAN COORDINATES (ANGSTROEM)
---------------------------------
  N    -1.336444   -1.596809    0.704028
  C    -1.374340   -0.718806   -0.446191
  C    -0.001457   -0.631501   -1.125712
  C     1.033889    0.015024   -0.269091
  C     0.986222    0.722838    0.901528
  N     2.236367    1.124496    1.269439
  C     3.033503    0.670973    0.340624
  N     2.359930   -0.009084   -0.613653
  C    -1.916424    0.688694   -0.196038
  O    -1.860821    1.586484   -1.009170
  O    -2.506841    0.821730    0.980103
  H    -0.630948   -1.279341    1.360254
  H    -2.229846   -1.583489    1.182624
  H    -2.075354   -1.160549   -1.170327
  H     0.315808   -1.644243   -1.379452
  H    -0.116236   -0.055400   -2.048138
  H     0.145048    0.978473    1.514074
  H     4.094314    0.814824    0.330175
  H     2.746345   -0.450343   -1.432598
  H    -2.902716    1.706030    1.107522

----------------------------
CARTESIAN COORDINATES (A.U.)
----------------------------
  NO LB    ZA    FRAG    MASS        X           Y           Z
   0 N   7.0000    0    14.007   -2.525513   -3.017531    1.330420
   1 C   6.0000    0    12.011   -2.597126   -1.358347   -0.843179
   2 C   6.0000    0    12.011   -0.002753   -1.193364   -2.127288
   3 C   6.0000    0    12.011    1.953767    0.028391   -0.508508
   4 C   6.0000    0    12.011    1.863690    1.365967    1.703642
   5 N   7.0000    0    14.007    4.226122    2.124989    2.398893
   6 C   6.0000    0    12.011    5.732490    1.267956    0.643687
   7 N   7.0000    0    14.007    4.459622   -0.017166   -1.159637
   8 C   6.0000    0    12.011   -3.621516    1.301442   -0.370459
   9 O   8.0000    0    15.999   -3.516441    2.998021   -1.907056
  10 O   8.0000    0    15.999   -4.737242    1.552844    1.852126
  11 H   1.0000    0     1.008   -1.192318   -2.417605    2.570508
  12 H   1.0000    0     1.008   -4.213799   -2.992361    2.234835
  13 H   1.0000    0     1.008   -3.921851   -2.193119   -2.211598
  14 H   1.0000    0     1.008    0.596790   -3.107169   -2.606787
  15 H   1.0000    0     1.008   -0.219655   -0.104691   -3.870420
  16 H   1.0000    0     1.008    0.274101    1.849046    2.861186
  17 H   1.0000    0     1.008    7.737132    1.539794    0.623941
  18 H   1.0000    0     1.008    5.189840   -0.851025   -2.707217
  19 H   1.0000    0     1.008   -5.485339    3.223929    2.092913

      -----------------------------------------------------------      
     |                   =====================                   |     
     |                           x T B                           |     
     |                   =====================                   |     
     |                         S. Grimme                         |     
     |          Mulliken Center for Theoretical Chemistry        |     
     |                    University of Bonn                     |     
      -----------------------------------------------------------      

   * xtb version 6.7.1 (edcfbbe) compiled by 'albert@albert-system' on 2024-07-22

   xtb is free software: you can redistribute it and/or modify it under
   the terms of the GNU Lesser General Public License as published by
   the Free Software Foundation, either version 3 of the License, or
   (at your option) any later version.
   
   xtb is distributed in the hope that it will be useful,
   but WITHOUT ANY WARRANTY; without even the implied warranty of
   MERCHANTABILITY or FITNESS FOR A PARTICULAR PURPOSE.  See the
   GNU Lesser General Public License for more details.
   
   Cite this work as:
   * C. Bannwarth, E. Caldeweyher, S. Ehlert, A. Hansen, P. Pracht,
     J. Seibert, S. Spicher, S. Grimme, WIREs Comput. Mol. Sci., 2020, 11,
     e01493. DOI: 10.1002/wcms.1493
   
   for GFN2-xTB:
   * C. Bannwarth, S. Ehlert and S. Grimme., J. Chem. Theory Comput., 2019,
     15, 1652-1671. DOI: 10.1021/acs.jctc.8b01176
   for GFN1-xTB:
   * S. Grimme, C. Bannwarth, P. Shushkov, J. Chem. Theory Comput., 2017,
     13, 1989-2009. DOI: 10.1021/acs.jctc.7b00118
   for GFN0-xTB:
   * P. Pracht, E. Caldeweyher, S. Ehlert, S. Grimme, ChemRxiv, 2019, preprint.
     DOI: 10.26434/chemrxiv.8326202.v1
   for GFN-FF:
   * S. Spicher and S. Grimme, Angew. Chem. Int. Ed., 2020, 59, 15665-15673.
     DOI: 10.1002/anie.202004239
   
   for ALPB and GBSA implicit solvation:
   * S. Ehlert, M. Stahn, S. Spicher, S. Grimme, J. Chem. Theory Comput.,
     2021, 17, 4250-4261. DOI: 10.1021/acs.jctc.1c00471
   
   for ddCOSMO and CPCM-X implicit solvation:
   * M. Stahn, S. Ehlert, S. Grimme, J. Phys. Chem. A,
     2023, XX, XXXX-XXXX. DOI: 10.1021/acs.jpca.3c04382
   
   for DFT-D4:
   * E. Caldeweyher, C. Bannwarth and S. Grimme, J. Chem. Phys., 2017,
     147, 034112. DOI: 10.1063/1.4993215
   * E. Caldeweyher, S. Ehlert, A. Hansen, H. Neugebauer, S. Spicher,
     C. Bannwarth and S. Grimme, J. Chem. Phys., 2019, 150, 154122.
     DOI: 10.1063/1.5090222
   * E. Caldeweyher, J.-M. Mewes, S. Ehlert and S. Grimme, Phys. Chem. Chem. Phys.
     2020, 22, 8499-8512. DOI: 10.1039/D0CP00502A
   
   for sTDA-xTB:
   * S. Grimme and C. Bannwarth, J. Chem. Phys., 2016, 145, 054103.
     DOI: 10.1063/1.4959605
   
   in the mass-spec context:
   * V. Asgeirsson, C. Bauer and S. Grimme, Chem. Sci., 2017, 8, 4879.
     DOI: 10.1039/c7sc00601b
   * J. Koopman and S. Grimme, ACS Omega 2019, 4, 12, 15120-15133.
     DOI: 10.1021/acsomega.9b02011
   
   for metadynamics refer to:
   * S. Grimme, J. Chem. Theory Comput., 2019, 155, 2847-2862
     DOI: 10.1021/acs.jctc.9b00143
   
   for SPH calculations refer to:
   * S. Spicher and S. Grimme, J. Chem. Theory Comput., 2021, 17, 1701-1714
     DOI: 10.1021/acs.jctc.0c01306
   
   for ONIOM refer to:
   * C. Plett, A. Katbashev, S. Ehlert, S. Grimme, M. Bursch,
     Phys. Chem. Chem. Phys., 2023, 25, 17860-17868. DOI: 10.1039/D3CP02178E
   
   for DIPRO refer to:
   * J. Kohn, N. Gildemeister, S. Grimme, D. Fazzi, A. Hansen,
     J. Chem. Phys., 2023, just accepted.
   
   for PTB refer to:
   * S. Grimme, M. Mueller, A. Hansen, J. Chem. Phys., 2023, 158, 124111.
     DOI: 10.1063/5.0137838
   
   with help from (in alphabetical order)
   P. Atkinson, C. Bannwarth, F. Bohle, G. Brandenburg, E. Caldeweyher
   M. Checinski, S. Dohm, S. Ehlert, S. Ehrlich, I. Gerasimov, C. Hölzer
   A. Katbashev, J. Kohn, J. Koopman, C. Lavigne, S. Lehtola, F. März, M. Müller,
   F. Musil, H. Neugebauer, J. Pisarek, C. Plett, P. Pracht, F. Pultar,
   J. Seibert, P. Shushkov, S. Spicher, M. Stahn, M. Steiner, T. Strunk,
   J. Stückrath, T. Rose, and J. Unsleber
   
 * started run on 2026/04/09 at 16:06:43.866     
   ID    Z sym.   atoms
    1    7 N      1, 6, 8
    2    6 C      2-5, 7, 9
    3    8 O      10, 11
    4    1 H      12-20

           -------------------------------------------------
          |                Calculation Setup                |
           -------------------------------------------------

          program call               : /home/analima/Programs/orca-6.1.0-f.0_linux_x86-64/bin/otool_xtb geo_opt_XTB.xyz --grad -c 0 -u 0 -P 1 --namespace geo_opt --input geo_opt_XTB.input.tmp --alpb WATER --acc 0.200000
          calculation namespace      : geo_opt
          coordinate file            : geo_opt_XTB.xyz
          omp threads                :                     1


           -------------------------------------------------
          |                 G F N 2 - x T B                 |
           -------------------------------------------------

        Reference                      10.1021/acs.jctc.8b01176
      * Hamiltonian:
        H0-scaling (s, p, d)           1.850000    2.230000    2.230000
        zeta-weighting                 0.500000
      * Dispersion:
        s8                             2.700000
        a1                             0.520000
        a2                             5.000000
        s9                             5.000000
      * Repulsion:
        kExp                           1.500000    1.000000
        rExp                           1.000000
      * Coulomb:
        alpha                          2.000000
        third order                    shell-resolved
        anisotropic                    true
        a3                             3.000000
        a5                             4.000000
        cn-shift                       1.200000
        cn-exp                         4.000000
        max-rad                        5.000000

      * Solvation model:               ALPB
        Solvent                        WATER
        Parameter file                 internal GFN2-xTB/ALPB
        Dielectric constant                8.0200E+01
        Reference state                gsolv [1 M gas/solution]
        Free energy shift                  1.0808E-03 Eh       6.7819E-01 kcal/mol
        Temperature                        2.9815E+02 K
        Density                            1.0000E+00 kg/L
        Solvent mass                       1.8000E+01 g/mol
        Interaction kernel             P16
        Born radius scaling (c1)           1.4744E+00
        Born radii integrator          GBOBC
        Born offset                        0.0000E+00 a0       0.0000E+00 AA
        H-bond correction              true
        Ion screening                  false
        Surface tension                    1.0000E-05 Eh       1.5569E+01 dyn/cm
        Grid points                               230 per atom
q/qsh data taken from xtbrestart
CAMM data taken from xtbrestart

          ...................................................
          :                      SETUP                      :
          :.................................................:
          :  # basis functions                  53          :
          :  # atomic orbitals                  53          :
          :  # shells                           31          :
          :  # electrons                        60          :
          :  max. iterations                   250          :
          :  Hamiltonian                  GFN2-xTB          :
          :  restarted?                       true          :
          :  GBSA solvation                   true          :
          :  PC potential                    false          :
          :  electronic temp.          300.0000000     K    :
          :  accuracy                    0.2000000          :
          :  -> integral cutoff          0.3198970E+02      :
          :  -> integral neglect         0.2000000E-08      :
          :  -> SCF convergence          0.2000000E-06 Eh   :
          :  -> wf. convergence          0.2000000E-04 e    :
          :  Broyden damping             0.4000000          :
          :  net charge                          0          :
          :  unpaired electrons                  0          :
          ...................................................

 iter      E             dE          RMSdq      gap      omega  full diag
   1    -34.7644806 -0.347645E+02  0.247E-02    3.51       0.0  T
   2    -34.7644807 -0.948184E-07  0.143E-02    3.51       1.6  T
   3    -34.7644807 -0.304977E-07  0.117E-03    3.51      19.1  T
   4    -34.7644807 -0.519342E-08  0.658E-04    3.51      34.0  T
   5    -34.7644807 -0.175031E-08  0.239E-04    3.51      93.5  T
   6    -34.7644807 -0.165279E-09  0.830E-05    3.51     269.5  T
   7    -34.7644807 -0.541220E-10  0.380E-05    3.51     588.5  T

   *** convergence criteria satisfied after 7 iterations ***

         #    Occupation            Energy/Eh            Energy/eV
      -------------------------------------------------------------
         1        2.0000           -0.7538935             -20.5145
       ...           ...                  ...                  ...
        24        2.0000           -0.4659849             -12.6801
        25        2.0000           -0.4524862             -12.3128
        26        2.0000           -0.4448678             -12.1055
        27        2.0000           -0.4281282             -11.6500
        28        2.0000           -0.3825055             -10.4085
        29        2.0000           -0.3806582             -10.3582
        30        2.0000           -0.3737461             -10.1701 (HOMO)
        31                         -0.2448743              -6.6634 (LUMO)
        32                         -0.1998254              -5.4375
        33                         -0.1663793              -4.5274
        34                          0.0196680               0.5352
        35                          0.0334483               0.9102
       ...                                ...                  ...
        53                          0.6277215              17.0812
      -------------------------------------------------------------
                  HL-Gap            0.1288718 Eh            3.5068 eV
             Fermi-level           -0.3093102 Eh           -8.4168 eV

 SCC (total)                   0 d,  0 h,  0 min,  0.008 sec
 SCC setup                      ...        0 min,  0.000 sec (  4.210%)
 Dispersion                     ...        0 min,  0.000 sec (  1.109%)
 classical contributions        ...        0 min,  0.000 sec (  0.225%)
 integral evaluation            ...        0 min,  0.001 sec ( 17.681%)
 iterations                     ...        0 min,  0.004 sec ( 46.088%)
 molecular gradient             ...        0 min,  0.003 sec ( 30.040%)
 printout                       ...        0 min,  0.000 sec (  0.466%)

         :::::::::::::::::::::::::::::::::::::::::::::::::::::
         ::                     SUMMARY                     ::
         :::::::::::::::::::::::::::::::::::::::::::::::::::::
         :: total energy             -34.364291366943 Eh    ::
         :: total w/o Gsasa/hb       -34.350040602038 Eh    ::
         :: gradient norm              0.000246289385 Eh/a0 ::
         :: HOMO-LUMO gap              3.506779230179 eV    ::
         ::.................................................::
         :: SCC energy               -34.764380348744 Eh    ::
         :: -> isotropic ES            0.095840041914 Eh    ::
         :: -> anisotropic ES          0.003455790073 Eh    ::
         :: -> anisotropic XC          0.015611712700 Eh    ::
         :: -> dispersion             -0.016861746399 Eh    ::
         :: -> Gsolv                  -0.030247364037 Eh    ::
         ::    -> Gelec               -0.015996599133 Eh    ::
         ::    -> Gsasa               -0.002453662621 Eh    ::
         ::    -> Ghb                 -0.012877861982 Eh    ::
         ::    -> Gshift               0.001080759698 Eh    ::
         :: repulsion energy           0.400088981801 Eh    ::
         :: add. restraining           0.000000000000 Eh    ::
         :: total charge              -0.000000000000 e     ::
         :::::::::::::::::::::::::::::::::::::::::::::::::::::


Property printout bound to 'properties.out'

           -------------------------------------------------
          | TOTAL ENERGY              -34.364291366943 Eh   |
          | GRADIENT NORM               0.000246289385 Eh/α |
          | HOMO-LUMO GAP               3.506779230179 eV   |
           -------------------------------------------------

------------------------------------------------------------------------
 * finished run on 2026/04/09 at 16:06:43.880     
------------------------------------------------------------------------
 total:
 * wall-time:     0 d,  0 h,  0 min,  0.014 sec
 *  cpu-time:     0 d,  0 h,  0 min,  0.012 sec
 * ratio c/w:     0.900 speedup
 SCF:
 * wall-time:     0 d,  0 h,  0 min,  0.008 sec
 *  cpu-time:     0 d,  0 h,  0 min,  0.007 sec
 * ratio c/w:     0.845 speedup


-------------------------   --------------------
FINAL SINGLE POINT ENERGY       -34.364291366940
-------------------------   --------------------


-------------
DIPOLE MOMENT
-------------
                                X             Y             Z
Total Dipole Moment    :     -0.22200      -1.00400      -0.65100
                        -----------------------------------------
Magnitude (a.u.)       :      1.21700
Magnitude (Debye)      :      3.09338


------------------
CARTESIAN GRADIENT
------------------

   1   N   :    0.000007594   -0.000067300   -0.000016869
   2   C   :   -0.000042554    0.000114280    0.000048474
   3   C   :   -0.000029097    0.000006895   -0.000052866
   4   C   :    0.000064635   -0.000002678   -0.000001675
   5   C   :   -0.000074443   -0.000035507   -0.000037213
   6   N   :    0.000045937    0.000007089    0.000013443
   7   C   :   -0.000036385   -0.000011896    0.000001841
   8   N   :    0.000033681    0.000038029    0.000032100
   9   C   :    0.000016260   -0.000072245   -0.000031616
  10   O   :    0.000007951   -0.000015089    0.000017136
  11   O   :    0.000004834    0.000021642   -0.000049975
  12   H   :    0.000003397    0.000017421   -0.000001653
  13   H   :   -0.000003881    0.000019637   -0.000000704
  14   H   :    0.000007516    0.000001783   -0.000004130
  15   H   :   -0.000003076   -0.000004108    0.000020024
  16   H   :    0.000018115    0.000008834    0.000009639
  17   H   :    0.000017456    0.000003308    0.000015005
  18   H   :   -0.000005113    0.000001982    0.000006976
  19   H   :   -0.000026673   -0.000006330   -0.000002896
  20   H   :   -0.000006156   -0.000025749    0.000034959

Difference to translation invariance:
           :   -0.0000000000   -0.0000000000    0.0000000000

Difference to rotation invariance:
           :    0.0002294564   -0.0002168964    0.0000600038

Norm of the Cartesian gradient     ...    0.0002462894
RMS gradient                       ...    0.0000317958
MAX gradient                       ...    0.0001142799
------------------------------------------------------------------------------
                         ORCA GEOMETRY RELAXATION STEP
------------------------------------------------------------------------------

Reading the OPT-File                    .... done
Getting information on internals        .... done
Copying old internal coords+grads       .... done
Making the new internal coordinates     .... (2022 redundants) done
Validating the new internal coordinates .... (2022 redundants) done
Calculating the B-matrix                .... done
Calculating the G,G- and P matrices     .... done
Transforming gradient to internals      .... done
Projecting the internal gradient        .... done
Number of atoms                         ....  20
Number of internal coordinates          ....  92
Current Energy                          ....   -34.364291367 Eh
Current gradient norm                   ....     0.000246289 Eh/bohr
Maximum allowed component of the step   ....  0.300
Current trust radius                    ....  0.700
Updating the Hessian (BFGS)             .... done
Forming the augmented Hessian           .... done
Diagonalizing the augmented Hessian     .... done
Last element of RFO vector              ....  0.999743139
Lowest eigenvalues of augmented Hessian:
 -0.000000269  0.000306297  0.002955927  0.008091856  0.016895928
Length of the computed step             ....  0.022669809
The final length of the internal step   ....  0.022669809
Converting the step to Cartesian space:
 Initial RMS(Int)=    0.0023634910
Transforming coordinates:
 Iter   0:  RMS(Cart)=    0.0066071148 RMS(Int)=    0.0023634566
done
Storing new coordinates                 .... done
The predicted energy change is          ....    -0.000000135
Previously predicted energy change      ....    -0.000000427
Actually observed energy change         ....    -0.000000549
Ratio of predicted to observed change   ....     1.285845096
New trust radius                        ....     0.700000000

                                .--------------------.
          ----------------------|Geometry convergence|-------------------------
          Item                value                   Tolerance       Converged
          ---------------------------------------------------------------------
          Energy change      -0.0000005493            0.0000050000      YES
          RMS gradient        0.0000166648            0.0001000000      YES
          MAX gradient        0.0000805348            0.0003000000      YES
          RMS step            0.0023634910            0.0020000000      NO
          MAX step            0.0092438432            0.0040000000      NO
          -------------------------------------------------------------------------
          ........................................................
          Max(Bonds)      0.0008      Max(Angles)    0.03
          Max(Dihed)        0.53      Max(Improp)    0.00
          ---------------------------------------------------------------------

       The gradient convergence is overachieved with 
       reasonable convergence on the displacements
       Convergence will therefore be signaled now


                    ***********************HURRAY********************
                    ***        THE OPTIMIZATION HAS CONVERGED     ***
                    *************************************************


    ---------------------------------------------------------------------------
                         Redundant Internal Coordinates

                          --- Optimized Parameters ---  
                            (Angstroem and degrees)

        Definition                    OldVal   dE/dq     Step     FinalVal
    ----------------------------------------------------------------------------
     1. B(C   1,N   0)                1.4475  0.000020 -0.0001    1.4475   
     2. B(C   2,C   1)                1.5343  0.000009  0.0000    1.5344   
     3. B(C   3,C   2)                1.4912  0.000015 -0.0000    1.4912   
     4. B(C   4,C   3)                1.3688 -0.000017  0.0000    1.3688   
     5. B(N   5,C   4)                1.3637  0.000034 -0.0000    1.3636   
     6. B(C   6,N   5)                1.3053 -0.000017  0.0000    1.3053   
     7. B(N   7,C   3)                1.3703 -0.000021  0.0000    1.3703   
     8. B(N   7,C   6)                1.3516 -0.000023  0.0000    1.3516   
     9. B(C   8,C   1)                1.5289 -0.000081  0.0001    1.5290   
    10. B(O   9,C   8)                1.2126 -0.000023  0.0000    1.2126   
    11. B(O  10,C   8)                1.3227 -0.000014 -0.0000    1.3227   
    12. B(H  11,N   0)                1.0145  0.000011  0.0000    1.0145   
    13. B(H  12,N   0)                1.0136  0.000004 -0.0000    1.0136   
    14. B(H  12,O  10)                2.4296 -0.000015  0.0008    2.4304   
    15. B(H  13,C   1)                1.1004 -0.000004 -0.0000    1.1004   
    16. B(H  14,C   2)                1.0912  0.000000 -0.0000    1.0911   
    17. B(H  15,C   2)                1.0936 -0.000008  0.0000    1.0936   
    18. B(H  16,C   4)                1.0715 -0.000006  0.0000    1.0715   
    19. B(H  17,C   6)                1.0706 -0.000004 -0.0000    1.0706   
    20. B(H  18,N   7)                1.0073 -0.000003  0.0000    1.0073   
    21. B(H  19,O  10)                0.9772 -0.000014  0.0000    0.9772   
    22. A(C   1,N   0,H  12)          110.13 -0.000002    0.01    110.14   
    23. A(H  11,N   0,H  12)          107.66  0.000000   -0.00    107.66   
    24. A(C   1,N   0,H  11)          110.02 -0.000030    0.00    110.02   
    25. A(N   0,C   1,C   8)          115.96  0.000028   -0.01    115.94   
    26. A(C   8,C   1,H  13)          104.56 -0.000005   -0.01    104.55   
    27. A(N   0,C   1,H  13)          107.22  0.000001    0.01    107.24   
    28. A(C   2,C   1,H  13)          107.54 -0.000004   -0.01    107.53   
    29. A(C   2,C   1,C   8)          109.71  0.000005    0.01    109.72   
    30. A(N   0,C   1,C   2)          111.28 -0.000026    0.01    111.29   
    31. A(C   3,C   2,H  15)          109.21 -0.000017    0.02    109.23   
    32. A(C   3,C   2,H  14)          109.52 -0.000002   -0.01    109.51   
    33. A(C   1,C   2,H  14)          108.08 -0.000008    0.02    108.09   
    34. A(H  14,C   2,H  15)          108.86  0.000014   -0.00    108.86   
    35. A(C   1,C   2,C   3)          113.05 -0.000006    0.00    113.05   
    36. A(C   1,C   2,H  15)          108.04  0.000020   -0.03    108.01   
    37. A(C   4,C   3,N   7)          104.94  0.000007    0.00    104.94   
    38. A(C   2,C   3,N   7)          121.32  0.000017    0.00    121.32   
    39. A(C   2,C   3,C   4)          133.73 -0.000024   -0.01    133.73   
    40. A(N   5,C   4,H  16)          119.68 -0.000018    0.00    119.68   
    41. A(C   3,C   4,H  16)          129.76  0.000028   -0.00    129.76   
    42. A(C   3,C   4,N   5)          110.56 -0.000011   -0.00    110.55   
    43. A(C   4,N   5,C   6)          105.40 -0.000010    0.00    105.40   
    44. A(N   5,C   6,H  17)          124.43 -0.000007   -0.00    124.43   
    45. A(N   5,C   6,N   7)          111.89  0.000009   -0.00    111.89   
    46. A(N   7,C   6,H  17)          123.68 -0.000002    0.00    123.68   
    47. A(C   3,N   7,H  18)          125.69 -0.000031   -0.01    125.67   
    48. A(C   6,N   7,H  18)          127.10  0.000026    0.01    127.11   
    49. A(C   3,N   7,C   6)          107.21  0.000005   -0.00    107.21   
    50. A(O   9,C   8,O  10)          122.84  0.000010   -0.00    122.83   
    51. A(C   1,C   8,O  10)          113.35 -0.000010    0.01    113.36   
    52. A(C   1,C   8,O   9)          123.76 -0.000000   -0.01    123.75   
    53. A(C   8,O  10,H  19)          112.82  0.000070   -0.02    112.80   
    54. D(C   2,C   1,N   0,H  11)     56.92  0.000015    0.08     57.00   
    55. D(C   8,C   1,N   0,H  11)    -69.40  0.000007    0.08    -69.32   
    56. D(C   8,C   1,N   0,H  12)     49.12 -0.000012    0.08     49.21   
    57. D(H  13,C   1,N   0,H  11)    174.27 -0.000004    0.08    174.35   
    58. D(C   2,C   1,N   0,H  12)    175.44 -0.000005    0.09    175.53   
    59. D(C   3,C   2,C   1,N   0)    -65.63 -0.000005    0.22    -65.41   
    60. D(C   3,C   2,C   1,C   8)     64.05  0.000016    0.22     64.27   
    61. D(H  14,C   2,C   1,C   8)   -174.56  0.000005    0.22   -174.34   
    62. D(H  14,C   2,C   1,N   0)     55.76 -0.000017    0.23     55.98   
    63. D(H  14,C   2,C   1,H  13)    -61.40 -0.000001    0.21    -61.19   
    64. D(C   3,C   2,C   1,H  13)    177.21  0.000010    0.21    177.42   
    65. D(C   4,C   3,C   2,H  15)    108.62  0.000005   -0.53    108.09   
    66. D(C   4,C   3,C   2,H  14)   -132.26  0.000011   -0.53   -132.78   
    67. D(C   4,C   3,C   2,C   1)    -11.68 -0.000004   -0.51    -12.19   
    68. D(N   7,C   3,C   2,C   1)    169.42 -0.000003   -0.51    168.92   
    69. D(N   7,C   3,C   2,H  14)     48.85  0.000012   -0.53     48.33   
    70. D(H  16,C   4,C   3,N   7)   -179.99  0.000001    0.01   -179.99   
    71. D(H  16,C   4,C   3,C   2)      0.99  0.000002    0.01      0.99   
    72. D(N   5,C   4,C   3,N   7)      0.06 -0.000002    0.01      0.06   
    73. D(N   5,C   4,C   3,C   2)   -178.96 -0.000000    0.01   -178.96   
    74. D(C   6,N   5,C   4,H  16)   -179.93 -0.000001   -0.00   -179.94   
    75. D(C   6,N   5,C   4,C   3)      0.02  0.000001   -0.00      0.02   
    76. D(H  17,C   6,N   5,C   4)   -179.99 -0.000001    0.01   -179.98   
    77. D(N   7,C   6,N   5,C   4)     -0.10 -0.000000   -0.00     -0.10   
    78. D(C   3,N   7,C   6,H  17)   -179.97  0.000000   -0.00   -179.97   
    79. D(C   3,N   7,C   6,N   5)      0.14 -0.000001    0.00      0.14   
    80. D(H  18,N   7,C   3,C   4)   -179.74 -0.000000    0.02   -179.73   
    81. D(H  18,N   7,C   3,C   2)     -0.57 -0.000002    0.02     -0.56   
    82. D(C   6,N   7,C   3,C   4)     -0.11  0.000001   -0.01     -0.12   
    83. D(H  18,N   7,C   6,N   5)    179.76  0.000001   -0.02    179.74   
    84. D(C   6,N   7,C   3,C   2)    179.06 -0.000000   -0.01    179.05   
    85. D(H  18,N   7,C   6,H  17)     -0.35  0.000002   -0.03     -0.37   
    86. D(O  10,C   8,C   1,C   2)   -139.15  0.000002    0.00   -139.15   
    87. D(O  10,C   8,C   1,N   0)    -12.04 -0.000006    0.01    -12.04   
    88. D(O   9,C   8,C   1,H  13)    -71.56  0.000002    0.02    -71.54   
    89. D(O   9,C   8,C   1,C   2)     43.52 -0.000003    0.01     43.53   
    90. D(O   9,C   8,C   1,N   0)    170.62 -0.000011    0.01    170.64   
    91. D(H  19,O  10,C   8,O   9)      1.21  0.000001    0.01      1.22   
    92. D(H  19,O  10,C   8,C   1)   -176.15 -0.000004    0.02   -176.13   
    ----------------------------------------------------------------------------

Geometry step timings:
Preparation and reading OPT file:      0.000 s ( 0.773 %)
Internal coordinates            :      0.000 s ( 0.944 %)
B/P matrices and projection     :      0.000 s (36.824 %)
Hessian update/contruction      :      0.000 s (11.073 %)
Making the step                 :      0.000 s (32.532 %)
Converting the step to Cartesian:      0.000 s ( 2.833 %)
Storing new data                :      0.000 s ( 0.944 %)
Checking convergence            :      0.000 s ( 1.373 %)
Final printing                  :      0.000 s (12.704 %)
Total time                      :      0.001 s
                 *******************************************************
                 *** FINAL ENERGY EVALUATION AT THE STATIONARY POINT ***
                 ***               (AFTER   23 CYCLES)               ***
                 *******************************************************
---------------------------------
CARTESIAN COORDINATES (ANGSTROEM)
---------------------------------
  N    -1.332294   -1.596311    0.704192
  C    -1.373756   -0.718686   -0.446095
  C    -0.001905   -0.627745   -1.127273
  C     1.034042    0.016987   -0.270104
  C     0.986406    0.728416    0.898345
  N     2.237246    1.126154    1.268054
  C     3.034812    0.666712    0.342519
  N     2.360808   -0.013511   -0.611370
  C    -1.919482    0.687401   -0.195292
  O    -1.867442    1.585257   -1.008643
  O    -2.508808    0.818983    0.981532
  H    -0.627885   -1.276074    1.360263
  H    -2.225618   -1.586430    1.183001
  H    -2.074340   -1.162232   -1.169542
  H     0.316220   -1.639173   -1.384977
  H    -0.119102   -0.048748   -2.047636
  H     0.144781    0.989155    1.508118
  H     4.096223    0.806210    0.334287
  H     2.747180   -0.458592   -1.428265
  H    -2.907087    1.702228    1.108886

----------------------------
CARTESIAN COORDINATES (A.U.)
----------------------------
  NO LB    ZA    FRAG    MASS        X           Y           Z
   0 N   7.0000    0    14.007   -2.517670   -3.016591    1.330730
   1 C   6.0000    0    12.011   -2.596023   -1.358119   -0.842997
   2 C   6.0000    0    12.011   -0.003599   -1.186267   -2.130238
   3 C   6.0000    0    12.011    1.954056    0.032101   -0.510423
   4 C   6.0000    0    12.011    1.864037    1.376506    1.697627
   5 N   7.0000    0    14.007    4.227783    2.128123    2.396274
   6 C   6.0000    0    12.011    5.734964    1.259903    0.647267
   7 N   7.0000    0    14.007    4.461280   -0.025532   -1.155322
   8 C   6.0000    0    12.011   -3.627295    1.298999   -0.369048
   9 O   8.0000    0    15.999   -3.528954    2.995702   -1.906058
  10 O   8.0000    0    15.999   -4.740960    1.547654    1.854827
  11 H   1.0000    0     1.008   -1.186530   -2.411431    2.570524
  12 H   1.0000    0     1.008   -4.205809   -2.997919    2.235547
  13 H   1.0000    0     1.008   -3.919935   -2.196300   -2.210114
  14 H   1.0000    0     1.008    0.597569   -3.097589   -2.617228
  15 H   1.0000    0     1.008   -0.225069   -0.092120   -3.869471
  16 H   1.0000    0     1.008    0.273596    1.869231    2.849930
  17 H   1.0000    0     1.008    7.740739    1.523517    0.631710
  18 H   1.0000    0     1.008    5.191419   -0.866613   -2.699030
  19 H   1.0000    0     1.008   -5.493599    3.216746    2.095490

      -----------------------------------------------------------      
     |                   =====================                   |     
     |                           x T B                           |     
     |                   =====================                   |     
     |                         S. Grimme                         |     
     |          Mulliken Center for Theoretical Chemistry        |     
     |                    University of Bonn                     |     
      -----------------------------------------------------------      

   * xtb version 6.7.1 (edcfbbe) compiled by 'albert@albert-system' on 2024-07-22

   xtb is free software: you can redistribute it and/or modify it under
   the terms of the GNU Lesser General Public License as published by
   the Free Software Foundation, either version 3 of the License, or
   (at your option) any later version.
   
   xtb is distributed in the hope that it will be useful,
   but WITHOUT ANY WARRANTY; without even the implied warranty of
   MERCHANTABILITY or FITNESS FOR A PARTICULAR PURPOSE.  See the
   GNU Lesser General Public License for more details.
   
   Cite this work as:
   * C. Bannwarth, E. Caldeweyher, S. Ehlert, A. Hansen, P. Pracht,
     J. Seibert, S. Spicher, S. Grimme, WIREs Comput. Mol. Sci., 2020, 11,
     e01493. DOI: 10.1002/wcms.1493
   
   for GFN2-xTB:
   * C. Bannwarth, S. Ehlert and S. Grimme., J. Chem. Theory Comput., 2019,
     15, 1652-1671. DOI: 10.1021/acs.jctc.8b01176
   for GFN1-xTB:
   * S. Grimme, C. Bannwarth, P. Shushkov, J. Chem. Theory Comput., 2017,
     13, 1989-2009. DOI: 10.1021/acs.jctc.7b00118
   for GFN0-xTB:
   * P. Pracht, E. Caldeweyher, S. Ehlert, S. Grimme, ChemRxiv, 2019, preprint.
     DOI: 10.26434/chemrxiv.8326202.v1
   for GFN-FF:
   * S. Spicher and S. Grimme, Angew. Chem. Int. Ed., 2020, 59, 15665-15673.
     DOI: 10.1002/anie.202004239
   
   for ALPB and GBSA implicit solvation:
   * S. Ehlert, M. Stahn, S. Spicher, S. Grimme, J. Chem. Theory Comput.,
     2021, 17, 4250-4261. DOI: 10.1021/acs.jctc.1c00471
   
   for ddCOSMO and CPCM-X implicit solvation:
   * M. Stahn, S. Ehlert, S. Grimme, J. Phys. Chem. A,
     2023, XX, XXXX-XXXX. DOI: 10.1021/acs.jpca.3c04382
   
   for DFT-D4:
   * E. Caldeweyher, C. Bannwarth and S. Grimme, J. Chem. Phys., 2017,
     147, 034112. DOI: 10.1063/1.4993215
   * E. Caldeweyher, S. Ehlert, A. Hansen, H. Neugebauer, S. Spicher,
     C. Bannwarth and S. Grimme, J. Chem. Phys., 2019, 150, 154122.
     DOI: 10.1063/1.5090222
   * E. Caldeweyher, J.-M. Mewes, S. Ehlert and S. Grimme, Phys. Chem. Chem. Phys.
     2020, 22, 8499-8512. DOI: 10.1039/D0CP00502A
   
   for sTDA-xTB:
   * S. Grimme and C. Bannwarth, J. Chem. Phys., 2016, 145, 054103.
     DOI: 10.1063/1.4959605
   
   in the mass-spec context:
   * V. Asgeirsson, C. Bauer and S. Grimme, Chem. Sci., 2017, 8, 4879.
     DOI: 10.1039/c7sc00601b
   * J. Koopman and S. Grimme, ACS Omega 2019, 4, 12, 15120-15133.
     DOI: 10.1021/acsomega.9b02011
   
   for metadynamics refer to:
   * S. Grimme, J. Chem. Theory Comput., 2019, 155, 2847-2862
     DOI: 10.1021/acs.jctc.9b00143
   
   for SPH calculations refer to:
   * S. Spicher and S. Grimme, J. Chem. Theory Comput., 2021, 17, 1701-1714
     DOI: 10.1021/acs.jctc.0c01306
   
   for ONIOM refer to:
   * C. Plett, A. Katbashev, S. Ehlert, S. Grimme, M. Bursch,
     Phys. Chem. Chem. Phys., 2023, 25, 17860-17868. DOI: 10.1039/D3CP02178E
   
   for DIPRO refer to:
   * J. Kohn, N. Gildemeister, S. Grimme, D. Fazzi, A. Hansen,
     J. Chem. Phys., 2023, just accepted.
   
   for PTB refer to:
   * S. Grimme, M. Mueller, A. Hansen, J. Chem. Phys., 2023, 158, 124111.
     DOI: 10.1063/5.0137838
   
   with help from (in alphabetical order)
   P. Atkinson, C. Bannwarth, F. Bohle, G. Brandenburg, E. Caldeweyher
   M. Checinski, S. Dohm, S. Ehlert, S. Ehrlich, I. Gerasimov, C. Hölzer
   A. Katbashev, J. Kohn, J. Koopman, C. Lavigne, S. Lehtola, F. März, M. Müller,
   F. Musil, H. Neugebauer, J. Pisarek, C. Plett, P. Pracht, F. Pultar,
   J. Seibert, P. Shushkov, S. Spicher, M. Stahn, M. Steiner, T. Strunk,
   J. Stückrath, T. Rose, and J. Unsleber
   
 * started run on 2026/04/09 at 16:06:43.886     
   ID    Z sym.   atoms
    1    7 N      1, 6, 8
    2    6 C      2-5, 7, 9
    3    8 O      10, 11
    4    1 H      12-20

           -------------------------------------------------
          |                Calculation Setup                |
           -------------------------------------------------

          program call               : /home/analima/Programs/orca-6.1.0-f.0_linux_x86-64/bin/otool_xtb geo_opt_XTB.xyz --grad -c 0 -u 0 -P 1 --namespace geo_opt --input geo_opt_XTB.input.tmp --alpb WATER --acc 0.200000
          calculation namespace      : geo_opt
          coordinate file            : geo_opt_XTB.xyz
          omp threads                :                     1


           -------------------------------------------------
          |                 G F N 2 - x T B                 |
           -------------------------------------------------

        Reference                      10.1021/acs.jctc.8b01176
      * Hamiltonian:
        H0-scaling (s, p, d)           1.850000    2.230000    2.230000
        zeta-weighting                 0.500000
      * Dispersion:
        s8                             2.700000
        a1                             0.520000
        a2                             5.000000
        s9                             5.000000
      * Repulsion:
        kExp                           1.500000    1.000000
        rExp                           1.000000
      * Coulomb:
        alpha                          2.000000
        third order                    shell-resolved
        anisotropic                    true
        a3                             3.000000
        a5                             4.000000
        cn-shift                       1.200000
        cn-exp                         4.000000
        max-rad                        5.000000

      * Solvation model:               ALPB
        Solvent                        WATER
        Parameter file                 internal GFN2-xTB/ALPB
        Dielectric constant                8.0200E+01
        Reference state                gsolv [1 M gas/solution]
        Free energy shift                  1.0808E-03 Eh       6.7819E-01 kcal/mol
        Temperature                        2.9815E+02 K
        Density                            1.0000E+00 kg/L
        Solvent mass                       1.8000E+01 g/mol
        Interaction kernel             P16
        Born radius scaling (c1)           1.4744E+00
        Born radii integrator          GBOBC
        Born offset                        0.0000E+00 a0       0.0000E+00 AA
        H-bond correction              true
        Ion screening                  false
        Surface tension                    1.0000E-05 Eh       1.5569E+01 dyn/cm
        Grid points                               230 per atom
q/qsh data taken from xtbrestart
CAMM data taken from xtbrestart

          ...................................................
          :                      SETUP                      :
          :.................................................:
          :  # basis functions                  53          :
          :  # atomic orbitals                  53          :
          :  # shells                           31          :
          :  # electrons                        60          :
          :  max. iterations                   250          :
          :  Hamiltonian                  GFN2-xTB          :
          :  restarted?                       true          :
          :  GBSA solvation                   true          :
          :  PC potential                    false          :
          :  electronic temp.          300.0000000     K    :
          :  accuracy                    0.2000000          :
          :  -> integral cutoff          0.3198970E+02      :
          :  -> integral neglect         0.2000000E-08      :
          :  -> SCF convergence          0.2000000E-06 Eh   :
          :  -> wf. convergence          0.2000000E-04 e    :
          :  Broyden damping             0.4000000          :
          :  net charge                          0          :
          :  unpaired electrons                  0          :
          ...................................................

 iter      E             dE          RMSdq      gap      omega  full diag
   1    -34.7644632 -0.347645E+02  0.181E-02    3.51       0.0  T
   2    -34.7644632 -0.468388E-07  0.105E-02    3.51       2.1  T
   3    -34.7644632 -0.167857E-07  0.803E-04    3.51      27.8  T
   4    -34.7644632 -0.197440E-08  0.450E-04    3.51      49.7  T
   5    -34.7644632 -0.509480E-09  0.149E-04    3.51     149.7  T
   6    -34.7644632 -0.162977E-09  0.513E-05    3.51     435.5  T

   *** convergence criteria satisfied after 6 iterations ***

         #    Occupation            Energy/Eh            Energy/eV
      -------------------------------------------------------------
         1        2.0000           -0.7539175             -20.5151
       ...           ...                  ...                  ...
        24        2.0000           -0.4659829             -12.6800
        25        2.0000           -0.4524896             -12.3129
        26        2.0000           -0.4448920             -12.1061
        27        2.0000           -0.4281327             -11.6501
        28        2.0000           -0.3825218             -10.4089
        29        2.0000           -0.3806463             -10.3579
        30        2.0000           -0.3737378             -10.1699 (HOMO)
        31                         -0.2448988              -6.6640 (LUMO)
        32                         -0.1998288              -5.4376
        33                         -0.1663905              -4.5277
        34                          0.0196960               0.5360
        35                          0.0334718               0.9108
       ...                                ...                  ...
        53                          0.6276552              17.0794
      -------------------------------------------------------------
                  HL-Gap            0.1288390 Eh            3.5059 eV
             Fermi-level           -0.3093183 Eh           -8.4170 eV

 SCC (total)                   0 d,  0 h,  0 min,  0.009 sec
 SCC setup                      ...        0 min,  0.000 sec (  2.858%)
 Dispersion                     ...        0 min,  0.000 sec (  0.632%)
 classical contributions        ...        0 min,  0.000 sec (  0.137%)
 integral evaluation            ...        0 min,  0.001 sec ( 10.570%)
 iterations                     ...        0 min,  0.005 sec ( 54.674%)
 molecular gradient             ...        0 min,  0.003 sec ( 30.513%)
 printout                       ...        0 min,  0.000 sec (  0.495%)

         :::::::::::::::::::::::::::::::::::::::::::::::::::::
         ::                     SUMMARY                     ::
         :::::::::::::::::::::::::::::::::::::::::::::::::::::
         :: total energy             -34.364291557265 Eh    ::
         :: total w/o Gsasa/hb       -34.350046128443 Eh    ::
         :: gradient norm              0.000185735956 Eh/a0 ::
         :: HOMO-LUMO gap              3.505888702131 eV    ::
         ::.................................................::
         :: SCC energy               -34.764363000259 Eh    ::
         :: -> isotropic ES            0.095835063574 Eh    ::
         :: -> anisotropic ES          0.003463807342 Eh    ::
         :: -> anisotropic XC          0.015612458625 Eh    ::
         :: -> dispersion             -0.016859503652 Eh    ::
         :: -> Gsolv                  -0.030244522991 Eh    ::
         ::    -> Gelec               -0.015999094168 Eh    ::
         ::    -> Gsasa               -0.002452745934 Eh    ::
         ::    -> Ghb                 -0.012873442587 Eh    ::
         ::    -> Gshift               0.001080759698 Eh    ::
         :: repulsion energy           0.400071442994 Eh    ::
         :: add. restraining           0.000000000000 Eh    ::
         :: total charge              -0.000000000000 e     ::
         :::::::::::::::::::::::::::::::::::::::::::::::::::::


Property printout bound to 'properties.out'

           -------------------------------------------------
          | TOTAL ENERGY              -34.364291557265 Eh   |
          | GRADIENT NORM               0.000185735956 Eh/α |
          | HOMO-LUMO GAP               3.505888702131 eV   |
           -------------------------------------------------

------------------------------------------------------------------------
 * finished run on 2026/04/09 at 16:06:43.900     
------------------------------------------------------------------------
 total:
 * wall-time:     0 d,  0 h,  0 min,  0.013 sec
 *  cpu-time:     0 d,  0 h,  0 min,  0.012 sec
 * ratio c/w:     0.896 speedup
 SCF:
 * wall-time:     0 d,  0 h,  0 min,  0.009 sec
 *  cpu-time:     0 d,  0 h,  0 min,  0.007 sec
 * ratio c/w:     0.851 speedup


-------------------------   --------------------
FINAL SINGLE POINT ENERGY       -34.364291557270
-------------------------   --------------------


-------------
DIPOLE MOMENT
-------------
                                X             Y             Z
Total Dipole Moment    :     -0.22200      -1.01000      -0.64800
                        -----------------------------------------
Magnitude (a.u.)       :      1.22036
Magnitude (Debye)      :      3.10192

                                *** OPTIMIZATION RUN DONE ***


--------------------------------
SUGGESTED CITATIONS FOR THIS RUN
--------------------------------

Below you find a list of papers that are relevant to this ORCA run
We neither can nor want to force you to cite these papers, but we appreciate if you do
You receive ORCA, which is the product of decades of hard work by many enthusiastic individuals, for free
The only thing we kindly ask in return is that you cite our papers,
We deeply appreciate it, if you show your appreciation for ORCA by not just citing the generic ORCA reference.

Please note that relegating all ORCA citations to the supporting information does *not* help us.
SI sections are not indexed - citations you put there will not count into any citation statistics
But we need these citations in order to attract the funding resources that allow us to do what we are doing

Therefore, if you are a happy ORCA user, please consider citing a few of the papers listed below in the main body of your paper

In addition to the list printed below, the program has created the file geo_opt.bibtex that contains the list in bibtex format
You can import this file easily into all common literature databanks and citation aid programs


List of essential papers. We consider these as the minimum necessary citations

  1. Bannwarth, C.; Ehlert, S.; Grimme, S.
     GFN2-xTB—An Accurate and Broadly Parametrized Self-Consistent Tight-Binding Quantum Chemical Method with Multipole Electrostatics and Density-Dependent Dispersion Contributions
     J. Chem. Theory Comput. 2019 15(3), 1652-1671
     doi.org/10.1021/acs.jctc.8b01176
  2. Neese, F.
     Software update: the ORCA program system, version 6.0
     WIRES Comput. Molec. Sci. 2025 15(1), e70019
     doi.org/10.1002/wcms.7019

List of papers to cite with high priority. The work reported in these papers was absolutely
necessary for this run to complete.
Our perspective: the developers of density functionals and basis sets usually get cited in chemistry papers
Good! But without the algorithms to do something with them, the functionals or basis sets would not do anything.
Hence, in our opinion, the algorithm design and method developments papers are equally worthy of getting cited

  1. Bannwarth, C.; Caldeweyher, E.; Ehlert, S.; Hansen, A.; Pracht, P.; Seibert, J.; Spicher, S.; Grimme, S.
     Extended tight-binding quantum chemistry methods
     WIRES Comput. Molec. Sci. 2020 11(2), e1493
     doi.org/10.1002/wcms.1493

List of suggested additional citations. These are papers that are important in the 'surrounding' of 
of this run, or papers that preceded the highly important papers. If you like your results we are grateful for a citation.

  1. Neese, F.
     The ORCA program system
     WIRES Comput. Molec. Sci. 2012 2(1), 73-78
     doi.org/10.1002/wcms.81
  2. Neese, F.
     Software update: the ORCA program system, version 4.0
     WIRES Comput. Molec. Sci. 2018 8(1), 1-6
     doi.org/10.1002/wcms.1327
  3. Neese, F.; Wennmohs, F.; Becker, U.; Riplinger, C.
     The ORCA quantum chemistry program package
     J. Chem. Phys. 2020 152(22), 224108
     doi.org/10.1063/5.0004608
  4. Neese, F.
     Software update: The ORCA program system—Version 5.0
     WIRES Comput. Molec. Sci. 2022 12(1), e1606
     doi.org/10.1002/wcms.1606

List of optional additional citations

  1. Neese, F.
     Approximate second-order SCF convergence for spin unrestricted wavefunctions
     Chem. Phys. Lett. 2000 325(1-3), 93-98
     doi.org/10.1016/s0009-2614(00)00662-x

Timings for individual modules:

Sum of individual times          ...        0.465 sec (=   0.008 min)
Geometry relaxation              ...        0.034 sec (=   0.001 min)   7.3 %
XTB module                       ...        0.431 sec (=   0.007 min)  92.7 %
                             ****ORCA TERMINATED NORMALLY****
TOTAL RUN TIME: 0 days 0 hours 0 minutes 0 seconds 531 msec
