24
Coordinates from ORCA-job geo_opt E -43.532373446190
  N          -2.98939520124989     -0.16057019626461      0.82866339275765
  C          -1.75877731325583      0.54648064191701      1.24503386048520
  C          -0.89085055201208      1.09456875559166      0.11721340522863
  O          -0.20607066991737      2.08909039500678      0.29490017287982
  N          -0.95060628338286      0.43862841568585     -1.06288072478673
  C           0.00699320438367      0.75569853321129     -2.10070088422366
  C           1.44860382328789      0.39245517512685     -1.71696108972877
  O           2.40649249352260      0.99448867815365     -2.18983046341919
  N           1.55109976672322     -0.65505449801556     -0.88855697822100
  C           2.68303896333962     -0.91742799560720     -0.04018729350897
  C           2.12532612380709     -1.13606766346092      1.41080655411359
  O           2.94686795002272     -1.25806255812207      2.32785460382360
  O           0.87943081289621     -1.17452813794111      1.50095336681177
  H          -2.77746137845019     -1.08563075923660      0.43852232994009
  H          -3.58416081252054     -0.30379680487884      1.65566182549806
  H          -3.51468869309425      0.39352676306545      0.13948011896744
  H          -2.00113594450998      1.39291334067937      1.88757332597382
  H          -1.09675543836818     -0.12255335643721      1.80730094267978
  H          -1.33624072356191     -0.49346066805177     -1.10162270293934
  H           0.00244220470641      1.83269149453907     -2.28521392077206
  H          -0.26186598039918      0.23606420082259     -3.01970997542706
  H           0.71655914311386     -0.95839168458948     -0.37651533245869
  H           3.38341558241774     -0.07929429777700     -0.04057351626267
  H           3.21773892250124     -1.82176775341720     -0.34474173741130
