24
Coordinates from ORCA-job geo_opt E -43.453150172670
  N      -3.385507     -0.124773      0.229311
  C      -2.444699      0.473270      1.152362
  C      -1.181134      0.831615      0.431643
  O      -0.282523      1.363143      1.138174
  N      -1.017014      0.581593     -0.968727
  C       0.198616      0.915359     -1.667430
  C       1.360956      0.177162     -1.167762
  O       2.492142      0.426546     -1.692912
  N       1.344450     -0.801451     -0.144946
  C       2.598731     -1.419110      0.214531
  C       3.605685     -0.443973      0.699995
  O       4.764165     -0.839119      1.055465
  O       3.346975      0.922502      0.791702
  H      -2.940814     -0.986367     -0.155134
  H      -4.248766     -0.374410      0.780815
  H      -3.626438      0.517362     -0.541789
  H      -2.895658      1.364216      1.633002
  H      -2.178938     -0.210865      1.968930
  H      -1.847797      0.134726     -1.459269
  H       0.419714      2.003349     -1.618828
  H       0.010045      0.714846     -2.761900
  H       0.453896     -1.071216      0.321207
  H       3.058763     -1.917467     -0.687624
  H       2.395149     -2.236937      0.935653
24
Coordinates from ORCA-job geo_opt E -43.493877410430
  N      -3.447072     -0.148103      0.232103
  C      -2.469591      0.496353      1.125916
  C      -1.180720      0.856296      0.427480
  O      -0.296791      1.405817      1.097761
  N      -1.023507      0.580797     -0.914623
  C       0.185152      0.900717     -1.636693
  C       1.401121      0.182190     -1.182598
  O       2.484242      0.432866     -1.750774
  N       1.395821     -0.770732     -0.193088
  C       2.637701     -1.397802      0.182012
  C       3.664590     -0.456310      0.733975
  O       4.782448     -0.903060      1.095102
  O       3.410598      0.825081      0.881718
  H      -3.035087     -1.023785     -0.128956
  H      -4.294789     -0.371697      0.789547
  H      -3.704182      0.463370     -0.553783
  H      -2.907447      1.400270      1.570994
  H      -2.205732     -0.154369      1.965489
  H      -1.822525      0.139426     -1.383107
  H       0.396661      1.982356     -1.602423
  H      -0.014101      0.680268     -2.704107
  H       0.527436     -1.033195      0.262546
  H       3.099063     -1.874051     -0.711528
  H       2.416712     -2.212702      0.883506
24
Coordinates from ORCA-job geo_opt E -43.509723720830
  N      -3.477447     -0.175809      0.235114
  C      -2.483237      0.504655      1.103935
  C      -1.167917      0.880066      0.437188
  O      -0.308410      1.447715      1.092586
  N      -1.019428      0.580732     -0.858872
  C       0.176298      0.894412     -1.610026
  C       1.450347      0.195315     -1.209127
  O       2.485926      0.458371     -1.819440
  N       1.430949     -0.729454     -0.245555
  C       2.646211     -1.384840      0.163647
  C       3.698017     -0.458078      0.766999
  O       4.775663     -0.975082      1.129669
  O       3.443490      0.740366      0.885565
  H      -3.093856     -1.064758     -0.107994
  H      -4.315970     -0.379865      0.793617
  H      -3.747730      0.415686     -0.559948
  H      -2.915804      1.418137      1.515832
  H      -2.226696     -0.123273      1.959385
  H      -1.789313      0.135667     -1.324858
  H       0.379707      1.970984     -1.578309
  H      -0.025628      0.654554     -2.656510
  H       0.569473     -0.964853      0.211774
  H       3.114133     -1.862528     -0.709149
  H       2.401219     -2.178122      0.870948
24
Coordinates from ORCA-job geo_opt E -43.514049191130
  N      -3.467390     -0.191871      0.287990
  C      -2.478746      0.552557      1.108970
  C      -1.157825      0.929169      0.436036
  O      -0.328468      1.566449      1.066996
  N      -0.999487      0.557563     -0.844968
  C       0.172368      0.886373     -1.628411
  C       1.484469      0.203971     -1.274781
  O       2.481940      0.468373     -1.943907
  N       1.464122     -0.762143     -0.354486
  C       2.678181     -1.400636      0.088512
  C       3.636876     -0.469417      0.871837
  O       4.705746     -1.000114      1.251579
  O       3.246678      0.672181      1.159455
  H      -3.085346     -1.096889     -0.011565
  H      -4.300114     -0.375317      0.861669
  H      -3.758092      0.355144     -0.531980
  H      -2.921895      1.482674      1.466950
  H      -2.215328     -0.023254      1.998093
  H      -1.749638      0.070866     -1.307881
  H       0.365817      1.963492     -1.589376
  H      -0.040098      0.640332     -2.669308
  H       0.604745     -1.001401      0.108071
  H       3.234349     -1.773222     -0.779882
  H       2.427136     -2.254878      0.716858
24
Coordinates from ORCA-job geo_opt E -43.514184257690
  N      -3.462577     -0.223637      0.314779
  C      -2.496281      0.582318      1.101114
  C      -1.168060      0.988123      0.440205
  O      -0.389422      1.696874      1.056701
  N      -0.971172      0.544502     -0.815824
  C       0.185767      0.895385     -1.609773
  C       1.522836      0.194739     -1.313188
  O       2.504037      0.493601     -1.988880
  N       1.478543     -0.796829     -0.424808
  C       2.673637     -1.442708      0.059165
  C       3.565183     -0.513981      0.972616
  O       4.686052     -1.010020      1.224380
  O       3.175923      0.659037      1.145253
  H      -3.075270     -1.136689      0.050149
  H      -4.293384     -0.400442      0.893974
  H      -3.774100      0.286425     -0.521686
  H      -2.960915      1.519577      1.408621
  H      -2.228333      0.052548      2.017144
  H      -1.678712      0.009669     -1.295099
  H       0.390117      1.966615     -1.520603
  H      -0.023372      0.680525     -2.656304
  H       0.630885     -0.970354      0.087885
  H       3.293650     -1.753436     -0.784291
  H       2.414969     -2.321845      0.644940
24
Coordinates from ORCA-job geo_opt E -43.518043325230
  N      -3.435604     -0.244554      0.326248
  C      -2.486319      0.586921      1.098635
  C      -1.176323      1.017383      0.421221
  O      -0.414691      1.754339      1.023743
  N      -0.964873      0.548825     -0.823047
  C       0.187477      0.909676     -1.614668
  C       1.514719      0.180491     -1.334997
  O       2.507554      0.493703     -1.986270
  N       1.463390     -0.805182     -0.437915
  C       2.656973     -1.456055      0.040112
  C       3.565465     -0.508001      0.921504
  O       4.646674     -1.027091      1.265809
  O       3.122428      0.621611      1.188818
  H      -3.029931     -1.150972      0.063490
  H      -4.258946     -0.436263      0.914473
  H      -3.765668      0.253734     -0.510394
  H      -2.969552      1.518096      1.400561
  H      -2.196871      0.069915      2.015898
  H      -1.652079     -0.013719     -1.301256
  H       0.407876      1.975474     -1.493429
  H      -0.024020      0.724525     -2.668575
  H       0.637920     -0.912289      0.130268
  H       3.267079     -1.781248     -0.804341
  H       2.397324     -2.319321      0.650581
24
Coordinates from ORCA-job geo_opt E -43.519694835480
  N      -3.380953     -0.301022      0.352496
  C      -2.508090      0.636107      1.084814
  C      -1.223050      1.100752      0.390379
  O      -0.529509      1.939639      0.941182
  N      -0.953976      0.563757     -0.814861
  C       0.195759      0.945518     -1.596433
  C       1.516217      0.213242     -1.303341
  O       2.505211      0.492694     -1.975641
  N       1.448651     -0.811044     -0.444310
  C       2.641149     -1.487853     -0.001622
  C       3.550477     -0.577612      0.914511
  O       4.628280     -1.099821      1.254609
  O       3.090113      0.523760      1.252404
  H      -2.907917     -1.191992      0.154190
  H      -4.202402     -0.510765      0.939854
  H      -3.724353      0.120182     -0.520444
  H      -3.056539      1.552111      1.318530
  H      -2.197479      0.199672      2.036593
  H      -1.585903     -0.078743     -1.270382
  H       0.411823      2.010349     -1.457191
  H      -0.007642      0.772859     -2.656243
  H       0.656624     -0.863599      0.179839
  H       3.251807     -1.769749     -0.862209
  H       2.381701     -2.378442      0.569745
24
Coordinates from ORCA-job geo_opt E -43.521703636860
  N      -3.304947     -0.345963      0.392318
  C      -2.496839      0.674293      1.080096
  C      -1.251719      1.178442      0.348802
  O      -0.619112      2.101604      0.837856
  N      -0.927163      0.577820     -0.809966
  C       0.218726      0.982461     -1.581070
  C       1.506568      0.181798     -1.332917
  O       2.502980      0.436526     -2.003387
  N       1.406232     -0.872058     -0.503938
  C       2.607634     -1.525118     -0.051449
  C       3.438243     -0.612654      0.934878
  O       4.533226     -1.073612      1.298458
  O       2.893472      0.440343      1.306573
  H      -2.773906     -1.211310      0.231188
  H      -4.111685     -0.582631      0.990384
  H      -3.672383      0.012460     -0.498754
  H      -3.099923      1.565322      1.274298
  H      -2.150627      0.303763      2.047329
  H      -1.486298     -0.150032     -1.230329
  H       0.469643      2.026194     -1.365476
  H       0.006346      0.890525     -2.649147
  H       0.684093     -0.814091      0.201941
  H       3.260722     -1.733345     -0.900914
  H       2.366717     -2.450737      0.469694
24
Coordinates from ORCA-job geo_opt E -43.522894591640
  N      -3.268778     -0.374852      0.415399
  C      -2.516172      0.712299      1.067850
  C      -1.284636      1.232321      0.326653
  O      -0.719968      2.230116      0.750646
  N      -0.903951      0.581485     -0.785566
  C       0.238749      1.005553     -1.551332
  C       1.500869      0.155456     -1.359599
  O       2.489624      0.382401     -2.049045
  N       1.389230     -0.907469     -0.529628
  C       2.603806     -1.552051     -0.093036
  C       3.380307     -0.657575      0.946783
  O       4.494727     -1.070363      1.308000
  O       2.788334      0.367652      1.331598
  H      -2.697533     -1.221627      0.306115
  H      -4.076416     -0.618400      1.007448
  H      -3.629605     -0.077349     -0.500367
  H      -3.159079      1.583359      1.213665
  H      -2.165547      0.404274      2.054942
  H      -1.386947     -0.222503     -1.156059
  H       0.513954      2.025803     -1.270056
  H       0.012609      0.990482     -2.620026
  H       0.742283     -0.763175      0.237188
  H       3.272815     -1.696586     -0.941903
  H       2.381322     -2.509252      0.376799
24
Coordinates from ORCA-job geo_opt E -43.523709511390
  N      -3.224080     -0.414220      0.439407
  C      -2.531013      0.740222      1.048245
  C      -1.334431      1.301682      0.281006
  O      -0.826993      2.348674      0.656442
  N      -0.894266      0.604901     -0.779369
  C       0.250008      1.034921     -1.541607
  C       1.492630      0.156046     -1.387762
  O       2.464092      0.342628     -2.109848
  N       1.380167     -0.887271     -0.523084
  C       2.590154     -1.565063     -0.112692
  C       3.351345     -0.726522      0.976355
  O       4.468366     -1.143621      1.326048
  O       2.757770      0.290750      1.383869
  H      -2.606147     -1.230929      0.365569
  H      -4.018913     -0.678497      1.037556
  H      -3.593570     -0.174987     -0.489544
  H      -3.222334      1.576056      1.168694
  H      -2.158651      0.487673      2.043153
  H      -1.294322     -0.270620     -1.078158
  H       0.537174      2.039315     -1.219985
  H       0.014940      1.070441     -2.607901
  H       0.783541     -0.684457      0.272955
  H       3.260821     -1.672762     -0.964982
  H       2.353713     -2.544359      0.302101
24
Coordinates from ORCA-job geo_opt E -43.524373066950
  N      -3.213319     -0.432213      0.446632
  C      -2.562782      0.762317      1.029164
  C      -1.362381      1.331199      0.273359
  O      -0.921944      2.425349      0.592375
  N      -0.883496      0.608687     -0.752741
  C       0.253287      1.045436     -1.524545
  C       1.480227      0.144047     -1.426957
  O       2.413956      0.285407     -2.204158
  N       1.398186     -0.852646     -0.504671
  C       2.604563     -1.561576     -0.130036
  C       3.365694     -0.781257      0.996019
  O       4.483914     -1.215534      1.322076
  O       2.774252      0.218056      1.450490
  H      -2.577052     -1.237703      0.429876
  H      -4.024305     -0.688286      1.025794
  H      -3.549875     -0.239126     -0.505304
  H      -3.280239      1.580743      1.106636
  H      -2.208724      0.552264      2.040508
  H      -1.214751     -0.315223     -0.983912
  H       0.554107      2.034579     -1.167268
  H      -0.003420      1.131122     -2.584001
  H       0.853614     -0.597145      0.313677
  H       3.266683     -1.640967     -0.991979
  H       2.353805     -2.557529      0.235436
24
Coordinates from ORCA-job geo_opt E -43.525073587300
  N      -3.208644     -0.435814      0.443672
  C      -2.564935      0.764026      1.022193
  C      -1.382807      1.352221      0.253928
  O      -0.963515      2.458034      0.557134
  N      -0.884301      0.612913     -0.750835
  C       0.249179      1.045641     -1.531492
  C       1.457928      0.122584     -1.474537
  O       2.335145      0.188814     -2.323752
  N       1.418283     -0.804149     -0.484473
  C       2.618179     -1.535580     -0.132881
  C       3.363328     -0.816700      1.039458
  O       4.481687     -1.264321      1.347764
  O       2.757903      0.142643      1.557295
  H      -2.569237     -1.239211      0.435359
  H      -4.022861     -0.691143      1.019273
  H      -3.536955     -0.247390     -0.512387
  H      -3.294100      1.570883      1.114715
  H      -2.196191      0.549596      2.027849
  H      -1.159619     -0.344164     -0.914698
  H       0.565458      2.023234     -1.150943
  H      -0.025142      1.169329     -2.584251
  H       0.924786     -0.491044      0.346059
  H       3.282338     -1.582571     -0.996173
  H       2.354091     -2.547833      0.178192
24
Coordinates from ORCA-job geo_opt E -43.525871480810
  N      -3.205423     -0.433908      0.451129
  C      -2.557127      0.764898      1.022225
  C      -1.391119      1.361413      0.236330
  O      -0.991634      2.479961      0.515907
  N      -0.890710      0.612538     -0.761902
  C       0.238773      1.041843     -1.551400
  C       1.427632      0.093910     -1.531188
  O       2.226121      0.066866     -2.458635
  N       1.451696     -0.748241     -0.473403
  C       2.648316     -1.492542     -0.143565
  C       3.340868     -0.861166      1.106647
  O       4.467163     -1.299819      1.397671
  O       2.682016      0.006257      1.713604
  H      -2.575621     -1.245212      0.460373
  H      -4.030184     -0.672431      1.019793
  H      -3.517335     -0.251518     -0.511725
  H      -3.289456      1.567930      1.129401
  H      -2.173039      0.545222      2.021623
  H      -1.121876     -0.364413     -0.869045
  H       0.574779      2.007155     -1.150791
  H      -0.051577      1.200235     -2.596044
  H       1.018036     -0.375983      0.368307
  H       3.333946     -1.473817     -0.991837
  H       2.385755     -2.529177      0.082992
24
Coordinates from ORCA-job geo_opt E -43.526709700020
  N      -3.201633     -0.420718      0.470217
  C      -2.522279      0.759841      1.037834
  C      -1.376111      1.354114      0.221645
  O      -0.972885      2.474819      0.486097
  N      -0.901363      0.603065     -0.789165
  C       0.217313      1.029551     -1.596398
  C       1.394770      0.064685     -1.594404
  O       2.108132     -0.060096     -2.583667
  N       1.495238     -0.684144     -0.479643
  C       2.693202     -1.424855     -0.159746
  C       3.271102     -0.912787      1.198939
  O       4.411288     -1.305074      1.497667
  O       2.508446     -0.199241      1.879723
  H      -2.598426     -1.252243      0.484855
  H      -4.035479     -0.630417      1.037549
  H      -3.504012     -0.231993     -0.494512
  H      -3.240848      1.571069      1.177177
  H      -2.111311      0.520154      2.022167
  H      -1.111052     -0.382181     -0.860090
  H       0.568868      1.990982     -1.196582
  H      -0.090156      1.195639     -2.634751
  H       1.109328     -0.267894      0.369527
  H       3.429216     -1.303798     -0.957139
  H       2.458655     -2.488478     -0.050831
24
Coordinates from ORCA-job geo_opt E -43.527504611250
  N      -3.188995     -0.399737      0.500635
  C      -2.438969      0.732000      1.075713
  C      -1.313919      1.314256      0.221252
  O      -0.861357      2.412622      0.501936
  N      -0.913217      0.588972     -0.840678
  C       0.187007      1.013690     -1.673868
  C       1.381118      0.061703     -1.647611
  O       2.068002     -0.109138     -2.651294
  N       1.520664     -0.628930     -0.507447
  C       2.720145     -1.347412     -0.163156
  C       3.145956     -0.938855      1.286845
  O       4.284329     -1.277586      1.646342
  O       2.274447     -0.356235      1.961043
  H      -2.630964     -1.262232      0.482031
  H      -4.017649     -0.578459      1.085801
  H      -3.507836     -0.174778     -0.450857
  H      -3.116144      1.565853      1.276191
  H      -1.989660      0.443574      2.029547
  H      -1.163316     -0.383869     -0.937517
  H       0.532028      1.991685     -1.313040
  H      -0.134281      1.132460     -2.712926
  H       1.105008     -0.239261      0.344991
  H       3.521095     -1.133373     -0.874959
  H       2.536508     -2.426953     -0.152503
24
Coordinates from ORCA-job geo_opt E -43.528347855300
  N      -3.142741     -0.387628      0.550619
  C      -2.321119      0.699319      1.116895
  C      -1.234784      1.274191      0.209702
  O      -0.730114      2.349556      0.495363
  N      -0.923109      0.577884     -0.899888
  C       0.150855      0.998361     -1.766214
  C       1.375388      0.078359     -1.699938
  O       2.092183     -0.081508     -2.685068
  N       1.520964     -0.583398     -0.548439
  C       2.721752     -1.269261     -0.158345
  C       2.960930     -0.972857      1.365095
  O       4.072512     -1.268063      1.827032
  O       1.982560     -0.491491      1.969749
  H      -2.622138     -1.270552      0.482486
  H      -3.947289     -0.550551      1.172028
  H      -3.502539     -0.126394     -0.376526
  H      -2.952394      1.549260      1.385356
  H      -1.819522      0.367601      2.029122
  H      -1.221855     -0.377234     -1.025256
  H       0.475071      1.996456     -1.454908
  H      -0.180442      1.047886     -2.805967
  H       1.050955     -0.247843      0.300045
  H       3.584377     -0.956978     -0.749943
  H       2.610501     -2.355114     -0.246530
24
Coordinates from ORCA-job geo_opt E -43.529249086230
  N      -3.055777     -0.385205      0.623954
  C      -2.168534      0.670239      1.154900
  C      -1.151691      1.249860      0.175391
  O      -0.610651      2.314595      0.438160
  N      -0.931671      0.569541     -0.964619
  C       0.110732      0.977138     -1.873040
  C       1.377590      0.115852     -1.753291
  O       2.163488      0.017666     -2.692059
  N       1.501516     -0.541483     -0.598527
  C       2.699832     -1.183080     -0.137944
  C       2.710034     -1.032208      1.429710
  O       3.761192     -1.303280      2.023790
  O       1.627808     -0.648270      1.919680
  H      -2.557729     -1.273100      0.489646
  H      -3.810742     -0.555098      1.302397
  H      -3.486235     -0.091780     -0.262665
  H      -2.755220      1.522569      1.501791
  H      -1.593072      0.304111      2.008241
  H      -1.261747     -0.374689     -1.090735
  H       0.398136      2.001218     -1.625440
  H      -0.226995      0.937177     -2.909466
  H       0.958335     -0.277560      0.232629
  H       3.607030     -0.754901     -0.565883
  H       2.694371     -2.259310     -0.340149
24
Coordinates from ORCA-job geo_opt E -43.530352003080
  N      -2.900434     -0.399861      0.737536
  C      -1.958593      0.650112      1.184877
  C      -1.062876      1.248340      0.105511
  O      -0.505906      2.317868      0.313433
  N      -0.946335      0.570734     -1.051791
  C       0.066148      0.947394     -2.006728
  C       1.391622      0.195111     -1.796971
  O       2.281495      0.226598     -2.641687
  N       1.459029     -0.495526     -0.658161
  C       2.636670     -1.077764     -0.082739
  C       2.363560     -1.133374      1.471635
  O       3.304132     -1.423255      2.218263
  O       1.190530     -0.844409      1.796670
  H      -2.410638     -1.274351      0.516601
  H      -3.561175     -0.601905      1.499735
  H      -3.443808     -0.088485     -0.078328
  H      -2.498948      1.489660      1.623517
  H      -1.276855      0.267981      1.949066
  H      -1.296353     -0.369342     -1.153210
  H       0.287847      2.005486     -1.860284
  H      -0.261419      0.774671     -3.030748
  H       0.797247     -0.362372      0.117755
  H       3.549165     -0.513226     -0.277408
  H       2.795895     -2.110087     -0.410074
24
Coordinates from ORCA-job geo_opt E -43.530964163560
  N      -2.764822     -0.410726      0.829881
  C      -1.807808      0.657754      1.193555
  C      -1.017963      1.269880      0.043180
  O      -0.470399      2.352640      0.197468
  N      -0.962956      0.576221     -1.111927
  C       0.038974      0.914468     -2.094376
  C       1.405129      0.267576     -1.807777
  O       2.362533      0.434219     -2.556253
  N       1.428898     -0.477292     -0.702550
  C       2.576213     -1.004894     -0.022822
  C       2.107220     -1.228219      1.468376
  O       2.951749     -1.562106      2.304175
  O       0.889615     -1.009735      1.666655
  H      -2.270390     -1.265968      0.552160
  H      -3.339548     -0.640856      1.651396
  H      -3.393124     -0.106732      0.074973
  H      -2.319938      1.480742      1.692544
  H      -1.044872      0.278771      1.881776
  H      -1.305842     -0.370517     -1.172417
  H       0.200957      1.993320     -2.046900
  H      -0.270635      0.630966     -3.098255
  H       0.675904     -0.468058     -0.001717
  H       3.439869     -0.337819     -0.032127
  H       2.891236     -1.973638     -0.422549
24
Coordinates from ORCA-job geo_opt E -43.531322679330
  N      -2.817324     -0.384466      0.823708
  C      -1.881538      0.699832      1.188710
  C      -1.052741      1.289510      0.054074
  O      -0.514427      2.376219      0.200660
  N      -0.959691      0.566153     -1.083351
  C       0.047825      0.892405     -2.067766
  C       1.433070      0.294944     -1.776864
  O       2.398910      0.552848     -2.487057
  N       1.463628     -0.524997     -0.724416
  C       2.616915     -1.047857     -0.045483
  C       2.192487     -1.240508      1.457419
  O       3.053712     -1.615142      2.259953
  O       0.993509     -0.979347      1.709201
  H      -2.300143     -1.232797      0.566179
  H      -3.399528     -0.615011      1.639822
  H      -3.435221     -0.098225      0.053524
  H      -2.415069      1.524864      1.661629
  H      -1.137075      0.329786      1.904294
  H      -1.293364     -0.385805     -1.125513
  H       0.179305      1.979137     -2.066915
  H      -0.262662      0.575191     -3.062346
  H       0.686526     -0.575959     -0.054366
  H       3.472063     -0.368444     -0.083528
  H       2.930832     -2.012329     -0.455096
24
Coordinates from ORCA-job geo_opt E -43.531542637280
  N      -2.832744     -0.359000      0.833481
  C      -1.880311      0.709364      1.194336
  C      -1.036990      1.283063      0.061402
  O      -0.491591      2.365405      0.202989
  N      -0.949872      0.550750     -1.071474
  C       0.043494      0.871731     -2.070621
  C       1.437307      0.290128     -1.785568
  O       2.391290      0.546384     -2.513492
  N       1.482691     -0.523721     -0.734086
  C       2.640699     -1.005553     -0.035624
  C       2.170605     -1.280501      1.437486
  O       3.025960     -1.630364      2.258025
  O       0.944535     -1.137736      1.636828
  H      -2.331852     -1.223054      0.595200
  H      -3.427017     -0.565054      1.647884
  H      -3.435933     -0.069457      0.052458
  H      -2.400148      1.545213      1.664041
  H      -1.146319      0.322795      1.912423
  H      -1.272381     -0.406015     -1.095607
  H       0.164423      1.959826     -2.096847
  H      -0.280767      0.533876     -3.055465
  H       0.706915     -0.570377     -0.061133
  H       3.453120     -0.273410     -0.021725
  H       3.024885     -1.934295     -0.468439
24
Coordinates from ORCA-job geo_opt E -43.531777748520
  N      -2.820265     -0.368617      0.828073
  C      -1.827753      0.658018      1.204061
  C      -0.986694      1.245817      0.075013
  O      -0.396575      2.299604      0.249291
  N      -0.950365      0.560428     -1.087306
  C       0.038777      0.879341     -2.087854
  C       1.430278      0.297377     -1.788072
  O       2.391989      0.563076     -2.503674
  N       1.461445     -0.527459     -0.746354
  C       2.609271     -0.999262     -0.027283
  C       2.126488     -1.206285      1.453721
  O       2.971493     -1.547571      2.289259
  O       0.905432     -1.018406      1.639615
  H      -2.354997     -1.242356      0.555256
  H      -3.405614     -0.579358      1.647713
  H      -3.429434     -0.036387      0.068932
  H      -2.311737      1.496080      1.706368
  H      -1.095689      0.227828      1.897506
  H      -1.321035     -0.375967     -1.148151
  H       0.164609      1.964761     -2.128890
  H      -0.283429      0.526240     -3.067770
  H       0.671879     -0.582925     -0.090300
  H       3.433956     -0.281033     -0.037308
  H       2.977970     -1.952945     -0.415378
24
Coordinates from ORCA-job geo_opt E -43.531898327790
  N      -2.815651     -0.360932      0.836148
  C      -1.817968      0.663916      1.205289
  C      -0.985242      1.247911      0.069459
  O      -0.393314      2.302516      0.236093
  N      -0.954084      0.557486     -1.090302
  C       0.034655      0.871365     -2.093003
  C       1.432068      0.310971     -1.780374
  O       2.402210      0.623873     -2.465001
  N       1.463536     -0.548741     -0.762993
  C       2.609526     -0.998886     -0.024476
  C       2.112424     -1.219717      1.449880
  O       2.951387     -1.550946      2.295570
  O       0.886659     -1.045012      1.626735
  H      -2.353454     -1.234542      0.558263
  H      -3.393144     -0.572158      1.661135
  H      -3.431172     -0.027416      0.082815
  H      -2.295495      1.503122      1.711428
  H      -1.079900      0.232364      1.891756
  H      -1.324404     -0.379843     -1.144811
  H       0.149187      1.956696     -2.153899
  H      -0.282646      0.499138     -3.067389
  H       0.662098     -0.628257     -0.123362
  H       3.416720     -0.261352     -0.021009
  H       3.006003     -1.941555     -0.411484
24
Coordinates from ORCA-job geo_opt E -43.532054830840
  N      -2.838569     -0.328355      0.840786
  C      -1.799615      0.653097      1.215877
  C      -0.958873      1.222244      0.079674
  O      -0.332355      2.256630      0.251308
  N      -0.957907      0.542657     -1.087459
  C       0.026067      0.846911     -2.098833
  C       1.436860      0.333072     -1.764533
  O       2.413061      0.737635     -2.390028
  N       1.479719     -0.594367     -0.805040
  C       2.621808     -0.985150     -0.024978
  C       2.098147     -1.213393      1.439045
  O       2.929423     -1.499536      2.308585
  O       0.862590     -1.085279      1.588521
  H      -2.413168     -1.215625      0.548457
  H      -3.414912     -0.527817      1.669389
  H      -3.448156      0.037565      0.097851
  H      -2.239495      1.502699      1.738071
  H      -1.069693      0.184736      1.886938
  H      -1.353686     -0.384331     -1.146203
  H       0.118492      1.930421     -2.204361
  H      -0.282919      0.431160     -3.058000
  H       0.659102     -0.724927     -0.198347
  H       3.391053     -0.208566     -0.010288
  H       3.073026     -1.911481     -0.389962
24
Coordinates from ORCA-job geo_opt E -43.532147250780
  N      -2.857287     -0.307229      0.839714
  C      -1.785961      0.634956      1.226194
  C      -0.934280      1.194650      0.094052
  O      -0.284208      2.213695      0.271839
  N      -0.953161      0.526945     -1.079277
  C       0.024758      0.835256     -2.096562
  C       1.440406      0.344561     -1.754012
  O       2.419373      0.807402     -2.332097
  N       1.488057     -0.636115     -0.845130
  C       2.623734     -0.983147     -0.033304
  C       2.086011     -1.181212      1.429002
  O       2.913045     -1.414450      2.318532
  O       0.845719     -1.084153      1.558249
  H      -2.463740     -1.206176      0.538924
  H      -3.440383     -0.494076      1.666437
  H      -3.453165      0.086553      0.100001
  H      -2.197023      1.491155      1.760822
  H      -1.067763      0.136196      1.887613
  H      -1.356745     -0.396246     -1.140293
  H       0.104377      1.918268     -2.217171
  H      -0.280907      0.402574     -3.049209
  H       0.656596     -0.786880     -0.258555
  H       3.376573     -0.190822     -0.034880
  H       3.095974     -1.911703     -0.364421
24
Coordinates from ORCA-job geo_opt E -43.532227607740
  N      -2.889273     -0.276880      0.837279
  C      -1.786149      0.622950      1.235157
  C      -0.915155      1.165104      0.108703
  O      -0.237382      2.164658      0.293252
  N      -0.953787      0.509249     -1.071337
  C       0.020985      0.816952     -2.093373
  C       1.444591      0.360303     -1.737392
  O       2.421317      0.874613     -2.273491
  N       1.506262     -0.658003     -0.870620
  C       2.640123     -0.972607     -0.043161
  C       2.096582     -1.164303      1.417571
  O       2.924357     -1.349238      2.317813
  O       0.852740     -1.115851      1.532690
  H      -2.529195     -1.189699      0.536522
  H      -3.486283     -0.442447      1.658539
  H      -3.463195      0.141645      0.093905
  H      -2.168890      1.488273      1.776411
  H      -1.085552      0.095691      1.893017
  H      -1.376883     -0.404278     -1.138951
  H       0.081175      1.899071     -2.232946
  H      -0.274073      0.358628     -3.036767
  H       0.668718     -0.856811     -0.308794
  H       3.379472     -0.167866     -0.052281
  H       3.129495     -1.899153     -0.355274
24
Coordinates from ORCA-job geo_opt E -43.532285948440
  N      -2.893575     -0.269474      0.837511
  C      -1.775377      0.610017      1.238312
  C      -0.902228      1.151014      0.112304
  O      -0.215028      2.143107      0.299238
  N      -0.952243      0.503437     -1.071967
  C       0.020750      0.814940     -2.095568
  C       1.444520      0.367591     -1.733614
  O       2.424952      0.894502     -2.248806
  N       1.502815     -0.660190     -0.877215
  C       2.634621     -0.968018     -0.044730
  C       2.089429     -1.144292      1.416614
  O       2.917643     -1.299623      2.322295
  O       0.844778     -1.118787      1.525071
  H      -2.549312     -1.187898      0.535381
  H      -3.497374     -0.424835      1.655794
  H      -3.456104      0.160846      0.092238
  H      -2.144149      1.475298      1.789629
  H      -1.078864      0.067847      1.888093
  H      -1.375145     -0.410063     -1.139779
  H       0.071813      1.898096     -2.233860
  H      -0.270108      0.351133     -3.037364
  H       0.661538     -0.885064     -0.333281
  H       3.378001     -0.167697     -0.064759
  H       3.118648     -1.901889     -0.345070
24
Coordinates from ORCA-job geo_opt E -43.532302488050
  N      -2.893411     -0.261832      0.843875
  C      -1.770358      0.614141      1.238137
  C      -0.901213      1.153082      0.107916
  O      -0.214700      2.146297      0.288824
  N      -0.953847      0.499529     -1.073171
  C       0.018157      0.806455     -2.099292
  C       1.445940      0.380966     -1.726206
  O       2.424096      0.927916     -2.223838
  N       1.509438     -0.654823     -0.880320
  C       2.637377     -0.962174     -0.042898
  C       2.080533     -1.156685      1.412072
  O       2.902285     -1.310272      2.324023
  O       0.834685     -1.147332      1.508212
  H      -2.553075     -1.182342      0.543566
  H      -3.496858     -0.412312      1.663310
  H      -3.454891      0.168858      0.097911
  H      -2.133224      1.479353      1.793284
  H      -1.071308      0.068328      1.882448
  H      -1.371937     -0.416883     -1.133870
  H       0.055482      1.888023     -2.252728
  H      -0.265391      0.324324     -3.034065
  H       0.667673     -0.907221     -0.351903
  H       3.374002     -0.155934     -0.049528
  H       3.130545     -1.889464     -0.349291
24
Coordinates from ORCA-job geo_opt E -43.532309516120
  N      -2.894403     -0.257597      0.843390
  C      -1.763560      0.607636      1.239126
  C      -0.895991      1.148311      0.108775
  O      -0.205966      2.138833      0.291288
  N      -0.953944      0.497886     -1.073822
  C       0.016450      0.804528     -2.101785
  C       1.444975      0.384462     -1.725462
  O       2.422953      0.938238     -2.215937
  N       1.509631     -0.654469     -0.883239
  C       2.635293     -0.959956     -0.041514
  C       2.075513     -1.150977      1.413041
  O       2.895531     -1.297813      2.327783
  O       0.829363     -1.145227      1.507191
  H      -2.561934     -1.179700      0.539182
  H      -3.498625     -0.406048      1.662571
  H      -3.452434      0.180576      0.099166
  H      -2.117595      1.471202      1.802380
  H      -1.065556      0.051757      1.876070
  H      -1.370702     -0.419348     -1.133376
  H       0.049495      1.885249     -2.260774
  H      -0.266581      0.316691     -3.033879
  H       0.667357     -0.913306     -0.359390
  H       3.371330     -0.153290     -0.049208
  H       3.129401     -1.887639     -0.345108
24
Coordinates from ORCA-job geo_opt E -43.532313135030
  N      -2.900411     -0.249555      0.842554
  C      -1.761466      0.604010      1.240902
  C      -0.891978      1.142352      0.111094
  O      -0.198575      2.130567      0.293908
  N      -0.953741      0.493215     -1.072010
  C       0.014472      0.800201     -2.102424
  C       1.444522      0.388823     -1.722845
  O       2.420625      0.953167     -2.205030
  N       1.513751     -0.655723     -0.887513
  C       2.638340     -0.956575     -0.041929
  C       2.076208     -1.150375      1.411180
  O       2.894441     -1.289500      2.328771
  O       0.829808     -1.153711      1.502380
  H      -2.576936     -1.174910      0.538675
  H      -3.508424     -0.391840      1.660008
  H      -3.451546      0.194605      0.096799
  H      -2.106817      1.468016      1.808781
  H      -1.067108      0.039178      1.874069
  H      -1.368731     -0.424962     -1.129640
  H       0.041544      1.879972     -2.268364
  H      -0.267130      0.305222     -3.031228
  H       0.671415     -0.924051     -0.368390
  H       3.370516     -0.146307     -0.048364
  H       3.137224     -1.881816     -0.344913
24
Coordinates from ORCA-job geo_opt E -43.532316243390
  N      -2.910116     -0.237292      0.842001
  C      -1.757495      0.596448      1.243853
  C      -0.885045      1.131422      0.114708
  O      -0.183803      2.113850      0.299224
  N      -0.954406      0.486642     -1.070392
  C       0.011799      0.792918     -2.103473
  C       1.444259      0.393894     -1.719361
  O       2.416746      0.974498     -2.189444
  N       1.521065     -0.658712     -0.894520
  C       2.643502     -0.950250     -0.042335
  C       2.075970     -1.146412      1.408225
  O       2.890544     -1.275699      2.330454
  O       0.829193     -1.161039      1.493126
  H      -2.602146     -1.167030      0.535490
  H      -3.521592     -0.371626      1.658243
  H      -3.452738      0.218179      0.096846
  H      -2.088189      1.461093      1.819343
  H      -1.069022      0.017201      1.870439
  H      -1.372214     -0.430246     -1.128394
  H       0.031898      1.871165     -2.279152
  H      -0.266782      0.287894     -3.027713
  H       0.678777     -0.940761     -0.382420
  H       3.369203     -0.134130     -0.046352
  H       3.150591     -1.872009     -0.341926
24
Coordinates from ORCA-job geo_opt E -43.532302562250
  N      -2.957374     -0.175640      0.835669
  C      -1.744129      0.558843      1.255575
  C      -0.853606      1.076063      0.132399
  O      -0.113501      2.027805      0.326639
  N      -0.957929      0.453627     -1.061845
  C      -0.001112      0.757911     -2.106366
  C       1.440924      0.413818     -1.705197
  O       2.393557      1.059445     -2.128892
  N       1.554184     -0.666587     -0.920382
  C       2.668844     -0.916999     -0.043672
  C       2.083537     -1.129077      1.396867
  O       2.884680     -1.214824      2.335716
  O       0.837272     -1.198217      1.458871
  H      -2.724112     -1.121514      0.513182
  H      -3.583121     -0.273606      1.646374
  H      -3.457362      0.334134      0.095857
  H      -2.006260      1.422866      1.865943
  H      -1.089583     -0.087718      1.851904
  H      -1.390508     -0.456271     -1.122308
  H      -0.011719      1.828901     -2.320786
  H      -0.265541      0.211939     -3.011013
  H       0.716107     -1.009103     -0.438745
  H       3.364089     -0.074733     -0.037683
  H       3.212662     -1.821063     -0.331639
24
Coordinates from ORCA-job geo_opt E -43.532323415640
  N      -2.928222     -0.217226      0.838269
  C      -1.754151      0.582903      1.247602
  C      -0.876106      1.113847      0.120757
  O      -0.164314      2.088071      0.308305
  N      -0.954914      0.475177     -1.067030
  C       0.008009      0.782068     -2.103658
  C       1.443611      0.398710     -1.715783
  O       2.410684      0.996396     -2.175299
  N       1.530360     -0.660613     -0.900353
  C       2.652356     -0.940027     -0.043188
  C       2.082305     -1.139443      1.405640
  O       2.895106     -1.256048      2.331093
  O       0.835551     -1.169223      1.485977
  H      -2.645653     -1.152655      0.524677
  H      -3.544935     -0.340606      1.652348
  H      -3.456972      0.258360      0.095604
  H      -2.061732      1.447253      1.836094
  H      -1.076312     -0.019736      1.863459
  H      -1.375159     -0.440550     -1.125409
  H       0.019004      1.858818     -2.288872
  H      -0.266670      0.266265     -3.023007
  H       0.689383     -0.958121     -0.394899
  H       3.369559     -0.116457     -0.045814
  H       3.169212     -1.857160     -0.340041
24
Coordinates from ORCA-job geo_opt E -43.532327224090
  N      -2.935612     -0.208548      0.836598
  C      -1.752221      0.576546      1.248605
  C      -0.873221      1.107120      0.122291
  O      -0.158021      2.078646      0.310633
  N      -0.955531      0.470515     -1.066419
  C       0.006371      0.777400     -2.104086
  C       1.443101      0.399848     -1.714975
  O       2.408128      1.002402     -2.172363
  N       1.533502     -0.660281     -0.900959
  C       2.655750     -0.934925     -0.042591
  C       2.085290     -1.137271      1.405563
  O       2.897785     -1.250287      2.331752
  O       0.838623     -1.172749      1.484797
  H      -2.664160     -1.145474      0.517782
  H      -3.553151     -0.328838      1.650528
  H      -3.459552      0.276691      0.096700
  H      -2.049283      1.439691      1.844188
  H      -1.078241     -0.036638      1.858201
  H      -1.376429     -0.444942     -1.124577
  H       0.014097      1.853657     -2.292369
  H      -0.266685      0.257948     -3.021825
  H       0.693238     -0.963137     -0.397669
  H       3.369010     -0.107910     -0.043923
  H       3.177212     -1.849464     -0.339412
24
Coordinates from ORCA-job geo_opt E -43.532129743190
  N      -3.033230     -0.076193      0.810540
  C      -1.734598      0.476543      1.256364
  C      -0.840807      1.010187      0.143573
  O      -0.084996      1.946972      0.344777
  N      -0.965284      0.401187     -1.056048
  C      -0.016726      0.710303     -2.106093
  C       1.433634      0.410328     -1.704380
  O       2.368132      1.072150     -2.141684
  N       1.574868     -0.654335     -0.903143
  C       2.703311     -0.863318     -0.034845
  C       2.137266     -1.103193      1.407925
  O       2.950326     -1.169168      2.338540
  O       0.894684     -1.213178      1.480291
  H      -2.924294     -1.013847      0.408763
  H      -3.658656     -0.157226      1.623490
  H      -3.475578      0.545965      0.120299
  H      -1.882475      1.299521      1.955089
  H      -1.130082     -0.282266      1.765950
  H      -1.391492     -0.512453     -1.109551
  H      -0.052524      1.779396     -2.330165
  H      -0.266287      0.147094     -3.003973
  H       0.748913     -1.022490     -0.422975
  H       3.361163      0.008619     -0.023286
  H       3.284733     -1.740598     -0.332987
24
Coordinates from ORCA-job geo_opt E -43.532340677400
  N      -2.959578     -0.177576      0.835486
  C      -1.745738      0.558283      1.250734
  C      -0.867044      1.088489      0.123266
  O      -0.147997      2.057374      0.308476
  N      -0.956460      0.452046     -1.065632
  C       0.002282      0.758709     -2.106105
  C       1.443083      0.405217     -1.711408
  O       2.399810      1.027684     -2.158891
  N       1.546628     -0.659084     -0.904210
  C       2.667737     -0.916275     -0.039418
  C       2.091728     -1.137723      1.403558
  O       2.900955     -1.245219      2.333415
  O       0.845352     -1.192557      1.475488
  H      -2.725555     -1.117644      0.497156
  H      -3.575620     -0.289100      1.651799
  H      -3.470985      0.339044      0.107957
  H      -2.007257      1.416113      1.870210
  H      -1.082630     -0.087813      1.837599
  H      -1.374741     -0.464943     -1.119422
  H      -0.003357      1.833243     -2.305208
  H      -0.262382      0.225425     -3.018247
  H       0.708122     -0.982375     -0.411956
  H       3.362860     -0.073943     -0.029320
  H       3.210786     -1.817376     -0.338859
24
Coordinates from ORCA-job geo_opt E -43.532346633670
  N      -2.967638     -0.174273      0.829509
  C      -1.749947      0.552672      1.249181
  C      -0.870825      1.086576      0.123972
  O      -0.153618      2.056400      0.311123
  N      -0.956527      0.449992     -1.064856
  C       0.001998      0.759510     -2.104298
  C       1.442600      0.397987     -1.715850
  O       2.400883      1.006025     -2.179773
  N       1.543720     -0.655331     -0.894441
  C       2.670996     -0.914871     -0.038834
  C       2.105680     -1.135174      1.408447
  O       2.922143     -1.249386      2.331164
  O       0.859656     -1.182293      1.490933
  H      -2.738838     -1.112052      0.481407
  H      -3.582300     -0.290693      1.646188
  H      -3.478740      0.351396      0.108115
  H      -2.007193      1.407704      1.874318
  H      -1.089117     -0.099670      1.831687
  H      -1.372844     -0.467894     -1.119042
  H       0.000477      1.835650     -2.294990
  H      -0.265775      0.234722     -3.020408
  H       0.706544     -0.966400     -0.391840
  H       3.368076     -0.073932     -0.032901
  H       3.210590     -1.816665     -0.342341
24
Coordinates from ORCA-job geo_opt E -43.532350160720
  N      -2.976285     -0.166424      0.826781
  C      -1.751807      0.547625      1.249056
  C      -0.871755      1.082674      0.125246
  O      -0.156139      2.053631      0.312458
  N      -0.955724      0.444549     -1.062772
  C       0.001383      0.756076     -2.102936
  C       1.443053      0.397024     -1.716036
  O       2.399913      1.005640     -2.182042
  N       1.546592     -0.655060     -0.893329
  C       2.675618     -0.912314     -0.039395
  C       2.112837     -1.133483      1.408756
  O       2.931140     -1.248500      2.329771
  O       0.866974     -1.180282      1.493547
  H      -2.756638     -1.103369      0.470670
  H      -3.590133     -0.283657      1.643935
  H      -3.484714      0.368939      0.110508
  H      -2.001179      1.400511      1.880244
  H      -1.094675     -0.113436      1.825966
  H      -1.367779     -0.475388     -1.114736
  H      -0.002397      1.832256     -2.293278
  H      -0.266296      0.231153     -3.019013
  H       0.710478     -0.965627     -0.388851
  H       3.370676     -0.069716     -0.034433
  H       3.216858     -1.812824     -0.343648
24
Coordinates from ORCA-job geo_opt E -43.532360072830
  N      -2.989484     -0.156901      0.823357
  C      -1.757974      0.544042      1.247353
  C      -0.878772      1.082818      0.124865
  O      -0.173888      2.062073      0.309144
  N      -0.952918      0.436207     -1.059017
  C       0.002046      0.752340     -2.099662
  C       1.445183      0.394450     -1.716800
  O       2.400790      1.000351     -2.188768
  N       1.550847     -0.654077     -0.889903
  C       2.683494     -0.911453     -0.041004
  C       2.126028     -1.134739      1.409053
  O       2.948177     -1.257127      2.325714
  O       0.880337     -1.175294      1.499445
  H      -2.779554     -1.090251      0.452404
  H      -3.598816     -0.280713      1.642856
  H      -3.499271      0.391335      0.117661
  H      -1.999623      1.393674      1.885861
  H      -1.103597     -0.126319      1.816856
  H      -1.350504     -0.490492     -1.103399
  H      -0.004761      1.829017     -2.286635
  H      -0.266452      0.229852     -3.016977
  H       0.716467     -0.960014     -0.379970
  H       3.377459     -0.067953     -0.037691
  H       3.224787     -1.810827     -0.348274
24
Coordinates from ORCA-job geo_opt E -43.532359760910
  N      -3.001560     -0.149425      0.822791
  C      -1.764031      0.542283      1.244518
  C      -0.890395      1.088138      0.120798
  O      -0.204981      2.082174      0.298600
  N      -0.949120      0.428733     -1.057175
  C       0.004594      0.749909     -2.097200
  C       1.448719      0.391168     -1.718186
  O       2.404099      0.992554     -2.196471
  N       1.555082     -0.652954     -0.885914
  C       2.690754     -0.912332     -0.041965
  C       2.137396     -1.138316      1.409680
  O       2.962445     -1.271062      2.322256
  O       0.891756     -1.170272      1.505039
  H      -2.799806     -1.076101      0.431149
  H      -3.600776     -0.286646      1.647545
  H      -3.519350      0.412363      0.133597
  H      -1.999202      1.387752      1.890994
  H      -1.108900     -0.135502      1.804497
  H      -1.325614     -0.507222     -1.090390
  H      -0.004615      1.827240     -2.279399
  H      -0.264798      0.231076     -3.016496
  H       0.722176     -0.953186     -0.370146
  H       3.385052     -0.069100     -0.039634
  H       3.231074     -1.811272     -0.352020
24
Coordinates from ORCA-job geo_opt E -43.532370876160
  N      -2.989548     -0.159800      0.828425
  C      -1.758787      0.546949      1.244384
  C      -0.889056      1.092896      0.117358
  O      -0.201807      2.085743      0.295275
  N      -0.951039      0.436868     -1.062680
  C       0.005849      0.754698     -2.100798
  C       1.448260      0.393103     -1.717182
  O       2.405951      0.995673     -2.189571
  N       1.551339     -0.654042     -0.888246
  C       2.683522     -0.915688     -0.040161
  C       2.125277     -1.138292      1.410368
  O       2.946977     -1.267619      2.326396
  O       0.879332     -1.171896      1.501290
  H      -2.778040     -1.086600      0.442124
  H      -3.585912     -0.298980      1.654927
  H      -3.513857      0.392558      0.136929
  H      -2.001697      1.394535      1.885223
  H      -1.097568     -0.121499      1.808367
  H      -1.335867     -0.495496     -1.100602
  H      -0.000171      1.831632     -2.285111
  H      -0.262434      0.234550     -3.019681
  H       0.716647     -0.956863     -0.376702
  H       3.380987     -0.075169     -0.037375
  H       3.221644     -1.817260     -0.346489
24
Coordinates from ORCA-job geo_opt E -43.532372438760
  N      -2.988783     -0.160162      0.828890
  C      -1.758266      0.547093      1.244965
  C      -0.888974      1.093201      0.117458
  O      -0.201632      2.085931      0.295410
  N      -0.951061      0.437850     -1.062932
  C       0.006145      0.754978     -2.101139
  C       1.448171      0.393631     -1.716627
  O       2.405832      0.997373     -2.187663
  N       1.551311     -0.654614     -0.889088
  C       2.682957     -0.916075     -0.040086
  C       2.124294     -1.137763      1.410226
  O       2.945429     -1.262789      2.327300
  O       0.878374     -1.175214      1.499983
  H      -2.776858     -1.086842      0.442558
  H      -3.585229     -0.299722      1.655307
  H      -3.512761      0.391994      0.137095
  H      -2.001116      1.394591      1.885954
  H      -1.096871     -0.121236      1.808804
  H      -1.337271     -0.493980     -1.101541
  H       0.000280      1.831762     -2.286642
  H      -0.261994      0.233945     -3.019566
  H       0.716512     -0.959395     -0.378559
  H       3.381163     -0.076122     -0.038097
  H       3.220348     -1.818435     -0.345542
24
Coordinates from ORCA-job geo_opt E -43.532373446190
  N      -2.989395     -0.160570      0.828663
  C      -1.758777      0.546481      1.245034
  C      -0.890851      1.094569      0.117213
  O      -0.206071      2.089090      0.294900
  N      -0.950606      0.438628     -1.062881
  C       0.006993      0.755699     -2.100701
  C       1.448604      0.392455     -1.716961
  O       2.406492      0.994489     -2.189830
  N       1.551100     -0.655054     -0.888557
  C       2.683039     -0.917428     -0.040187
  C       2.125326     -1.136068      1.410807
  O       2.946868     -1.258063      2.327855
  O       0.879431     -1.174528      1.500953
  H      -2.777461     -1.085631      0.438522
  H      -3.584161     -0.303797      1.655662
  H      -3.514689      0.393527      0.139480
  H      -2.001136      1.392913      1.887573
  H      -1.096755     -0.122553      1.807301
  H      -1.336241     -0.493461     -1.101623
  H       0.002442      1.832691     -2.285214
  H      -0.261866      0.236064     -3.019710
  H       0.716559     -0.958392     -0.376515
  H       3.383416     -0.079294     -0.040574
  H       3.217739     -1.821768     -0.344742
