24
zwitterion conformer 7
N      -3.38550653    -0.12477345     0.22931057
C      -2.44469855     0.47327010     1.15236208
C      -1.18113433     0.83161524     0.43164267
O      -0.28252335     1.36314285     1.13817374
N      -1.01701359     0.58159292    -0.96872688
C       0.19861576     0.91535897    -1.66743009
C       1.36095590     0.17716235    -1.16776156
O       2.49214216     0.42654572    -1.69291163
N       1.34445013    -0.80145098    -0.14494639
C       2.59873104    -1.41910992     0.21453127
C       3.60568522    -0.44397292     0.69999484
O       4.76416523    -0.83911928     1.05546451
O       3.34697492     0.92250192     0.79170224
H      -2.94081441    -0.98636668    -0.15513375
H      -4.24876625    -0.37441002     0.78081486
H      -3.62643774     0.51736184    -0.54178851
H      -2.89565777     1.36421559     1.63300151
H      -2.17893814    -0.21086470     1.96893043
H      -1.84779728     0.13472631    -1.45926904
H       0.41971427     2.00334856    -1.61882766
H       0.01004530     0.71484585    -2.76190047
H       0.45389589    -1.07121573     0.32120694
H       3.05876334    -1.91746742    -0.68762382
H       2.39514878    -2.23693710     0.93565342
