17
zwitterion CPCM-opt conformer 3
N      -2.25850970     0.46317328    -0.36226131
C      -1.60714813     0.55414697     0.98705352
C      -0.10646389     0.27349595     1.05809652
O       0.43130034     0.41240700     2.17159479
N       0.54582141    -0.10445497    -0.04843592
C       1.96701983    -0.41666446    -0.09093605
C       2.35715935    -0.86794129    -1.52265963
O       3.56872459    -1.17785009    -1.68759119
O       1.43223083    -0.88459150    -2.39001995
H      -2.19284025    -0.47922910    -0.77184664
H      -1.86067882     1.13498833    -1.03341647
H      -3.26212607     0.68106948    -0.28333346
H      -1.78305619     1.56925958     1.36113962
H      -2.12268515    -0.15638727     1.64407966
H       0.11119972    -0.24432610    -0.96750060
H       2.56908778     0.46249234     0.18713963
H       2.21096437    -1.21958816     0.62177983
