17
zwitterion CPCM-opt conformer 1
C       1.97529049    -0.26124378    -0.05124493
C       0.67471930     0.40876486     0.36344399
O       0.70288933     1.83010813     0.11266062
C      -0.56200999    -0.22146471    -0.32887971
N      -1.73168283     0.68853229    -0.09707169
C      -0.94010764    -1.60945781     0.28395801
O      -0.28904749    -2.60548999    -0.11605994
O      -1.86411823    -1.57457433     1.15354657
H       2.81610065     0.18945426     0.49275152
H       1.94511964    -1.33639831     0.16675765
H       2.14158833    -0.13295439    -1.13229241
H       0.53411825     0.33272901     1.45370665
H       0.99666414     1.96543408    -0.80978647
H      -0.39166483    -0.30041117    -1.40995685
H      -1.40224937     1.65090319     0.08495112
H      -2.38074117     0.70349256    -0.89201203
H      -2.22486860     0.27257607     0.72552791
