20
Coordinates from ORCA-job geo_opt E -549.017759672510
  N      -1.412768     -0.821808      1.196702
  C      -1.442300     -0.557843     -0.232631
  C      -0.155421     -1.095173     -0.899797
  C       1.042377     -0.349641     -0.421997
  C       2.130243      0.171728     -1.068681
  N       2.957804      0.784469     -0.175715
  C       2.378934      0.640430      0.989699
  N       1.223516     -0.048064      0.899025
  C      -1.519929      0.930664     -0.530205
  O      -1.652109      1.368396     -1.653666
  O      -1.436873      1.695887      0.537322
  H      -2.154157     -0.319173      1.669819
  H      -1.537685     -1.813712      1.362250
  H      -2.305535     -1.013326     -0.750199
  H      -0.237125     -0.985156     -1.980916
  H      -0.060844     -2.157149     -0.660896
  H       2.370008      0.147798     -2.113085
  H       2.777182      1.016306      1.909826
  H       0.511157     -0.244315      1.595871
  H      -1.476475      2.649681      0.327273
20
Coordinates from ORCA-job geo_opt E -549.023313090603
  N      -1.423368     -0.776026      1.222841
  C      -1.454160     -0.526459     -0.222983
  C      -0.144873     -1.048059     -0.888108
  C       1.090624     -0.341352     -0.413672
  C       2.189563      0.174270     -1.070202
  N       3.072172      0.729550     -0.163168
  C       2.513886      0.553311      1.025906
  N       1.323765     -0.097170      0.923129
  C      -1.626250      0.953927     -0.570171
  O      -1.772881      1.343773     -1.720379
  O      -1.641438      1.764063      0.489311
  H      -2.207438     -0.314019      1.686563
  H      -1.504765     -1.780270      1.396847
  H      -2.297862     -1.030658     -0.730192
  H      -0.230573     -0.930473     -1.974885
  H      -0.074147     -2.126338     -0.674818
  H       2.400717      0.178280     -2.136036
  H       2.942292      0.878689      1.969925
  H       0.606476     -0.304756      1.632028
  H      -1.761739      2.699719      0.218065
20
Coordinates from ORCA-job geo_opt E -549.023849882975
  N      -1.440368     -0.798059      1.223846
  C      -1.459631     -0.523775     -0.221617
  C      -0.147232     -1.038245     -0.880311
  C       1.093837     -0.335929     -0.414554
  C       2.204294      0.156134     -1.077520
  N       3.102739      0.709498     -0.175287
  C       2.533748      0.565723      1.019990
  N       1.328885     -0.064827      0.920798
  C      -1.649640      0.956810     -0.555457
  O      -1.744776      1.361996     -1.708034
  O      -1.652814      1.763597      0.518925
  H      -2.245810     -0.364311      1.680898
  H      -1.522898     -1.807992      1.369795
  H      -2.294748     -1.028243     -0.742656
  H      -0.231923     -0.931276     -1.970050
  H      -0.083719     -2.118429     -0.663195
  H       2.412971      0.135550     -2.145855
  H       2.955193      0.902722      1.965283
  H       0.601887     -0.237140      1.628247
  H      -1.759996      2.696196      0.226755
20
Coordinates from ORCA-job geo_opt E -549.024147928784
  N      -1.428288     -0.773916      1.227139
  C      -1.450482     -0.505715     -0.221309
  C      -0.141828     -1.022748     -0.875239
  C       1.104973     -0.334889     -0.410985
  C       2.221017      0.144663     -1.075860
  N       3.133458      0.684338     -0.176212
  C       2.567852      0.537856      1.023278
  N       1.356240     -0.081070      0.926435
  C      -1.653958      0.968682     -0.561810
  O      -1.770097      1.367615     -1.714198
  O      -1.736713      1.774941      0.518522
  H      -2.250350     -0.360931      1.674300
  H      -1.507158     -1.785158      1.366513
  H      -2.283534     -1.018288     -0.738301
  H      -0.223528     -0.920254     -1.965937
  H      -0.092695     -2.104166     -0.658361
  H       2.419105      0.125055     -2.145708
  H       2.990936      0.861430      1.971504
  H       0.635941     -0.249944      1.638076
  H      -1.890890      2.692500      0.198153
20
Coordinates from ORCA-job geo_opt E -549.024251297494
  N      -1.422361     -0.760481      1.229980
  C      -1.450518     -0.505658     -0.220546
  C      -0.142508     -1.022483     -0.874507
  C       1.100938     -0.332846     -0.408156
  C       2.210214      0.157712     -1.072951
  N       3.121868      0.694012     -0.174505
  C       2.566007      0.528487      1.024724
  N       1.359235     -0.096131      0.929843
  C      -1.659999      0.964869     -0.568713
  O      -1.759971      1.362647     -1.721162
  O      -1.739027      1.778767      0.505878
  H      -2.250046     -0.354241      1.673188
  H      -1.491086     -1.771551      1.376737
  H      -2.283995     -1.024598     -0.730744
  H      -0.222740     -0.919698     -1.964585
  H      -0.091723     -2.103320     -0.658614
  H       2.401383      0.151231     -2.143164
  H       2.992986      0.840787      1.973818
  H       0.649074     -0.281195      1.647298
  H      -1.887729      2.693690      0.176180
20
Coordinates from ORCA-job geo_opt E -549.024289862446
  N      -1.429872     -0.769914      1.227795
  C      -1.449409     -0.506992     -0.221806
  C      -0.141814     -1.028605     -0.872627
  C       1.099601     -0.335023     -0.408440
  C       2.207621      0.151783     -1.075915
  N       3.118932      0.691076     -0.181999
  C       2.561684      0.538313      1.016422
  N       1.353293     -0.081372      0.926552
  C      -1.646396      0.966879     -0.560182
  O      -1.726738      1.378649     -1.708076
  O      -1.739032      1.772663      0.519610
  H      -2.262400     -0.368060      1.666485
  H      -1.500596     -1.782388      1.366671
  H      -2.284971     -1.017251     -0.737847
  H      -0.219250     -0.931910     -1.963107
  H      -0.090214     -2.107844     -0.650579
  H       2.398497      0.137099     -2.145815
  H       2.987068      0.858365      1.963438
  H       0.643611     -0.255049      1.647145
  H      -1.879614      2.689581      0.192275
20
Coordinates from ORCA-job geo_opt E -549.024304178713
  N      -1.431430     -0.770576      1.227452
  C      -1.449392     -0.505595     -0.222276
  C      -0.142458     -1.029684     -0.871760
  C       1.099354     -0.336124     -0.408125
  C       2.207957      0.148100     -1.076952
  N       3.118614      0.691553     -0.184825
  C       2.562055      0.541653      1.014289
  N       1.354618     -0.080996      0.926564
  C      -1.642579      0.969100     -0.558524
  O      -1.712346      1.385750     -1.705517
  O      -1.747012      1.772074      0.523427
  H      -2.267825     -0.374191      1.663920
  H      -1.499128     -1.783721      1.363542
  H      -2.286213     -1.013155     -0.739110
  H      -0.218790     -0.935177     -1.962642
  H      -0.092071     -2.108738     -0.647802
  H       2.397647      0.130594     -2.147288
  H       2.986603      0.864485      1.961053
  H       0.648124     -0.254216      1.649835
  H      -1.885729      2.688863      0.194739
20
Coordinates from ORCA-job geo_opt E -549.024315344997
  N      -1.432798     -0.768881      1.227430
  C      -1.449554     -0.503465     -0.222577
  C      -0.143440     -1.030946     -0.870434
  C       1.099325     -0.337795     -0.407177
  C       2.207362      0.145997     -1.078085
  N       3.119300      0.690731     -0.187727
  C       2.564856      0.542067      1.012565
  N       1.356693     -0.081101      0.927026
  C      -1.638433      0.971884     -0.558243
  O      -1.691785      1.393002     -1.704901
  O      -1.763460      1.771657      0.524874
  H      -2.274479     -0.380596      1.661074
  H      -1.492551     -1.782696      1.362136
  H      -2.288283     -1.008248     -0.739163
  H      -0.218443     -0.938124     -1.961646
  H      -0.094627     -2.109885     -0.644985
  H       2.394589      0.127137     -2.149049
  H       2.990198      0.865419      1.959037
  H       0.655502     -0.254657      1.654559
  H      -1.899974      2.688501      0.195287
20
Coordinates from ORCA-job geo_opt E -549.024320557293
  N      -1.435034     -0.768243      1.227337
  C      -1.449503     -0.501805     -0.222410
  C      -0.143904     -1.031598     -0.869200
  C       1.099787     -0.339093     -0.406618
  C       2.207593      0.143389     -1.079193
  N       3.120460      0.689297     -0.190417
  C       2.567127      0.542435      1.010582
  N       1.358277     -0.080424      0.926801
  C      -1.635237      0.974260     -0.557314
  O      -1.673635      1.398256     -1.703682
  O      -1.778316      1.770680      0.525959
  H      -2.280030     -0.385175      1.659115
  H      -1.488563     -1.782508      1.361050
  H      -2.289383     -1.004083     -0.739764
  H      -0.218187     -0.939346     -1.960480
  H      -0.095972     -2.110370     -0.642934
  H       2.393722      0.122553     -2.150296
  H       2.993259      0.866939      1.956273
  H       0.660389     -0.253522      1.657244
  H      -1.912847      2.688358      0.197945
20
Coordinates from ORCA-job geo_opt E -549.024324299943
  N      -1.436111     -0.766533      1.227559
  C      -1.448938     -0.499778     -0.221821
  C      -0.143984     -1.030887     -0.868153
  C       1.100807     -0.339915     -0.406163
  C       2.208671      0.140791     -1.079971
  N       3.123338      0.685619     -0.192246
  C       2.570539      0.540513      1.009273
  N       1.360363     -0.080098      0.926599
  C      -1.634347      0.976529     -0.556862
  O      -1.659022      1.401714     -1.703187
  O      -1.795698      1.769929      0.525560
  H      -2.283480     -0.387594      1.658202
  H      -1.484030     -1.781075      1.361002
  H      -2.289332     -1.000914     -0.739806
  H      -0.218084     -0.938135     -1.959349
  H      -0.097009     -2.109699     -0.642088
  H       2.394132      0.118576     -2.151098
  H       2.997920      0.865129      1.954272
  H       0.664651     -0.252331      1.659061
  H      -1.930388      2.688159      0.199215
20
Coordinates from ORCA-job geo_opt E -549.024326648018
  N      -1.436149     -0.764899      1.227897
  C      -1.447878     -0.497730     -0.221140
  C      -0.143732     -1.029553     -0.867576
  C       1.102102     -0.340413     -0.406111
  C       2.210747      0.137308     -1.080580
  N       3.126830      0.681097     -0.193643
  C       2.573942      0.538086      1.008141
  N       1.362319     -0.079464      0.926177
  C      -1.634441      0.978669     -0.556078
  O      -1.647050      1.405040     -1.702069
  O      -1.813131      1.768913      0.525427
  H      -2.284785     -0.388348      1.658066
  H      -1.480989     -1.779616      1.361043
  H      -2.288454     -0.998297     -0.739813
  H      -0.218015     -0.936050     -1.958652
  H      -0.097732     -2.108513     -0.642079
  H       2.396202      0.113521     -2.151621
  H       3.002283      0.862909      1.952566
  H       0.667360     -0.250039      1.659635
  H      -1.949430      2.687378      0.200411
20
Coordinates from ORCA-job geo_opt E -549.024329130037
  N      -1.434914     -0.762415      1.228562
  C      -1.446006     -0.494776     -0.220180
  C      -0.143241     -1.027476     -0.867333
  C       1.104085     -0.341048     -0.406440
  C       2.214354      0.131820     -1.081401
  N       3.132409      0.673556     -0.195237
  C       2.578548      0.534631      1.006637
  N       1.364923     -0.078555      0.925404
  C      -1.634816      0.981676     -0.554677
  O      -1.630231      1.410640     -1.699651
  O      -1.839138      1.766967      0.525461
  H      -2.284468     -0.387819      1.658574
  H      -1.477574     -1.777279      1.361383
  H      -2.286980     -0.994767     -0.739353
  H      -0.218028     -0.932854     -1.958243
  H      -0.098716     -2.106742     -0.642915
  H       2.400139      0.105794     -2.152305
  H       3.007932      0.859755      1.950454
  H       0.670186     -0.246514      1.659598
  H      -1.978462      2.685406      0.201661
20
Coordinates from ORCA-job geo_opt E -549.024332903258
  N      -1.431894     -0.758900      1.229721
  C      -1.442943     -0.490514     -0.218797
  C      -0.142439     -1.024554     -0.867625
  C       1.107105     -0.342051     -0.407461
  C       2.220321      0.123055     -1.082670
  N       3.140401      0.662793     -0.197388
  C       2.584939      0.529643      1.004451
  N       1.368261     -0.076982      0.923901
  C      -1.635011      0.986042     -0.552095
  O      -1.604339      1.420429     -1.694516
  O      -1.878524      1.763029      0.525625
  H      -2.281585     -0.385119      1.660131
  H      -1.474069     -1.773856      1.362154
  H      -2.284918     -0.989596     -0.738026
  H      -0.218205     -0.928329     -1.958292
  H      -0.100052     -2.104296     -0.644942
  H       2.407024      0.093528     -2.153325
  H       3.015427      0.855331      1.947567
  H       0.672886     -0.240905      1.658414
  H      -2.022385      2.681251      0.203172
20
Coordinates from ORCA-job geo_opt E -549.024330118753
  N      -1.424546     -0.752411      1.232339
  C      -1.436717     -0.482273     -0.215992
  C      -0.140979     -1.019142     -0.868973
  C       1.112986     -0.344196     -0.410097
  C       2.232186      0.105749     -1.085317
  N       3.155855      0.641295     -0.201234
  C       2.596275      0.520938      1.000078
  N       1.374045     -0.073895      0.920447
  C      -1.634435      0.994620     -0.545936
  O      -1.550903      1.442776     -1.680249
  O      -1.956526      1.752918      0.524373
  H      -2.272969     -0.377682      1.664366
  H      -1.468890     -1.767404      1.364000
  H      -2.281492     -0.979239     -0.734111
  H      -0.218938     -0.919695     -1.959145
  H      -0.102673     -2.099834     -0.649930
  H       2.421014      0.069157     -2.155407
  H       3.028264      0.848010      1.942057
  H       0.676526     -0.230304      1.654721
  H      -2.108083      2.670614      0.204013
20
Coordinates from ORCA-job geo_opt E -549.024338265176
  N      -1.427218     -0.757085      1.230732
  C      -1.440395     -0.488427     -0.218089
  C      -0.141720     -1.022970     -0.869478
  C       1.109209     -0.342776     -0.409405
  C       2.225399      0.116670     -1.083499
  N       3.145468      0.655538     -0.197697
  C       2.587177      0.527417      1.003348
  N       1.368825     -0.075623      0.922057
  C      -1.635093      0.988086     -0.549915
  O      -1.588116      1.428227     -1.689565
  O      -1.903322      1.758764      0.526834
  H      -2.273788     -0.378497      1.663108
  H      -1.475401     -1.771741      1.363502
  H      -2.283701     -0.987402     -0.735609
  H      -0.218772     -0.925446     -1.959947
  H      -0.100384     -2.103125     -0.648471
  H       2.414048      0.084621     -2.153789
  H       3.017125      0.853937      1.946488
  H       0.670290     -0.236903      1.654509
  H      -2.049630      2.676736      0.204885
20
Coordinates from ORCA-job geo_opt E -549.024339820808
  N      -1.426033     -0.757302      1.230934
  C      -1.440069     -0.488633     -0.218079
  C      -0.141738     -1.023413     -0.870121
  C       1.109244     -0.343065     -0.409980
  C       2.225724      0.116411     -1.083693
  N       3.145090      0.655873     -0.197507
  C       2.586336      0.527902      1.003304
  N       1.368072     -0.075561      0.921569
  C      -1.634192      0.987922     -0.549616
  O      -1.585402      1.429302     -1.688744
  O      -1.904650      1.758026      0.527318
  H      -2.271281     -0.376491      1.663947
  H      -1.476716     -1.771802      1.363850
  H      -2.284017     -0.987481     -0.734577
  H      -0.219060     -0.925793     -1.960571
  H      -0.100271     -2.103579     -0.649265
  H       2.414801      0.084185     -2.153916
  H       3.015746      0.854616      1.946637
  H       0.668670     -0.237195      1.653248
  H      -2.050254      2.676079      0.205263
20
Coordinates from ORCA-job geo_opt E -549.024341070673
  N      -1.422745     -0.756724      1.231849
  C      -1.438405     -0.487553     -0.217524
  C      -0.141645     -1.023654     -0.871462
  C       1.110320     -0.344275     -0.411559
  C       2.228113      0.113129     -1.084762
  N       3.146753      0.653153     -0.198111
  C       2.586485      0.527776      1.002200
  N       1.367554     -0.074977      0.919868
  C      -1.631549      0.989207     -0.547837
  O      -1.567913      1.435772     -1.684232
  O      -1.921853      1.754661      0.527977
  H      -2.265392     -0.371686      1.666171
  H      -1.478199     -1.770947      1.364678
  H      -2.284428     -0.985483     -0.731508
  H      -0.219792     -0.925338     -1.961783
  H      -0.100618     -2.103955     -0.651382
  H       2.418210      0.079084     -2.154759
  H       3.014991      0.855248      1.945693
  H       0.666398     -0.236440      1.650197
  H      -2.066286      2.673002      0.206284
20
Coordinates from ORCA-job geo_opt E -549.024341219840
  N      -1.423861     -0.756998      1.231575
  C      -1.439018     -0.488040     -0.217737
  C      -0.141730     -1.023824     -0.871016
  C       1.109897     -0.344001     -0.411054
  C       2.227018      0.114699     -1.084454
  N       3.145743      0.654690     -0.197873
  C       2.586081      0.528071      1.002611
  N       1.367551     -0.075393      0.920392
  C      -1.632105      0.988642     -0.548552
  O      -1.573544      1.433366     -1.685922
  O      -1.915253      1.755867      0.527741
  H      -2.267256     -0.373117      1.665462
  H      -1.477829     -1.771303      1.364403
  H      -2.284511     -0.986296     -0.732214
  H      -0.219575     -0.925747     -1.961378
  H      -0.100473     -2.104048     -0.650603
  H       2.416709      0.081340     -2.154531
  H       3.014736      0.855266      1.946117
  H       0.666976     -0.237370      1.651094
  H      -2.059555      2.674198      0.205939
