20
Coordinates from ORCA-job geo_opt E -549.024341219840
  N          -1.42386144170576     -0.75699786099773      1.23157478234487
  C          -1.43901802542264     -0.48804022359039     -0.21773656618599
  C          -0.14173012458126     -1.02382368286033     -0.87101648284069
  C           1.10989652218599     -0.34400129567236     -0.41105445985132
  C           2.22701846600412      0.11469877553936     -1.08445371675243
  N           3.14574317903458      0.65468986659503     -0.19787321802241
  C           2.58608127793621      0.52807053885162      1.00261139165601
  N           1.36755138660170     -0.07539269330693      0.92039244207086
  C          -1.63210526439389      0.98864209689082     -0.54855199937034
  O          -1.57354378562715      1.43336583809846     -1.68592157992623
  O          -1.91525257409149      1.75586683018420      0.52774063378210
  H          -2.26725627715128     -0.37311744462198      1.66546160336399
  H          -1.47782918236035     -1.77130338641724      1.36440287665677
  H          -2.28451117333136     -0.98629560633278     -0.73221442685065
  H          -0.21957502013131     -0.92574742453944     -1.96137794595277
  H          -0.10047286544348     -2.10404778074273     -0.65060250548849
  H           2.41670880267501      0.08133979900638     -2.15453083814358
  H           3.01473607390360      0.85526564855668      1.94611659253622
  H           0.66697553420890     -0.23737037775556      1.65109432347092
  H          -2.05955549831015      2.67419835311490      0.20593910350315
