20
neutral_delta conformer 3
N      -1.41276763    -0.82180827     1.19670243
C      -1.44229955    -0.55784272    -0.23263057
C      -0.15542077    -1.09517318    -0.89979675
C       1.04237686    -0.34964097    -0.42199694
C       2.13024292     0.17172835    -1.06868063
N       2.95780397     0.78446948    -0.17571548
C       2.37893354     0.64043046     0.98969887
N       1.22351582    -0.04806380     0.89902471
C      -1.51992905     0.93066372    -0.53020478
O      -1.65210926     1.36839604    -1.65366588
O      -1.43687285     1.69588702     0.53732198
H      -2.15415746    -0.31917268     1.66981870
H      -1.53768465    -1.81371223     1.36225007
H      -2.30553533    -1.01332622    -0.75019878
H      -0.23712455    -0.98515633    -1.98091587
H      -0.06084409    -2.15714929    -0.66089643
H       2.37000781     0.14779780    -2.11308468
H       2.77718222     1.01630606     1.90982610
H       0.51115683    -0.24431465     1.59587063
H      -1.47647477     2.64968138     0.32727331
