20
Coordinates from ORCA-job geo_opt E -34.377694533360
  N           1.51935855308266      0.97065208322692     -0.94571081612219
  C           1.66091237613846     -0.31586070642369     -0.23945039466347
  C           0.46477505864022     -1.23532318008147     -0.48309404120758
  C          -0.81265999009854     -0.52843373800853     -0.17898115020453
  C          -1.84674507560555     -0.88424826287502      0.63984537773393
  N          -2.76310688944385      0.12634666883401      0.55829382519515
  C          -2.26440742125585      1.04689524611724     -0.28625322436255
  N          -1.09656450762143      0.68415852377837     -0.75298632912364
  C           1.80582925030357      0.04326688642396      1.29735870961596
  O           1.75062314215774     -0.88484641591320      2.11011748326516
  O           1.98394999319237      1.26017865704024      1.51582337945096
  H           2.06910155160533      1.05179043799471     -1.79926161721900
  H           1.81999543304595      1.65874515106781     -0.20952529498750
  H           0.48510626512414      1.12265100363190     -1.12201232163883
  H           2.58505548266430     -0.82483584097342     -0.52154974121212
  H           0.56133248415367     -2.10179810220302      0.17112447478594
  H           0.46581402658806     -1.57267756370025     -1.52199130206331
  H          -1.98370201288506     -1.74439374740657      1.25972710800472
  H          -3.64076918959676      0.16935000011590      1.05051344727838
  H          -2.76389852018942      1.95838290935411     -0.54198757252547
