20
Coordinates from ORCA-job geo_opt E -34.312923581140
  N       1.692175      0.743816     -1.170086
  C       1.683957     -0.288400     -0.187287
  C       0.455379     -1.144722     -0.197526
  C      -0.789249     -0.423574      0.039663
  C      -2.038764     -1.008465      0.073795
  N      -2.934146     -0.033498      0.315511
  C      -2.298526      1.148882      0.436044
  N      -0.991182      0.879460      0.262976
  C       1.778227      0.358673      1.159692
  O       2.155338     -0.329509      2.165060
  O       1.466200      1.698814      1.358785
  H       1.440895      0.427941     -2.124914
  H       2.695061      1.084971     -1.257376
  H       1.152999      1.592420     -0.858440
  H       2.611721     -0.883746     -0.298803
  H       0.536474     -1.972412      0.532773
  H       0.423797     -1.654514     -1.205345
  H      -2.273550     -2.070850     -0.068229
  H      -3.969902     -0.211305      0.391647
  H      -2.796905      2.086019      0.632059
20
Coordinates from ORCA-job geo_opt E -34.345750419310
  N       1.671790      0.783716     -1.159453
  C       1.697780     -0.280912     -0.166028
  C       0.449426     -1.145134     -0.192532
  C      -0.822954     -0.428295      0.029881
  C      -2.069858     -1.030496      0.084628
  N      -2.960304     -0.044758      0.297869
  C      -2.292983      1.129438      0.365675
  N      -0.999425      0.895555      0.199165
  C       1.841639      0.347461      1.211054
  O       2.227943     -0.357209      2.173737
  O       1.607628      1.620445      1.371956
  H       1.378640      0.479728     -2.099029
  H       2.637252      1.151491     -1.274633
  H       1.116825      1.591302     -0.805472
  H       2.603074     -0.891513     -0.299281
  H       0.546498     -1.956427      0.539468
  H       0.419042     -1.658173     -1.177398
  H      -2.310743     -2.077478     -0.014476
  H      -3.966304     -0.197045      0.387249
  H      -2.774967      2.068304      0.527622
20
Coordinates from ORCA-job geo_opt E -34.358376519220
  N       1.603022      0.815650     -1.138843
  C       1.703649     -0.273246     -0.149968
  C       0.471425     -1.171479     -0.205106
  C      -0.817788     -0.454914      0.009933
  C      -2.064148     -1.043075      0.104560
  N      -2.938413     -0.023738      0.287180
  C      -2.221981      1.124470      0.286004
  N      -0.948391      0.890820      0.114424
  C       1.859431      0.341832      1.266106
  O       2.248945     -0.405059      2.180400
  O       1.603122      1.533202      1.390760
  H       1.277744      0.504131     -2.059854
  H       2.521082      1.251695     -1.270339
  H       0.989717      1.545400     -0.734179
  H       2.603437     -0.871957     -0.307982
  H       0.595645     -1.964337      0.535273
  H       0.445253     -1.680154     -1.176513
  H      -2.333465     -2.074693      0.059797
  H      -3.929799     -0.130059      0.398846
  H      -2.668489      2.085509      0.409501
20
Coordinates from ORCA-job geo_opt E -34.363595883160
  N       1.509126      0.879451     -1.050596
  C       1.701261     -0.276621     -0.152854
  C       0.484546     -1.198425     -0.220281
  C      -0.811346     -0.476972     -0.028550
  C      -2.047143     -1.042979      0.184621
  N      -2.921196     -0.000768      0.272558
  C      -2.201022      1.128083      0.087828
  N      -0.937476      0.876688     -0.109157
  C       1.915865      0.263751      1.308308
  O       2.347290     -0.561778      2.134425
  O       1.763155      1.479076      1.461450
  H       1.128167      0.615449     -1.963357
  H       2.388780      1.384059     -1.188303
  H       0.862133      1.508555     -0.536882
  H       2.598935     -0.846124     -0.397970
  H       0.619599     -1.962307      0.547619
  H       0.468259     -1.727884     -1.177535
  H      -2.324558     -2.067212      0.288260
  H      -3.908007     -0.078713      0.440690
  H      -2.636369      2.104670      0.099725
20
Coordinates from ORCA-job geo_opt E -34.361928774450
  N       1.500053      0.922277     -1.032569
  C       1.727659     -0.270317     -0.183105
  C       0.517094     -1.205829     -0.275624
  C      -0.785024     -0.485358     -0.069483
  C      -1.992573     -1.019712      0.293557
  N      -2.876637      0.026951      0.324909
  C      -2.179695      1.124352     -0.031103
  N      -0.928906      0.859242     -0.286883
  C       1.948073      0.214571      1.322618
  O       2.160858     -0.714796      2.121572
  O       1.609735      1.396033      1.551885
  H       1.114187      0.670005     -1.944345
  H       2.346062      1.487398     -1.133417
  H       0.788626      1.456357     -0.484602
  H       2.620819     -0.827486     -0.466486
  H       0.657466     -1.952648      0.508204
  H       0.499087     -1.735305     -1.230798
  H      -2.262684     -2.021608      0.540674
  H      -3.849916     -0.025176      0.572354
  H      -2.614286      2.101050     -0.097356
20
Coordinates from ORCA-job geo_opt E -34.366560045730
  N       1.591275      0.908552     -1.055461
  C       1.718870     -0.275755     -0.182706
  C       0.496729     -1.190133     -0.312641
  C      -0.807486     -0.480645     -0.085317
  C      -2.000328     -1.031393      0.297530
  N      -2.898966     -0.000024      0.363419
  C      -2.228914      1.116591      0.023898
  N      -0.976484      0.867962     -0.256666
  C       1.853657      0.232690      1.316258
  O       2.082019     -0.651038      2.159149
  O       1.674158      1.457091      1.476444
  H       1.274264      0.655262     -1.993667
  H       2.459377      1.450678     -1.091116
  H       0.844933      1.466503     -0.573060
  H       2.617418     -0.851762     -0.410576
  H       0.615362     -1.959229      0.454912
  H       0.483866     -1.689216     -1.286087
  H      -2.253744     -2.042479      0.535945
  H      -3.868584     -0.073141      0.629613
  H      -2.677420      2.089486     -0.009872
20
Coordinates from ORCA-job geo_opt E -34.367761260130
  N       1.552729      0.907405     -1.045092
  C       1.703735     -0.279423     -0.180827
  C       0.510016     -1.213068     -0.344680
  C      -0.782548     -0.498159     -0.107478
  C      -1.968982     -1.022165      0.325812
  N      -2.847914      0.023574      0.392812
  C      -2.174236      1.122696      0.004314
  N      -0.935785      0.847791     -0.310252
  C       1.767395      0.216056      1.323626
  O       2.035958     -0.650351      2.167305
  O       1.597605      1.431862      1.475390
  H       1.303710      0.649092     -2.003533
  H       2.385744      1.499172     -1.022361
  H       0.746251      1.413428     -0.605462
  H       2.626373     -0.822698     -0.394593
  H       0.619725     -1.997673      0.408046
  H       0.508223     -1.679255     -1.333521
  H      -2.232195     -2.021928      0.600518
  H      -3.808190     -0.027285      0.691350
  H      -2.607612      2.100930     -0.041373
20
Coordinates from ORCA-job geo_opt E -34.369427433810
  N       1.590307      0.904104     -1.056597
  C       1.699643     -0.281548     -0.184593
  C       0.516462     -1.213573     -0.409552
  C      -0.771106     -0.504813     -0.134031
  C      -1.927150     -1.011748      0.389042
  N      -2.803806      0.034052      0.470158
  C      -2.161905      1.118816     -0.001031
  N      -0.945061      0.831980     -0.383644
  C       1.660561      0.206591      1.325023
  O       1.855831     -0.663211      2.183375
  O       1.484269      1.423084      1.468214
  H       1.462255      0.638977     -2.037094
  H       2.382435      1.535727     -0.932131
  H       0.704334      1.361325     -0.718471
  H       2.635820     -0.817753     -0.354130
  H       0.612505     -2.031787      0.307211
  H       0.520495     -1.622033     -1.422757
  H      -2.175000     -1.998003      0.721043
  H      -3.743091     -0.004844      0.829987
  H      -2.597798      2.094656     -0.060022
20
Coordinates from ORCA-job geo_opt E -34.371600511990
  N       1.625795      0.905278     -1.053414
  C       1.693439     -0.288547     -0.189764
  C       0.523844     -1.215455     -0.503466
  C      -0.755595     -0.515939     -0.171181
  C      -1.847404     -0.977955      0.507532
  N      -2.726644      0.064566      0.580229
  C      -2.154918      1.107984     -0.046827
  N      -0.977334      0.791885     -0.521424
  C       1.526499      0.167856      1.321662
  O       1.607994     -0.721675      2.178910
  O       1.324634      1.382864      1.478810
  H       1.710753      0.658028     -2.043236
  H       2.311185      1.604567     -0.765778
  H       0.637952      1.264965     -0.893493
  H       2.646597     -0.807636     -0.312221
  H       0.600354     -2.087618      0.145871
  H       0.537393     -1.532584     -1.548377
  H      -2.054656     -1.928139      0.952694
  H      -3.624764      0.054686      1.035459
  H      -2.605125      2.072866     -0.151986
20
Coordinates from ORCA-job geo_opt E -34.372793477540
  N       1.615665      0.912838     -1.035874
  C       1.686773     -0.294326     -0.191206
  C       0.522786     -1.222468     -0.540701
  C      -0.754887     -0.528953     -0.192549
  C      -1.804694     -0.948146      0.574629
  N      -2.686859      0.092515      0.621426
  C      -2.157849      1.095807     -0.101310
  N      -1.003753      0.752169     -0.614097
  C       1.496020      0.131727      1.323503
  O       1.528799     -0.777730      2.164696
  O       1.304029      1.346870      1.507627
  H       1.826229      0.705679     -2.015628
  H       2.214283      1.648093     -0.654839
  H       0.589885      1.207891     -0.973552
  H       2.648037     -0.797881     -0.310799
  H       0.592540     -2.124070      0.066391
  H       0.544899     -1.493501     -1.597956
  H      -1.982742     -1.866142      1.093542
  H      -3.560119      0.109555      1.123237
  H      -2.619042      2.050075     -0.246544
20
Coordinates from ORCA-job geo_opt E -34.374265281240
  N       1.574079      0.922816     -1.008614
  C       1.676923     -0.301630     -0.191683
  C       0.514949     -1.237131     -0.552245
  C      -0.764961     -0.548153     -0.208558
  C      -1.786282     -0.920251      0.619307
  N      -2.668238      0.121815      0.629259
  C      -2.162627      1.081706     -0.166046
  N      -1.022900      0.708501     -0.690919
  C       1.530265      0.099528      1.328634
  O       1.533031     -0.827846      2.153015
  O       1.402030      1.319821      1.542925
  H       1.900453      0.785502     -1.967286
  H       2.069385      1.685542     -0.535931
  H       0.527222      1.151209     -1.022181
  H       2.642379     -0.788959     -0.334536
  H       0.587438     -2.160218      0.020140
  H       0.546985     -1.479643     -1.616341
  H      -1.944410     -1.807054      1.195044
  H      -3.525579      0.168151      1.156318
  H      -2.630143      2.026296     -0.350301
20
Coordinates from ORCA-job geo_opt E -34.375852884550
  N       1.547935      0.934646     -0.973757
  C       1.660687     -0.314062     -0.195773
  C       0.494766     -1.246133     -0.565332
  C      -0.784338     -0.563123     -0.215655
  C      -1.772859     -0.889376      0.668184
  N      -2.666166      0.144240      0.635276
  C      -2.194396      1.054146     -0.235674
  N      -1.066978      0.657517     -0.770796
  C       1.587454      0.075351      1.325415
  O       1.522882     -0.856960      2.141517
  O       1.619516      1.299721      1.548171
  H       2.016582      0.899538     -1.879488
  H       1.903315      1.699138     -0.381436
  H       0.494490      1.101400     -1.091003
  H       2.621180     -0.801896     -0.365031
  H       0.575697     -2.187565     -0.025846
  H       0.530998     -1.458960     -1.636352
  H      -1.901472     -1.743036      1.298484
  H      -3.508428      0.215616      1.183488
  H      -2.680867      1.979797     -0.464390
20
Coordinates from ORCA-job geo_opt E -34.376635882250
  N       1.515198      0.945841     -0.948647
  C       1.647484     -0.322503     -0.205207
  C       0.472081     -1.251709     -0.542921
  C      -0.807294     -0.566951     -0.209225
  C      -1.800213     -0.877742      0.675316
  N      -2.700492      0.149171      0.606149
  C      -2.225294      1.038482     -0.284510
  N      -1.088242      0.638610     -0.797084
  C       1.705407      0.068052      1.316572
  O       1.596686     -0.851086      2.140837
  O       1.896825      1.282717      1.531715
  H       2.066979      1.006878     -1.802826
  H       1.776194      1.681545     -0.257124
  H       0.470811      1.091849     -1.114698
  H       2.594033     -0.820060     -0.423029
  H       0.567754     -2.187588      0.004036
  H       0.506987     -1.479228     -1.611386
  H      -1.923214     -1.723047      1.317569
  H      -3.549730      0.224417      1.142622
  H      -2.721959      1.952353     -0.538159
20
Coordinates from ORCA-job geo_opt E -34.377119736160
  N       1.523668      0.948711     -0.956071
  C       1.650630     -0.319303     -0.210642
  C       0.470758     -1.243462     -0.527256
  C      -0.808831     -0.553925     -0.200588
  C      -1.817805     -0.885737      0.657530
  N      -2.722209      0.137927      0.592218
  C      -2.236023      1.044078     -0.274970
  N      -1.088514      0.659614     -0.774774
  C       1.726688      0.068810      1.317667
  O       1.647943     -0.853188      2.139499
  O       1.891115      1.286483      1.534151
  H       2.047878      0.988364     -1.828506
  H       1.836811      1.676880     -0.273440
  H       0.481879      1.116501     -1.094248
  H       2.590971     -0.826056     -0.437763
  H       0.568015     -2.160974      0.050855
  H       0.499177     -1.500003     -1.589073
  H      -1.947349     -1.743147      1.282442
  H      -3.581371      0.198937      1.114331
  H      -2.733431      1.959492     -0.521360
20
Coordinates from ORCA-job geo_opt E -34.377521477060
  N       1.534652      0.954826     -0.959050
  C       1.650922     -0.319453     -0.227706
  C       0.469795     -1.237938     -0.521294
  C      -0.807132     -0.541305     -0.194075
  C      -1.823321     -0.888760      0.647844
  N      -2.735362      0.128454      0.588669
  C      -2.247639      1.047882     -0.262523
  N      -1.093195      0.679186     -0.756258
  C       1.733122      0.066241      1.308875
  O       1.646765     -0.846645      2.134817
  O       1.907691      1.284843      1.505464
  H       2.087214      1.007336     -1.812562
  H       1.833785      1.660193     -0.239692
  H       0.502592      1.103515     -1.142811
  H       2.587060     -0.832498     -0.463336
  H       0.566938     -2.127741      0.100365
  H       0.485763     -1.527065     -1.573893
  H      -1.952151     -1.751829      1.265544
  H      -3.599789      0.177060      1.103179
  H      -2.747709      1.963700     -0.501558
20
Coordinates from ORCA-job geo_opt E -34.377630144440
  N       1.528744      0.962674     -0.955866
  C       1.653260     -0.317395     -0.234727
  C       0.464243     -1.235993     -0.500847
  C      -0.813211     -0.535343     -0.186254
  C      -1.840002     -0.888411      0.641924
  N      -2.753501      0.125539      0.573048
  C      -2.260349      1.046198     -0.274748
  N      -1.099749      0.680330     -0.755787
  C       1.778225      0.057594      1.302665
  O       1.697783     -0.858602      2.125527
  O       1.966702      1.275309      1.510889
  H       2.084984      1.032118     -1.806164
  H       1.832104      1.651433     -0.219289
  H       0.498691      1.122978     -1.135233
  H       2.583215     -0.831104     -0.491879
  H       0.562640     -2.113122      0.138753
  H       0.474248     -1.550393     -1.546601
  H      -1.971338     -1.752686      1.257613
  H      -3.624279      0.169748      1.077373
  H      -2.762410      1.959129     -0.520395
20
Coordinates from ORCA-job geo_opt E -34.377671678820
  N       1.523787      0.965342     -0.952957
  C       1.656751     -0.316722     -0.236744
  C       0.465058     -1.237994     -0.492408
  C      -0.812761     -0.534581     -0.183577
  C      -1.844966     -0.889896      0.637687
  N      -2.757129      0.124630      0.566042
  C      -2.257285      1.048587     -0.274731
  N      -1.093279      0.683838     -0.748371
  C       1.787175      0.055097      1.298854
  O       1.712830     -0.863043      2.120960
  O       1.972786      1.273630      1.507041
  H       2.072419      1.037631     -1.808154
  H       1.831997      1.653953     -0.219188
  H       0.491660      1.124165     -1.124896
  H       2.586110     -0.826489     -0.501269
  H       0.561887     -2.110776      0.153209
  H       0.471964     -1.562878     -1.535078
  H      -1.981312     -1.755218      1.250644
  H      -3.631591      0.167643      1.063959
  H      -2.756101      1.963080     -0.521023
20
Coordinates from ORCA-job geo_opt E -34.377688903480
  N       1.520905      0.968938     -0.948948
  C       1.659981     -0.315797     -0.238922
  C       0.465741     -1.237264     -0.488060
  C      -0.812031     -0.531653     -0.181641
  C      -1.844061     -0.885535      0.640716
  N      -2.758630      0.126431      0.563059
  C      -2.260560      1.047287     -0.282068
  N      -1.095250      0.682592     -0.752860
  C       1.794356      0.046977      1.297727
  O       1.726268     -0.876839      2.114137
  O       1.978656      1.263942      1.512682
  H       2.070620      1.047601     -1.802766
  H       1.822674      1.657030     -0.212319
  H       0.487338      1.121800     -1.124911
  H       2.587829     -0.822522     -0.512484
  H       0.560952     -2.107066      0.161579
  H       0.469321     -1.568939     -1.528700
  H      -1.979928     -1.746812      1.259270
  H      -3.633998      0.170262      1.059205
  H      -2.760185      1.959567     -0.534697
20
Coordinates from ORCA-job geo_opt E -34.377692748040
  N       1.519902      0.970088     -0.947077
  C       1.660832     -0.315691     -0.239454
  C       0.465416     -1.236162     -0.484931
  C      -0.812203     -0.529559     -0.180058
  C      -1.845580     -0.884787      0.639999
  N      -2.761307      0.126233      0.560072
  C      -2.262656      1.047158     -0.284431
  N      -1.095745      0.683857     -0.752614
  C       1.800715      0.044719      1.297397
  O       1.738901     -0.881427      2.111712
  O       1.982743      1.261503      1.514221
  H       2.068240      1.049852     -1.801590
  H       1.822368      1.657767     -0.210778
  H       0.485757      1.122497     -1.121942
  H       2.586780     -0.823107     -0.518038
  H       0.560973     -2.103673      0.167835
  H       0.467336     -1.571891     -1.524323
  H      -1.982089     -1.745627      1.259002
  H      -3.638049      0.169358      1.053829
  H      -2.762334      1.958893     -0.538834
20
Coordinates from ORCA-job geo_opt E -34.377694320600
  N       1.519178      0.970497     -0.946137
  C       1.660982     -0.315761     -0.239419
  C       0.465049     -1.235460     -0.483238
  C      -0.812370     -0.528470     -0.179096
  C      -1.846469     -0.884385      0.639686
  N      -2.762722      0.126303      0.558439
  C      -2.263776      1.047129     -0.285741
  N      -1.095992      0.684435     -0.752557
  C       1.804800      0.043495      1.297524
  O       1.748487     -0.884393      2.110401
  O       1.983588      1.260329      1.515965
  H       2.068325      1.051176     -1.800079
  H       1.820190      1.658701     -0.210124
  H       0.484836      1.122288     -1.122137
  H       2.585502     -0.824237     -0.521078
  H       0.561259     -2.102000      0.170905
  H       0.466123     -1.572801     -1.522134
  H      -1.983475     -1.744811      1.259152
  H      -3.640298      0.169232      1.050775
  H      -2.763217      1.958734     -0.541108
20
Coordinates from ORCA-job geo_opt E -34.377694533360
  N       1.519359      0.970652     -0.945711
  C       1.660912     -0.315861     -0.239450
  C       0.464775     -1.235323     -0.483094
  C      -0.812660     -0.528434     -0.178981
  C      -1.846745     -0.884248      0.639845
  N      -2.763107      0.126347      0.558294
  C      -2.264407      1.046895     -0.286253
  N      -1.096565      0.684159     -0.752986
  C       1.805829      0.043267      1.297359
  O       1.750623     -0.884846      2.110117
  O       1.983950      1.260179      1.515823
  H       2.069102      1.051790     -1.799262
  H       1.819995      1.658745     -0.209525
  H       0.485106      1.122651     -1.122012
  H       2.585055     -0.824836     -0.521550
  H       0.561332     -2.101798      0.171124
  H       0.465814     -1.572678     -1.521991
  H      -1.983702     -1.744394      1.259727
  H      -3.640769      0.169350      1.050513
  H      -2.763899      1.958383     -0.541988
