20
zwitterion conformer 1
N       1.69217540     0.74381584    -1.17008599
C       1.68395683    -0.28839969    -0.18728704
C       0.45537858    -1.14472236    -0.19752583
C      -0.78924872    -0.42357450     0.03966289
C      -2.03876426    -1.00846468     0.07379538
N      -2.93414625    -0.03349774     0.31551089
C      -2.29852561     1.14888249     0.43604439
N      -0.99118161     0.87946030     0.26297586
C       1.77822723     0.35867307     1.15969177
O       2.15533827    -0.32950936     2.16506043
O       1.46620035     1.69881426     1.35878457
H       1.44089526     0.42794059    -2.12491361
H       2.69506131     1.08497118    -1.25737570
H       1.15299856     1.59241972    -0.85843977
H       2.61172076    -0.88374649    -0.29880316
H       0.53647424    -1.97241163     0.53277315
H       0.42379711    -1.65451431    -1.20534487
H      -2.27355032    -2.07084992    -0.06822861
H      -3.96990242    -0.21130539     0.39164653
H      -2.79690470     2.08601863     0.63205872
