27
Coordinates from ORCA-job geo_opt E -686.667939145150
  N           2.14004152688791     -1.20299505413930      0.41595596164082
  C           2.55115163042006     -0.00862444300083     -0.40722438900496
  C           1.39267325071629      0.53095302860437     -1.26578581600471
  C           0.12797548539334      0.80882266109761     -0.50167260320309
  C          -0.16357143227785      1.93567925080584      0.24828134949642
  N          -1.41370471491166      1.81498439285419      0.81695585847619
  C          -1.97194254458588      0.60964600894069      0.44992889480037
  C          -3.21795098397300      0.05102328321058      0.76369481807115
  C          -3.51696543066964     -1.19949131429727      0.22451464836652
  C          -2.59779711417576     -1.87666924691570     -0.60971374149988
  C          -1.35904459754631     -1.32007959970290     -0.92026083701686
  C          -1.02186202386737     -0.05796213540815     -0.38686307679032
  C           3.15496396269432      1.02541897431085      0.59965881329527
  O           3.48813812670069      2.14077375145072      0.12928226960423
  O           3.28222427837716      0.61252311069266      1.79717273996974
  H           2.47113470754298     -2.09746362343111      0.03963265194388
  H           1.11766863582623     -1.25035341384162      0.53587960306608
  H           2.57435926488618     -0.99239556267113      1.35378840620861
  H           3.36891421275607     -0.33868578651317     -1.06234567448422
  H           1.76978757697905      1.44529519257074     -1.74411545769549
  H           1.18817315563252     -0.18839245147690     -2.07322006417871
  H           0.42953479604115      2.83028925251290      0.41530126702108
  H          -1.85839341707562      2.51812315816398      1.39834995631402
  H          -3.92756826903409      0.57819567001848      1.40378620659327
  H          -4.47930959704159     -1.66278138224883      0.44864774211065
  H          -2.86764257292005     -2.85227720491355     -1.01806409554048
  H          -0.66098789277512     -1.85355654667315     -1.56928287155955
