27
Coordinates from ORCA-job geo_opt E -686.660905974983
  N       2.002143     -1.236427      0.305922
  C       2.489307     -0.049974     -0.427351
  C       1.413088      0.550187     -1.335360
  C       0.161894      0.832222     -0.567436
  C      -0.111439      1.951312      0.165901
  N      -1.326621      1.832809      0.775926
  C      -1.871061      0.626228      0.450731
  C      -3.081249      0.050002      0.818436
  C      -3.372654     -1.202129      0.321769
  C      -2.486706     -1.871315     -0.528374
  C      -1.285049     -1.310053     -0.896185
  C      -0.956934     -0.043631     -0.402037
  C       2.919105      0.986575      0.692166
  O       3.333119      2.089645      0.331731
  O       2.794401      0.539692      1.854928
  H       2.492267     -2.102459      0.081350
  H       0.988613     -1.352254      0.190443
  H       2.203372     -0.925848      1.311309
  H       3.382917     -0.279772     -1.008870
  H       1.815242      1.480785     -1.738361
  H       1.202397     -0.129312     -2.162527
  H       0.499001      2.824928      0.295038
  H      -1.746258      2.524843      1.372633
  H      -3.769644      0.568333      1.468381
  H      -4.305502     -1.676329      0.587366
  H      -2.759553     -2.846674     -0.902354
  H      -0.624197     -1.831383     -1.572895
27
Coordinates from ORCA-job geo_opt E -686.666772454658
  N       2.109809     -1.235853      0.363737
  C       2.534994     -0.041523     -0.424584
  C       1.402755      0.545725     -1.297782
  C       0.133348      0.828345     -0.536382
  C      -0.157367      1.959684      0.197106
  N      -1.392669      1.836627      0.792032
  C      -1.941645      0.623517      0.452478
  C      -3.170599      0.049992      0.798472
  C      -3.466406     -1.205780      0.280353
  C      -2.564470     -1.876863     -0.571319
  C      -1.343689     -1.311211     -0.918292
  C      -1.007451     -0.044852     -0.398622
  C       3.061235      0.997296      0.650335
  O       3.487661      2.091042      0.230376
  O       3.034307      0.565238      1.843737
  H       2.585456     -2.105037      0.101997
  H       1.089517     -1.371130      0.339369
  H       2.394594     -0.920369      1.348919
  H       3.391337     -0.305058     -1.057771
  H       1.796261      1.476247     -1.725940
  H       1.193539     -0.140496     -2.131053
  H       0.449497      2.848590      0.338612
  H      -1.826991      2.535824      1.386159
  H      -3.872762      0.573657      1.448939
  H      -4.416212     -1.680179      0.530453
  H      -2.838378     -2.856808     -0.965054
  H      -0.665673     -1.836625     -1.593992
27
Coordinates from ORCA-job geo_opt E -686.664750430866
  N       2.134966     -1.237481      0.371568
  C       2.553344     -0.040542     -0.433188
  C       1.405283      0.549422     -1.281908
  C       0.136865      0.827223     -0.516425
  C      -0.155116      1.958052      0.228714
  N      -1.403886      1.837502      0.805244
  C      -1.956768      0.623632      0.455095
  C      -3.197452      0.057070      0.783775
  C      -3.492068     -1.202535      0.260453
  C      -2.575093     -1.881468     -0.577330
  C      -1.341916     -1.317924     -0.905020
  C      -1.007727     -0.048157     -0.383212
  C       3.140789      0.976884      0.617043
  O       3.471049      2.106163      0.184720
  O       3.004968      0.610713      1.833346
  H       2.582290     -2.113400      0.080989
  H       1.113521     -1.365041      0.388044
  H       2.465393     -0.938352      1.345020
  H       3.379618     -0.337152     -1.093325
  H       1.800252      1.478018     -1.718582
  H       1.192895     -0.134474     -2.119266
  H       0.445885      2.852544      0.380650
  H      -1.845632      2.539674      1.392389
  H      -3.907702      0.586222      1.425093
  H      -4.449882     -1.672806      0.497926
  H      -2.844607     -2.863571     -0.975364
  H      -0.649267     -1.850216     -1.564165
27
Coordinates from ORCA-job geo_opt E -686.667478123730
  N       2.123704     -1.221821      0.378697
  C       2.546768     -0.021174     -0.429532
  C       1.394803      0.562835     -1.269431
  C       0.126414      0.833227     -0.506056
  C      -0.173538      1.964056      0.241133
  N      -1.430370      1.840953      0.802363
  C      -1.977649      0.622860      0.449342
  C      -3.222410      0.056192      0.766160
  C      -3.507139     -1.209277      0.245483
  C      -2.574769     -1.891951     -0.575805
  C      -1.337063     -1.324965     -0.889684
  C      -1.013940     -0.049129     -0.373734
  C       3.158120      0.982036      0.608539
  O       3.572767      2.081355      0.161923
  O       3.195227      0.557451      1.817011
  H       2.560788     -2.098885      0.077022
  H       1.102998     -1.349645      0.400309
  H       2.459525     -0.934001      1.349713
  H       3.357121     -0.343081     -1.097608
  H       1.789313      1.489009     -1.713275
  H       1.186693     -0.124111     -2.105684
  H       0.416064      2.865169      0.397870
  H      -1.881451      2.544151      1.379538
  H      -3.941202      0.587187      1.395881
  H      -4.466514     -1.680283      0.474153
  H      -2.833643     -2.877670     -0.971271
  H      -0.630616     -1.860489     -1.530776
27
Coordinates from ORCA-job geo_opt E -686.667664860971
  N       2.121801     -1.218080      0.395548
  C       2.542898     -0.025428     -0.419699
  C       1.395600      0.546545     -1.275068
  C       0.128552      0.823131     -0.514769
  C      -0.169383      1.955743      0.221867
  N      -1.410541      1.827245      0.807064
  C      -1.960763      0.614768      0.454549
  C      -3.197330      0.046225      0.785159
  C      -3.493400     -1.207120      0.252478
  C      -2.581497     -1.877439     -0.593980
  C      -1.352428     -1.311129     -0.922710
  C      -1.016862     -0.047662     -0.392629
  C       3.128259      0.999448      0.613353
  O       3.551231      2.087425      0.159859
  O       3.146386      0.592476      1.821556
  H       2.560432     -2.096162      0.100809
  H       1.100155     -1.342150      0.415759
  H       2.458371     -0.924657      1.363577
  H       3.365753     -0.339621     -1.074637
  H       1.785460      1.469773     -1.724808
  H       1.189629     -0.150027     -2.101409
  H       0.422635      2.853162      0.373655
  H      -1.851944      2.526035      1.395766
  H      -3.903114      0.568896      1.432272
  H      -4.448152     -1.678113      0.489950
  H      -2.850110     -2.854873     -0.997240
  H      -0.661638     -1.838410     -1.583989
27
Coordinates from ORCA-job geo_opt E -686.667772991371
  N       2.129540     -1.212688      0.403180
  C       2.546491     -0.021540     -0.420379
  C       1.392900      0.544454     -1.270773
  C       0.127703      0.818768     -0.507050
  C      -0.166689      1.947240      0.238911
  N      -1.413775      1.822888      0.813453
  C      -1.966972      0.612940      0.454153
  C      -3.208462      0.049000      0.775692
  C      -3.504890     -1.203959      0.240526
  C      -2.588263     -1.877756     -0.599072
  C      -1.353986     -1.315508     -0.917924
  C      -1.018161     -0.052319     -0.386068
  C       3.145294      1.004041      0.600319
  O       3.549298      2.096835      0.137822
  O       3.185076      0.602301      1.810613
  H       2.559002     -2.093045      0.100996
  H       1.107862     -1.333402      0.436083
  H       2.478929     -0.923228      1.365890
  H       3.361299     -0.345554     -1.080982
  H       1.779391      1.466527     -1.726730
  H       1.186540     -0.155458     -2.094680
  H       0.425712      2.843718      0.398167
  H      -1.857024      2.522836      1.399775
  H      -3.917045      0.574070      1.418494
  H      -4.463508     -1.671540      0.471054
  H      -2.856966     -2.854333     -1.005485
  H      -0.659296     -1.845288     -1.573701
27
Coordinates from ORCA-job geo_opt E -686.667841852522
  N       2.147272     -1.196924      0.430506
  C       2.553318     -0.015416     -0.416594
  C       1.388586      0.530344     -1.264691
  C       0.126412      0.804132     -0.496576
  C      -0.160537      1.926360      0.262403
  N      -1.411018      1.805950      0.830688
  C      -1.972929      0.604051      0.456698
  C      -3.220642      0.047829      0.767830
  C      -3.525036     -1.197703      0.219256
  C      -2.610003     -1.871134     -0.622705
  C      -1.369249     -1.316429     -0.930276
  C      -1.025134     -0.060835     -0.385162
  C       3.167155      1.024442      0.575522
  O       3.547835      2.116164      0.088262
  O       3.241629      0.641986      1.790135
  H       2.556819     -2.083723      0.119141
  H       1.125808     -1.307244      0.492076
  H       2.524943     -0.910510      1.379709
  H       3.358335     -0.355973     -1.081252
  H       1.766220      1.447958     -1.737228
  H       1.182770     -0.182244     -2.077939
  H       0.434815      2.818853      0.434118
  H      -1.851894      2.504780      1.420170
  H      -3.927421      0.572656      1.413116
  H      -4.488818     -1.659156      0.441509
  H      -2.884379     -2.841694     -1.040156
  H      -0.674859     -1.846520     -1.586279
27
Coordinates from ORCA-job geo_opt E -686.667877515374
  N       2.150912     -1.197265      0.428678
  C       2.554639     -0.011544     -0.414042
  C       1.388443      0.526129     -1.265290
  C       0.126754      0.801908     -0.496788
  C      -0.158089      1.923533      0.263625
  N      -1.408903      1.804805      0.831269
  C      -1.972824      0.604531      0.455627
  C      -3.221574      0.050215      0.765708
  C      -3.527053     -1.194819      0.217205
  C      -2.611680     -1.870132     -0.622599
  C      -1.370036     -1.317564     -0.929140
  C      -1.025751     -0.061404     -0.385939
  C       3.162580      1.030282      0.579311
  O       3.528877      2.128000      0.093693
  O       3.250387      0.643962      1.790774
  H       2.551345     -2.083751      0.104695
  H       1.128933     -1.300868      0.497197
  H       2.536419     -0.924611      1.376743
  H       3.362756     -0.349387     -1.076468
  H       1.763245      1.441021     -1.745164
  H       1.182810     -0.193173     -2.072414
  H       0.437765      2.815224      0.437510
  H      -1.849152      2.504512      1.420202
  H      -3.928091      0.576056      1.410430
  H      -4.491697     -1.654802      0.438765
  H      -2.886302     -2.841074     -1.039035
  H      -0.674717     -1.849785     -1.582270
27
Coordinates from ORCA-job geo_opt E -686.667917796364
  N       2.153944     -1.201654      0.420049
  C       2.555623     -0.006016     -0.409106
  C       1.390174      0.521054     -1.267355
  C       0.128015      0.801583     -0.499958
  C      -0.156009      1.925015      0.257831
  N      -1.406247      1.807468      0.827159
  C      -1.971283      0.607477      0.453177
  C      -3.219847      0.053661      0.765216
  C      -3.525462     -1.192474      0.219909
  C      -2.609973     -1.870104     -0.617719
  C      -1.368960     -1.318248     -0.926844
  C      -1.025705     -0.059777     -0.388824
  C       3.148785      1.036220      0.593699
  O       3.492967      2.145217      0.116138
  O       3.254413      0.638032      1.798207
  H       2.533220     -2.087282      0.069391
  H       1.131143     -1.288509      0.503519
  H       2.554784     -0.960186      1.366591
  H       3.372973     -0.333672     -1.065607
  H       1.762060      1.431279     -1.757745
  H       1.184853     -0.208369     -2.065209
  H       0.439666      2.816686      0.431433
  H      -1.846218      2.509257      1.413694
  H      -3.925972      0.580885      1.409117
  H      -4.490026     -1.651800      0.442790
  H      -2.883958     -2.842899     -1.030141
  H      -0.672957     -1.852844     -1.577126
27
Coordinates from ORCA-job geo_opt E -686.667927161227
  N       2.152216     -1.202595      0.418204
  C       2.555120     -0.005893     -0.407998
  C       1.391009      0.521484     -1.267301
  C       0.128336      0.802804     -0.500520
  C      -0.156886      1.927154      0.255382
  N      -1.407061      1.809161      0.824933
  C      -1.971152      0.608404      0.452304
  C      -3.219088      0.053524      0.765108
  C      -3.523542     -1.193575      0.221352
  C      -2.607636     -1.871135     -0.615924
  C      -1.367260     -1.318296     -0.925925
  C      -1.025058     -0.059088     -0.388925
  C       3.147357      1.035668      0.597063
  O       3.486906      2.146828      0.121053
  O       3.258437      0.633917      1.799610
  H       2.518707     -2.090003      0.058492
  H       1.129306     -1.278818      0.511754
  H       2.562174     -0.972191      1.362808
  H       3.374522     -0.331331     -1.063120
  H       1.763080      1.431251     -1.758182
  H       1.185486     -0.208310     -2.064827
  H       0.438457      2.819185      0.427761
  H      -1.847849      2.511579      1.410093
  H      -3.925722      0.580800      1.408341
  H      -4.487610     -1.653606      0.444642
  H      -2.880955     -2.844507     -1.027285
  H      -0.671293     -1.852411     -1.576609
27
Coordinates from ORCA-job geo_opt E -686.667935100820
  N       2.146268     -1.203697      0.415674
  C       2.553352     -0.007299     -0.407389
  C       1.392182      0.525433     -1.266568
  C       0.128486      0.806323     -0.501104
  C      -0.159998      1.932238      0.251279
  N      -1.410173      1.812756      0.820674
  C      -1.971351      0.609736      0.451030
  C      -3.217977      0.052393      0.764857
  C      -3.519455     -1.196720      0.223850
  C      -2.602048     -1.873858     -0.612322
  C      -1.362824     -1.318617     -0.923228
  C      -1.023350     -0.057836     -0.388079
  C       3.149268      1.030967      0.600180
  O       3.485656      2.144148      0.126710
  O       3.266938      0.623709      1.800300
  H       2.494206     -2.094558      0.046082
  H       1.123439     -1.264248      0.523141
  H       2.568305     -0.986007      1.357446
  H       3.373487     -0.332404     -1.061834
  H       1.766285      1.436336     -1.753635
  H       1.186371     -0.200718     -2.067519
  H       0.434269      2.825519      0.420784
  H      -1.853055      2.515870      1.403454
  H      -3.926142      0.579525      1.406534
  H      -4.482399     -1.658710      0.447863
  H      -2.873517     -2.848489     -1.021857
  H      -0.666222     -1.851794     -1.574036
27
Coordinates from ORCA-job geo_opt E -686.667937496175
  N       2.143048     -1.203549      0.415546
  C       2.552272     -0.008171     -0.407321
  C       1.392458      0.528197     -1.265881
  C       0.128292      0.807928     -0.501073
  C      -0.161960      1.934392      0.249889
  N      -1.412243      1.814185      0.818751
  C      -1.971786      0.609934      0.450460
  C      -3.217968      0.051620      0.764267
  C      -3.517927     -1.198350      0.224310
  C      -2.599522     -1.875355     -0.610951
  C      -1.360629     -1.319127     -0.921678
  C      -1.022531     -0.057654     -0.387275
  C       3.152278      1.028017      0.600079
  O       3.487479      2.141945      0.127619
  O       3.274352      0.618228      1.799038
  H       2.481606     -2.096445      0.042132
  H       1.120456     -1.256574      0.530246
  H       2.571583     -0.990493      1.355335
  H       3.371433     -0.335110     -1.062137
  H       1.767944      1.440470     -1.749330
  H       1.186847     -0.194758     -2.069854
  H       0.431698      2.828375      0.418051
  H      -1.856296      2.517481      1.400441
  H      -3.927049      0.578702      1.405008
  H      -4.480447     -1.661238      0.448386
  H      -2.870041     -2.850528     -1.019843
  H      -0.663346     -1.852122     -1.571932
27
Coordinates from ORCA-job geo_opt E -686.667938741046
  N       2.140883     -1.203122      0.415924
  C       2.551489     -0.008645     -0.407314
  C       1.392567      0.530186     -1.265607
  C       0.128075      0.808674     -0.501258
  C      -0.163200      1.935397      0.248980
  N      -1.413424      1.814765      0.817620
  C      -1.971991      0.609750      0.450139
  C      -3.218020      0.051102      0.763834
  C      -3.517219     -1.199253      0.224350
  C      -2.598217     -1.876291     -0.610218
  C      -1.359416     -1.319707     -0.920693
  C      -1.022041     -0.057824     -0.386839
  C       3.154567      1.026093      0.599510
  O       3.488792      2.140692      0.128053
  O       3.279951      0.614540      1.797649
  H       2.474035     -2.097291      0.040685
  H       1.118453     -1.251975      0.534560
  H       2.573414     -0.991818      1.354357
  H       3.369549     -0.337758     -1.062488
  H       1.769169      1.443816     -1.745675
  H       1.187520     -0.190167     -2.072056
  H       0.430078      2.829823      0.416331
  H      -1.858046      2.517996      1.398959
  H      -3.927569      0.578189      1.404074
  H      -4.479581     -1.662527      0.448412
  H      -2.868235     -2.851746     -1.018806
  H      -0.661583     -1.852900     -1.570201
27
Coordinates from ORCA-job geo_opt E -686.667939145150
  N       2.140042     -1.202995      0.415956
  C       2.551152     -0.008624     -0.407224
  C       1.392673      0.530953     -1.265786
  C       0.127975      0.808823     -0.501673
  C      -0.163571      1.935679      0.248281
  N      -1.413705      1.814984      0.816956
  C      -1.971943      0.609646      0.449929
  C      -3.217951      0.051023      0.763695
  C      -3.516965     -1.199491      0.224515
  C      -2.597797     -1.876669     -0.609714
  C      -1.359045     -1.320080     -0.920261
  C      -1.021862     -0.057962     -0.386863
  C       3.154964      1.025419      0.599659
  O       3.488138      2.140774      0.129282
  O       3.282224      0.612523      1.797173
  H       2.471135     -2.097464      0.039633
  H       1.117669     -1.250353      0.535880
  H       2.574359     -0.992396      1.353788
  H       3.368914     -0.338686     -1.062346
  H       1.769788      1.445295     -1.744115
  H       1.188173     -0.188392     -2.073220
  H       0.429535      2.830289      0.415301
  H      -1.858393      2.518123      1.398350
  H      -3.927568      0.578196      1.403786
  H      -4.479310     -1.662781      0.448648
  H      -2.867643     -2.852277     -1.018064
  H      -0.660988     -1.853557     -1.569283
