27
zwitterion conformer 1
N       2.00214284    -1.23642698     0.30592175
C       2.48930677    -0.04997409    -0.42735074
C       1.41308786     0.55018672    -1.33535951
C       0.16189418     0.83222169    -0.56743558
C      -0.11143892     1.95131196     0.16590128
N      -1.32662056     1.83280902     0.77592624
C      -1.87106125     0.62622763     0.45073106
C      -3.08124854     0.05000159     0.81843607
C      -3.37265367    -1.20212854     0.32176922
C      -2.48670601    -1.87131509    -0.52837417
C      -1.28504935    -1.31005315    -0.89618545
C      -0.95693351    -0.04363143    -0.40203705
C       2.91910502     0.98657456     0.69216634
O       3.33311908     2.08964530     0.33173142
O       2.79440145     0.53969218     1.85492834
H       2.49226654    -2.10245926     0.08134956
H       0.98861301    -1.35225365     0.19044292
H       2.20337157    -0.92584772     1.31130947
H       3.38291672    -0.27977222    -1.00886989
H       1.81524203     1.48078479    -1.73836073
H       1.20239695    -0.12931214    -2.16252741
H       0.49900148     2.82492809     0.29503801
H      -1.74625808     2.52484323     1.37263294
H      -3.76964362     0.56833325     1.46838104
H      -4.30550175    -1.67632864     0.58736626
H      -2.75955299    -2.84667404    -0.90235368
H      -0.62419723    -1.83138309    -1.57289515
