27
zwitterion CPCM-opt conformer 3
N      -2.05747586    -0.34083599    -1.05651470
C      -2.49454673     0.20441664     0.27810254
C      -1.39579451    -0.00231516     1.34205715
C      -0.06949583     0.60684908     0.98449237
C       0.28058824     1.94349439     1.06667223
N       1.57397939     2.12084529     0.62455343
C       2.10174335     0.90644050     0.24484358
C       3.36978019     0.58236505    -0.25543671
C       3.62444204    -0.75754440    -0.54487709
C       2.64022970    -1.75171985    -0.33859616
C       1.37999163    -1.42816262     0.15939193
C       1.08651392    -0.08032762     0.45855202
C      -3.79925325    -0.56181984     0.66163509
O      -4.04434899    -1.60221958    -0.02603579
O      -4.45820238    -0.09653172     1.62366708
H      -2.34471611     0.26114207    -1.83678339
H      -2.58569581    -1.24729129    -1.12634047
H      -1.04054632    -0.48511878    -1.12376320
H      -2.70483998     1.27309512     0.15426237
H      -1.27344902    -1.08318833     1.51744782
H      -1.78873165     0.42728290     2.27422037
H      -0.30013099     2.79320222     1.41526938
H       2.06052290     3.01141087     0.59511833
H       4.12886834     1.35126579    -0.40974496
H       4.60215805    -1.04455708    -0.93581967
H       2.87609986    -2.79155073    -0.57235078
H       0.63230983    -2.20862695     0.31754047
