20
Coordinates from ORCA-job geo_opt E -34.324536610780
  N       2.200025     -1.247040     -0.982421
  C       1.086097     -0.757812     -0.149251
  C      -0.003738     -0.195368     -1.010096
  C      -1.220413      0.241815     -0.306099
  C      -2.248373      0.900696     -1.004537
  N      -3.198105      1.206644     -0.111119
  C      -2.843166      0.786293      1.106891
  N      -1.617889      0.192371      0.961591
  C       1.660507      0.308192      0.756536
  O       1.023528      1.050000      1.493831
  O       3.063987      0.478614      0.766299
  H       1.766855     -2.035844     -1.538442
  H       2.849176     -1.700885     -0.311053
  H       0.743782     -1.569043      0.474657
  H       0.379154      0.593301     -1.706498
  H      -0.305875     -1.039980     -1.708312
  H      -2.304278      1.134172     -2.046888
  H      -3.407009      0.887987      2.044661
  H      -1.150647     -0.233799      1.771936
  H       3.526382      0.999683      1.498314
20
Coordinates from ORCA-job geo_opt E -34.347213650310
  N       2.218114     -1.269837     -0.984607
  C       1.111661     -0.766042     -0.136720
  C       0.001915     -0.210056     -1.016266
  C      -1.227733      0.255064     -0.323651
  C      -2.272335      0.914117     -0.978327
  N      -3.231072      1.228456     -0.090388
  C      -2.823540      0.799315      1.087864
  N      -1.602474      0.205437      0.957584
  C       1.657064      0.306673      0.774338
  O       1.001741      1.026038      1.499460
  O       3.008005      0.439825      0.774862
  H       1.825688     -2.037326     -1.536481
  H       2.903779     -1.693697     -0.362063
  H       0.741266     -1.570521      0.510362
  H       0.389280      0.566046     -1.685216
  H      -0.291169     -1.033171     -1.699830
  H      -2.350029      1.149152     -2.016369
  H      -3.354195      0.897496      2.009421
  H      -1.118562     -0.204573      1.745800
  H       3.412595      0.997603      1.470227
20
Coordinates from ORCA-job geo_opt E -34.354699623860
  N       2.199774     -1.287939     -0.969327
  C       1.123557     -0.765849     -0.116444
  C       0.010065     -0.220143     -1.024127
  C      -1.230320      0.270348     -0.354576
  C      -2.278364      0.926223     -0.970062
  N      -3.242674      1.238248     -0.074488
  C      -2.801665      0.791696      1.071400
  N      -1.588642      0.198420      0.947030
  C       1.666501      0.309226      0.801705
  O       0.993903      1.013011      1.521846
  O       2.972792      0.398737      0.777072
  H       1.824902     -2.042669     -1.525162
  H       2.925341     -1.682711     -0.385743
  H       0.714769     -1.553278      0.545083
  H       0.417043      0.559270     -1.662849
  H      -0.273331     -1.031220     -1.700014
  H      -2.376166      1.173853     -2.007089
  H      -3.317711      0.881173      1.997740
  H      -1.079209     -0.205046      1.713640
  H       3.339434      1.028652      1.414366
20
Coordinates from ORCA-job geo_opt E -34.356389426200
  N       2.175578     -1.311649     -0.950178
  C       1.118673     -0.766576     -0.103876
  C       0.014395     -0.217341     -1.027678
  C      -1.230837      0.284822     -0.374162
  C      -2.276985      0.942956     -0.974029
  N      -3.247612      1.236369     -0.070484
  C      -2.800497      0.770661      1.064199
  N      -1.588865      0.182115      0.935016
  C       1.678528      0.310844      0.813608
  O       1.001816      0.993832      1.553787
  O       2.984798      0.388587      0.772565
  H       1.801621     -2.073786     -1.501402
  H       2.925963     -1.681430     -0.379861
  H       0.678746     -1.532966      0.567006
  H       0.441246      0.574159     -1.642659
  H      -0.263287     -1.023076     -1.712463
  H      -2.380794      1.209565     -2.006987
  H      -3.317868      0.844007      1.996464
  H      -1.058950     -0.217861      1.690095
  H       3.344332      1.086768      1.351039
20
Coordinates from ORCA-job geo_opt E -34.356920293050
  N       2.158010     -1.341173     -0.925865
  C       1.107328     -0.784595     -0.093549
  C       0.023402     -0.214080     -1.029744
  C      -1.222867      0.299746     -0.389254
  C      -2.266718      0.964438     -0.976263
  N      -3.237876      1.241785     -0.062267
  C      -2.790326      0.754623      1.063590
  N      -1.581592      0.166133      0.923467
  C       1.672687      0.285421      0.834831
  O       0.987481      0.947636      1.587653
  O       2.973667      0.429458      0.729540
  H       1.792274     -2.110111     -1.474682
  H       2.924459     -1.686722     -0.360868
  H       0.634386     -1.534690      0.574422
  H       0.473751      0.588045     -1.618696
  H      -0.251910     -1.009043     -1.728462
  H      -2.375510      1.253451     -2.002815
  H      -3.308353      0.812553      2.000086
  H      -1.028490     -0.225629      1.667438
  H       3.316196      1.162754      1.281437
20
Coordinates from ORCA-job geo_opt E -34.357181194430
  N       2.134878     -1.362130     -0.909850
  C       1.097766     -0.781872     -0.090026
  C       0.025692     -0.202609     -1.034249
  C      -1.224039      0.316909     -0.407280
  C      -2.275879      0.969481     -0.987531
  N      -3.247427      1.227048     -0.063702
  C      -2.792845      0.736640      1.058643
  N      -1.580611      0.159919      0.908695
  C       1.680788      0.297588      0.819193
  O       1.018860      0.882159      1.653665
  O       2.982245      0.457797      0.686807
  H       1.774071     -2.152285     -1.432160
  H       2.925838     -1.665581     -0.354151
  H       0.602822     -1.504955      0.591738
  H       0.489291      0.605062     -1.610446
  H      -0.243383     -0.996091     -1.737744
  H      -2.396415      1.269647     -2.009161
  H      -3.310932      0.781610      1.998446
  H      -0.993919     -0.200593      1.644220
  H       3.333199      1.162254      1.274894
20
Coordinates from ORCA-job geo_opt E -34.357654810230
  N       2.138778     -1.369111     -0.910566
  C       1.097505     -0.794708     -0.087209
  C       0.032177     -0.197198     -1.028113
  C      -1.219822      0.319540     -0.402235
  C      -2.273503      0.967997     -0.988134
  N      -3.247633      1.225066     -0.069145
  C      -2.794095      0.743618      1.057101
  N      -1.579134      0.169692      0.911609
  C       1.677671      0.271578      0.835608
  O       1.023492      0.833525      1.691243
  O       2.962232      0.492510      0.655847
  H       1.779277     -2.155780     -1.437968
  H       2.926522     -1.677134     -0.354026
  H       0.600153     -1.525749      0.583021
  H       0.499369      0.609984     -1.599684
  H      -0.237089     -0.982889     -1.740043
  H      -2.393066      1.264073     -2.010629
  H      -3.314931      0.790001      1.993249
  H      -0.988568     -0.175774      1.651091
  H       3.310663      1.190760      1.248982
20
Coordinates from ORCA-job geo_opt E -34.358505167710
  N       2.146142     -1.387108     -0.915555
  C       1.090697     -0.837067     -0.087515
  C       0.052110     -0.184061     -1.022412
  C      -1.202379      0.331208     -0.399900
  C      -2.273634      0.945901     -0.997188
  N      -3.241832      1.214339     -0.079525
  C      -2.771786      0.778379      1.058000
  N      -1.548109      0.218320      0.917712
  C       1.652561      0.191170      0.878922
  O       1.033916      0.610706      1.837558
  O       2.860049      0.608050      0.584550
  H       1.799952     -2.166443     -1.459295
  H       2.932032     -1.695613     -0.359398
  H       0.577680     -1.589851      0.543034
  H       0.536939      0.624018     -1.573886
  H      -0.219055     -0.945722     -1.759237
  H      -2.410204      1.211097     -2.025334
  H      -3.287415      0.841952      1.992539
  H      -0.922284     -0.051594      1.660887
  H       3.194618      1.282318      1.206039
20
Coordinates from ORCA-job geo_opt E -34.358895383060
  N       2.145574     -1.397000     -0.919216
  C       1.088180     -0.857244     -0.083372
  C       0.066400     -0.168703     -1.013049
  C      -1.194114      0.339305     -0.395504
  C      -2.276710      0.923629     -1.005542
  N      -3.245784      1.200580     -0.093383
  C      -2.767215      0.798763      1.053408
  N      -1.536448      0.250319      0.923481
  C       1.653681      0.145978      0.902579
  O       1.084840      0.464999      1.929993
  O       2.795456      0.673454      0.542800
  H       1.798049     -2.165714     -1.475591
  H       2.927330     -1.718831     -0.365338
  H       0.564644     -1.620921      0.523707
  H       0.564731      0.643873     -1.544430
  H      -0.201207     -0.910352     -1.771231
  H      -2.420944      1.161654     -2.039382
  H      -3.283791      0.873397      1.985722
  H      -0.894052      0.026262      1.670390
  H       3.131380      1.336553      1.173959
20
Coordinates from ORCA-job geo_opt E -34.359257962770
  N       2.158571     -1.389485     -0.925605
  C       1.078934     -0.878535     -0.094761
  C       0.078187     -0.159786     -1.024137
  C      -1.180972      0.340542     -0.398241
  C      -2.288283      0.873432     -1.011585
  N      -3.241307      1.179672     -0.092687
  C      -2.728087      0.844242      1.061296
  N      -1.490887      0.310057      0.930718
  C       1.618702      0.102221      0.923988
  O       1.082561      0.307246      1.999386
  O       2.704917      0.722135      0.547583
  H       1.820491     -2.137998     -1.514518
  H       2.920192     -1.741033     -0.360618
  H       0.545192     -1.663660      0.473776
  H       0.592423      0.658913     -1.530662
  H      -0.190361     -0.879053     -1.803274
  H      -2.460121      1.053311     -2.053621
  H      -3.227322      0.949765      2.000781
  H      -0.824019      0.135799      1.673190
  H       3.031187      1.372216      1.198991
20
Coordinates from ORCA-job geo_opt E -34.359668940140
  N       2.150181     -1.393859     -0.913988
  C       1.072941     -0.867661     -0.087496
  C       0.088938     -0.132367     -1.021566
  C      -1.180075      0.344355     -0.396471
  C      -2.296056      0.845832     -1.017610
  N      -3.255370      1.152145     -0.103411
  C      -2.736241      0.839424      1.054894
  N      -1.490176      0.326148      0.934200
  C       1.633246      0.109349      0.926427
  O       1.127928      0.291492      2.022064
  O       2.714172      0.721122      0.524588
  H       1.792190     -2.119720     -1.521147
  H       2.882940     -1.793641     -0.340526
  H       0.523575     -1.647098      0.473741
  H       0.617643      0.701194     -1.489938
  H      -0.166311     -0.826012     -1.827406
  H      -2.468544      1.000851     -2.064265
  H      -3.240833      0.940407      1.994111
  H      -0.833422      0.138584      1.683822
  H       3.063276      1.369456      1.169975
20
Coordinates from ORCA-job geo_opt E -34.360038067440
  N       2.137115     -1.414512     -0.894923
  C       1.062084     -0.863582     -0.085671
  C       0.106221     -0.100878     -1.026537
  C      -1.173353      0.351725     -0.406240
  C      -2.304640      0.815120     -1.024024
  N      -3.266560      1.106053     -0.103884
  C      -2.728095      0.827402      1.053754
  N      -1.468249      0.353290      0.931325
  C       1.640933      0.106364      0.931291
  O       1.157646      0.263856      2.039859
  O       2.698733      0.740733      0.504032
  H       1.764108     -2.114569     -1.525906
  H       2.836340     -1.858943     -0.311016
  H       0.482207     -1.626100      0.467417
  H       0.653667      0.751090     -1.440930
  H      -0.132281     -0.760978     -1.863666
  H      -2.488114      0.949503     -2.071377
  H      -3.227054      0.928038      1.997481
  H      -0.810646      0.164332      1.677172
  H       3.059938      1.382056      1.151843
20
Coordinates from ORCA-job geo_opt E -34.360361524300
  N       2.126736     -1.431422     -0.882254
  C       1.054065     -0.855448     -0.088018
  C       0.126415     -0.056282     -1.026665
  C      -1.169997      0.356272     -0.414059
  C      -2.325564      0.753591     -1.031903
  N      -3.285455      1.043443     -0.108113
  C      -2.724474      0.822055      1.050352
  N      -1.447137      0.398348      0.928023
  C       1.653656      0.096804      0.938808
  O       1.187805      0.237666      2.055398
  O       2.698267      0.744371      0.499237
  H       1.738321     -2.089160     -1.549441
  H       2.777285     -1.936856     -0.291292
  H       0.446775     -1.602562      0.455242
  H       0.683504      0.817216     -1.380459
  H      -0.089525     -0.674830     -1.899464
  H      -2.523519      0.847952     -2.080376
  H      -3.212737      0.942715      1.997124
  H      -0.790080      0.217450      1.674372
  H       3.075658      1.368678      1.153487
20
Coordinates from ORCA-job geo_opt E -34.360633620440
  N       2.114813     -1.440364     -0.882498
  C       1.050603     -0.842246     -0.093836
  C       0.143676     -0.005390     -1.020138
  C      -1.171758      0.361429     -0.419611
  C      -2.353044      0.674356     -1.038485
  N      -3.315103      0.956296     -0.115352
  C      -2.730132      0.821280      1.043882
  N      -1.432344      0.463087      0.922520
  C       1.671759      0.083281      0.947156
  O       1.207282      0.228256      2.062338
  O       2.730060      0.715678      0.516389
  H       1.713779     -2.052485     -1.584419
  H       2.721655     -1.999797     -0.294343
  H       0.423682     -1.576796      0.443628
  H       0.698338      0.889222     -1.319222
  H      -0.048283     -0.583353     -1.925188
  H      -2.567057      0.711789     -2.086914
  H      -3.209588      0.972059      1.989881
  H      -0.772958      0.309164      1.672094
  H       3.124619      1.314534      1.182116
20
Coordinates from ORCA-job geo_opt E -34.360862883560
  N       2.104546     -1.438430     -0.895307
  C       1.051077     -0.830062     -0.101733
  C       0.154147      0.036046     -1.011412
  C      -1.176183      0.365113     -0.422785
  C      -2.378056      0.595342     -1.039446
  N      -3.338518      0.886314     -0.119091
  C      -2.736972      0.827619      1.038147
  N      -1.425000      0.524224      0.915186
  C       1.684582      0.068628      0.954267
  O       1.200814      0.238696      2.057385
  O       2.776804      0.661572      0.550938
  H       1.697479     -2.017161     -1.620574
  H       2.691325     -2.027607     -0.317085
  H       0.414419     -1.559167      0.432758
  H       0.699104      0.947630     -1.271668
  H      -0.018378     -0.511394     -1.939197
  H      -2.607273      0.573070     -2.085094
  H      -3.210717      1.009662      1.980639
  H      -0.758929      0.406877      1.666074
  H       3.175728      1.243029      1.227999
20
Coordinates from ORCA-job geo_opt E -34.361137706930
  N       2.086476     -1.425873     -0.927759
  C       1.053227     -0.813936     -0.113407
  C       0.166909      0.095903     -0.991744
  C      -1.182589      0.371328     -0.420766
  C      -2.405199      0.471193     -1.032385
  N      -3.371569      0.767900     -0.122298
  C      -2.752780      0.848617      1.025431
  N      -1.424652      0.625928      0.902483
  C       1.703855      0.041296      0.964269
  O       1.191384      0.251194      2.048493
  O       2.849765      0.559882      0.608370
  H       1.669105     -1.962466     -1.677518
  H       2.661617     -2.046176     -0.372231
  H       0.405993     -1.541780      0.412570
  H       0.697045      1.029791     -1.193867
  H       0.022568     -0.402969     -1.951545
  H      -2.648878      0.347165     -2.068005
  H      -3.227068      1.077329      1.956898
  H      -0.746970      0.583854      1.653099
  H       3.251761      1.121817      1.299911
20
Coordinates from ORCA-job geo_opt E -34.361447035310
  N       2.068192     -1.395272     -0.970321
  C       1.058694     -0.787273     -0.129100
  C       0.167626      0.146939     -0.979245
  C      -1.194344      0.375966     -0.420630
  C      -2.429216      0.354477     -1.014723
  N      -3.398965      0.657976     -0.112043
  C      -2.770190      0.861742      1.016369
  N      -1.433463      0.712511      0.883578
  C       1.717173      0.036742      0.963130
  O       1.143114      0.373932      1.983911
  O       2.953942      0.379671      0.706600
  H       1.640862     -1.918367     -1.722188
  H       2.666597     -2.011612     -0.437124
  H       0.409851     -1.516934      0.396817
  H       0.674118      1.101042     -1.139593
  H       0.047133     -0.317613     -1.959891
  H      -2.684076      0.137755     -2.032808
  H      -3.246870      1.128061      1.936465
  H      -0.742718      0.745946      1.623888
  H       3.352540      0.934311      1.406907
20
Coordinates from ORCA-job geo_opt E -34.361785399270
  N       2.047691     -1.369252     -1.003009
  C       1.060930     -0.765808     -0.134724
  C       0.166986      0.187520     -0.964343
  C      -1.203258      0.379154     -0.413788
  C      -2.436493      0.269061     -1.000187
  N      -3.417366      0.577455     -0.110640
  C      -2.794791      0.864996      1.004089
  N      -1.454018      0.774397      0.871546
  C       1.739994      0.035616      0.960055
  O       1.150491      0.466125      1.937188
  O       3.018164      0.237687      0.766307
  H       1.602793     -1.900160     -1.739019
  H       2.675447     -1.971711     -0.487926
  H       0.409015     -1.496929      0.386995
  H       0.662249      1.153750     -1.084445
  H       0.066066     -0.244329     -1.961680
  H      -2.684964     -0.010929     -2.004617
  H      -3.282383      1.151235      1.913068
  H      -0.757167      0.876167      1.600832
  H       3.430612      0.785957      1.464300
20
Coordinates from ORCA-job geo_opt E -34.362407656290
  N       2.018138     -1.320869     -1.052389
  C       1.063287     -0.724874     -0.147281
  C       0.152067      0.229352     -0.967383
  C      -1.218501      0.387951     -0.411437
  C      -2.446915      0.185894     -0.980255
  N      -3.436748      0.482123     -0.092217
  C      -2.817613      0.850993      1.002056
  N      -1.478019      0.821509      0.860164
  C       1.767990      0.065868      0.938369
  O       1.171229      0.702739      1.791829
  O       3.073029     -0.018625      0.905295
  H       1.552355     -1.931994     -1.710216
  H       2.736684     -1.836249     -0.560184
  H       0.410961     -1.457734      0.371899
  H       0.636691      1.205645     -1.053742
  H       0.069117     -0.180986     -1.974164
  H      -2.689859     -0.148884     -1.969273
  H      -3.313221      1.138336      1.908127
  H      -0.762009      1.023133      1.549520
  H       3.511338      0.526673      1.591282
20
Coordinates from ORCA-job geo_opt E -34.362689036860
  N       1.994634     -1.294020     -1.090730
  C       1.068062     -0.687711     -0.162049
  C       0.150068      0.287008     -0.955402
  C      -1.226202      0.394520     -0.404422
  C      -2.441370      0.084652     -0.952861
  N      -3.444405      0.373321     -0.076387
  C      -2.845653      0.848044      0.987708
  N      -1.507436      0.888866      0.840021
  C       1.808275      0.071064      0.925244
  O       1.256133      0.828055      1.705526
  O       3.091542     -0.187543      0.984483
  H       1.506928     -1.923295     -1.715279
  H       2.733830     -1.795962     -0.615050
  H       0.412110     -1.414857      0.358550
  H       0.620248      1.273511     -0.989709
  H       0.084172     -0.080901     -1.978459
  H      -2.665634     -0.322226     -1.918538
  H      -3.356026      1.162562      1.876368
  H      -0.796561      1.164890      1.507313
  H       3.557283      0.330021      1.673672
20
Coordinates from ORCA-job geo_opt E -34.363011221170
  N       2.000703     -1.278597     -1.107138
  C       1.068002     -0.659180     -0.185258
  C       0.140410      0.308825     -0.975917
  C      -1.230124      0.402559     -0.409671
  C      -2.445371      0.059807     -0.940017
  N      -3.442474      0.334140     -0.051475
  C      -2.842650      0.832643      0.998524
  N      -1.506074      0.900346      0.834781
  C       1.813372      0.087091      0.911314
  O       1.288585      0.907243      1.639300
  O       3.072358     -0.265234      1.037536
  H       1.512848     -1.949583     -1.688063
  H       2.744699     -1.756279     -0.613489
  H       0.415648     -1.386099      0.334826
  H       0.609013      1.295611     -0.999987
  H       0.069757     -0.055254     -1.998746
  H      -2.668575     -0.360136     -1.899385
  H      -3.348856      1.151211      1.887353
  H      -0.791604      1.208480      1.480649
  H       3.540334      0.222406      1.744863
20
Coordinates from ORCA-job geo_opt E -34.363289486640
  N       2.006675     -1.247286     -1.148807
  C       1.076948     -0.634072     -0.217898
  C       0.135027      0.331764     -0.990535
  C      -1.232065      0.406587     -0.414039
  C      -2.445288      0.002715     -0.905402
  N      -3.433179      0.277161     -0.007570
  C      -2.831115      0.831540      1.011907
  N      -1.500564      0.940235      0.816610
  C       1.814956      0.093370      0.894188
  O       1.336578      1.009640      1.531849
  O       3.009177     -0.392279      1.151831
  H       1.524654     -1.942471     -1.704819
  H       2.767278     -1.699291     -0.656802
  H       0.436328     -1.370868      0.305312
  H       0.589473      1.324169     -1.004406
  H       0.062831     -0.024772     -2.015858
  H      -2.672532     -0.460162     -1.843997
  H      -3.331182      1.168417      1.896639
  H      -0.782592      1.300585      1.431613
  H       3.468592      0.085019      1.870183
20
Coordinates from ORCA-job geo_opt E -34.363448767620
  N       2.056951     -1.210511     -1.168065
  C       1.077463     -0.627672     -0.263252
  C       0.132136      0.325253     -1.028662
  C      -1.226050      0.407363     -0.429575
  C      -2.452476     -0.018683     -0.867841
  N      -3.411092      0.267996      0.054546
  C      -2.783024      0.849006      1.040706
  N      -1.457651      0.963441      0.798775
  C       1.752991      0.082324      0.895490
  O       1.249697      0.991733      1.520778
  O       2.933029     -0.412330      1.202857
  H       1.608815     -1.903447     -1.753615
  H       2.780749     -1.677280     -0.634889
  H       0.457637     -1.395490      0.245896
  H       0.581271      1.318085     -1.059491
  H       0.041653     -0.046653     -2.047782
  H      -2.704028     -0.506852     -1.787649
  H      -3.255683      1.209231      1.929725
  H      -0.729941      1.339977      1.392880
  H       3.347554      0.044509      1.959168
20
Coordinates from ORCA-job geo_opt E -34.363666450880
  N       2.051072     -1.183318     -1.194687
  C       1.082735     -0.616982     -0.270610
  C       0.131678      0.343000     -1.022171
  C      -1.226573      0.404464     -0.420414
  C      -2.438841     -0.079104     -0.835293
  N      -3.405150      0.217628      0.076735
  C      -2.792894      0.866068      1.032372
  N      -1.473893      1.010265      0.781191
  C       1.772168      0.077342      0.889742
  O       1.316777      1.039776      1.473689
  O       2.894952     -0.503455      1.257933
  H       1.598978     -1.872267     -1.782914
  H       2.792125     -1.646335     -0.680690
  H       0.465177     -1.393517      0.230508
  H       0.573443      1.340180     -1.035529
  H       0.045408     -0.010959     -2.048204
  H      -2.677365     -0.614900     -1.732028
  H      -3.274682      1.248112      1.908609
  H      -0.755199      1.431194      1.355015
  H       3.320086     -0.057193      2.016745
20
Coordinates from ORCA-job geo_opt E -34.363762242740
  N       2.061798     -1.166308     -1.195780
  C       1.081786     -0.623064     -0.271331
  C       0.129677      0.333574     -1.024987
  C      -1.226179      0.400231     -0.417066
  C      -2.438728     -0.087485     -0.824569
  N      -3.404182      0.219116      0.085931
  C      -2.789248      0.879543      1.032970
  N      -1.471968      1.021066      0.777482
  C       1.763081      0.070674      0.895857
  O       1.303115      1.031691      1.479786
  O       2.884017     -0.511491      1.266368
  H       1.618469     -1.842347     -1.805919
  H       2.801851     -1.636435     -0.686295
  H       0.467308     -1.411344      0.215520
  H       0.573665      1.330241     -1.046804
  H       0.039055     -0.024679     -2.049309
  H      -2.679272     -0.631873     -1.715674
  H      -3.268365      1.268426      1.908542
  H      -0.753976      1.448357      1.346910
  H       3.308095     -0.067891      2.028368
20
Coordinates from ORCA-job geo_opt E -34.363929151080
  N       2.104622     -1.098758     -1.217154
  C       1.083861     -0.624342     -0.297673
  C       0.122066      0.323283     -1.042599
  C      -1.223223      0.391627     -0.409430
  C      -2.430333     -0.147027     -0.763374
  N      -3.387130      0.189196      0.146799
  C      -2.770295      0.919836      1.041040
  N      -1.463311      1.077292      0.750910
  C       1.732556      0.049497      0.902836
  O       1.299567      1.042137      1.451858
  O       2.797112     -0.594580      1.334033
  H       1.692323     -1.740443     -1.884291
  H       2.832572     -1.591561     -0.711016
  H       0.487919     -1.450785      0.147573
  H       0.565472      1.320258     -1.079734
  H       0.014083     -0.041069     -2.063285
  H      -2.673787     -0.746550     -1.617622
  H      -3.240635      1.345647      1.904954
  H      -0.750213      1.549259      1.289091
  H       3.206774     -0.172917      2.117082
20
Coordinates from ORCA-job geo_opt E -34.363989712630
  N       2.134731     -1.058869     -1.225889
  C       1.085106     -0.628574     -0.314904
  C       0.116013      0.313688     -1.053589
  C      -1.221360      0.388246     -0.404565
  C      -2.426821     -0.173613     -0.727951
  N      -3.376670      0.179135      0.183364
  C      -2.757656      0.941340      1.048829
  N      -1.455687      1.104173      0.738443
  C       1.709277      0.035150      0.905406
  O       1.294592      1.046607      1.430671
  O       2.739662     -0.639344      1.373158
  H       1.745699     -1.679181     -1.926349
  H       2.854562     -1.563771     -0.720679
  H       0.501890     -1.476694      0.102840
  H       0.561902      1.308801     -1.103952
  H      -0.005852     -0.057906     -2.070222
  H      -2.673957     -0.801277     -1.560486
  H      -3.222562      1.387265      1.905092
  H      -0.744092      1.599864      1.256783
  H       3.141224     -0.225040      2.164000
20
Coordinates from ORCA-job geo_opt E -34.364018000510
  N       2.146760     -1.048568     -1.225838
  C       1.085147     -0.631765     -0.321282
  C       0.113959      0.311207     -1.056635
  C      -1.219836      0.388505     -0.402167
  C      -2.424925     -0.179760     -0.717381
  N      -3.372094      0.175876      0.195231
  C      -2.753125      0.945291      1.053094
  N      -1.452128      1.111205      0.736624
  C       1.699844      0.031311      0.904214
  O       1.294641      1.052562      1.415662
  O       2.717730     -0.651556      1.387424
  H       1.766001     -1.656136     -1.941653
  H       2.857582     -1.564466     -0.719525
  H       0.504536     -1.485324      0.085836
  H       0.563369      1.304222     -1.110109
  H      -0.014608     -0.062169     -2.071831
  H      -2.673467     -0.814842     -1.543728
  H      -3.217577      1.396990      1.905956
  H      -0.740290      1.612166      1.249469
  H       3.118482     -0.234751      2.176641
20
Coordinates from ORCA-job geo_opt E -34.364024161490
  N       2.162365     -1.026088     -1.234924
  C       1.087751     -0.630701     -0.335224
  C       0.111355      0.312733     -1.063360
  C      -1.216770      0.388372     -0.398686
  C      -2.416751     -0.203340     -0.690456
  N      -3.359866      0.158159      0.223766
  C      -2.744465      0.953477      1.059217
  N      -1.448177      1.131132      0.726969
  C       1.690162      0.026082      0.899640
  O       1.314204      1.070912      1.383591
  O       2.664415     -0.690757      1.422756
  H       1.792312     -1.619799     -1.967738
  H       2.865482     -1.552626     -0.728932
  H       0.512876     -1.494444      0.056665
  H       0.562268      1.304602     -1.117593
  H      -0.025770     -0.060605     -2.077523
  H      -2.664764     -0.859489     -1.500310
  H      -3.208682      1.418130      1.904843
  H      -0.737811      1.652051      1.221200
  H       3.059868     -0.277803      2.216098
20
Coordinates from ORCA-job geo_opt E -34.364031048270
  N       2.158468     -1.033288     -1.230304
  C       1.086665     -0.633740     -0.329859
  C       0.112292      0.310619     -1.060741
  C      -1.217509      0.388193     -0.399301
  C      -2.419820     -0.194166     -0.699858
  N      -3.364118      0.166164      0.213720
  C      -2.746827      0.951451      1.057540
  N      -1.448475      1.123529      0.731354
  C       1.691131      0.026464      0.902145
  O       1.300968      1.062008      1.395722
  O       2.684259     -0.674158      1.410913
  H       1.785898     -1.626083     -1.962528
  H       2.861550     -1.560619     -0.725134
  H       0.509359     -1.495008      0.064394
  H       0.564083      1.302173     -1.115276
  H      -0.022836     -0.063345     -2.074932
  H      -2.669141     -0.842305     -1.515735
  H      -3.211143      1.412064      1.905467
  H      -0.736285      1.636915      1.231015
  H       3.081480     -0.256868      2.201398
20
Coordinates from ORCA-job geo_opt E -34.364031961460
  N       2.158852     -1.032019     -1.230835
  C       1.086851     -0.633323     -0.330266
  C       0.112370      0.311043     -1.061037
  C      -1.217370      0.388021     -0.399168
  C      -2.419167     -0.196003     -0.698342
  N      -3.363381      0.164633      0.215228
  C      -2.746511      0.951998      1.057545
  N      -1.448650      1.125055      0.730354
  C       1.691005      0.026037      0.902305
  O       1.301827      1.062313      1.395349
  O       2.682385     -0.676190      1.412335
  H       1.786158     -1.623502     -1.964129
  H       2.860921     -1.560987     -0.725771
  H       0.509807     -1.495264      0.063282
  H       0.563903      1.302726     -1.115258
  H      -0.022748     -0.062836     -2.075255
  H      -2.668277     -0.845391     -1.513301
  H      -3.210826      1.413288      1.905181
  H      -0.736340      1.639792      1.228371
  H       3.079191     -0.259389      2.203412
