20
Coordinates from ORCA-job geo_opt E -34.364031961460
  N           2.15885187146167     -1.03201914188865     -1.23083480958354
  C           1.08685067479407     -0.63332317131941     -0.33026641421790
  C           0.11236952037732      0.31104338327244     -1.06103695854545
  C          -1.21736996246342      0.38802052250480     -0.39916760500365
  C          -2.41916662260541     -0.19600264589466     -0.69834234684877
  N          -3.36338112639731      0.16463258488421      0.21522807812567
  C          -2.74651064742136      0.95199762543966      1.05754473003990
  N          -1.44865030070773      1.12505539378066      0.73035438695069
  C           1.69100534506179      0.02603683610997      0.90230523076406
  O           1.30182720248038      1.06231285932255      1.39534853897819
  O           2.68238515516881     -0.67619031566478      1.41233507150127
  H           1.78615781592811     -1.62350201730039     -1.96412936746959
  H           2.86092068409394     -1.56098716287412     -0.72577112827315
  H           0.50980731217907     -1.49526447723891      0.06328185720217
  H           0.56390277800062      1.30272581750967     -1.11525771035262
  H          -0.02274800874502     -0.06283631589319     -2.07525529406259
  H          -2.66827650448915     -0.84539084822873     -1.51330093873316
  H          -3.21082574806402      1.41328809113475      1.90518133242425
  H          -0.73634021500185      1.63979182871432      1.22837104727739
  H           3.07919076634948     -0.25938887637016      2.20341228982682
