20
neutral_delta conformer 2
N       2.20002465    -1.24703975    -0.98242080
C       1.08609689    -0.75781182    -0.14925088
C      -0.00373803    -0.19536827    -1.01009557
C      -1.22041294     0.24181524    -0.30609872
C      -2.24837296     0.90069648    -1.00453692
N      -3.19810490     1.20664386    -0.11111909
C      -2.84316615     0.78629350     1.10689141
N      -1.61788913     0.19237146     0.96159062
C       1.66050729     0.30819243     0.75653555
O       1.02352801     1.04999978     1.49383147
O       3.06398668     0.47861412     0.76629946
H       1.76685550    -2.03584384    -1.53844217
H       2.84917587    -1.70088465    -0.31105346
H       0.74378196    -1.56904292     0.47465699
H       0.37915403     0.59330114    -1.70649757
H      -0.30587519    -1.03998046    -1.70831242
H      -2.30427755     1.13417241    -2.04688849
H      -3.40700924     0.88798704     2.04466094
H      -1.15064723    -0.23379906     1.77193598
H       3.52638243     0.99968328     1.49831366
