17
Coordinates from ORCA-job geo_opt E -492.689650835545
  N       2.851570     -0.032848     -0.389243
  C       1.528014     -0.618310     -0.671311
  C       0.502554      0.265853      0.062180
  O       0.929808      1.217963      0.718880
  N      -0.762344     -0.074243     -0.072050
  C      -1.883079      0.609099      0.512855
  C      -3.181347     -0.127975      0.035916
  O      -2.993716     -1.112007     -0.708023
  O      -4.262930      0.326687      0.436470
  H       2.615757      0.779818      0.241115
  H       3.476576     -0.673563      0.106878
  H       3.318207      0.321164     -1.228536
  H       1.444410     -1.637029     -0.296681
  H       1.298211     -0.618589     -1.735225
  H      -1.090920     -0.865732     -0.633005
  H      -1.852986      0.585929      1.605646
  H      -1.937786      1.653782      0.195085
17
Coordinates from ORCA-job geo_opt E -492.692467131984
  N       2.867646     -0.033583     -0.382753
  C       1.536820     -0.617013     -0.678296
  C       0.505541      0.271195      0.055172
  O       0.927202      1.236476      0.723510
  N      -0.767030     -0.076880     -0.082884
  C      -1.901555      0.606169      0.505590
  C      -3.209765     -0.125276      0.044573
  O      -3.043608     -1.132147     -0.701976
  O      -4.290485      0.345755      0.475089
  H       2.638097      0.780588      0.252410
  H       3.490746     -0.682793      0.109935
  H       3.345376      0.318836     -1.219593
  H       1.468826     -1.644905     -0.307466
  H       1.334176     -0.615081     -1.754121
  H      -1.088340     -0.878160     -0.649286
  H      -1.860467      0.589174      1.605206
  H      -1.953178      1.657645      0.185842
17
Coordinates from ORCA-job geo_opt E -492.691794250482
  N       2.870665     -0.023126     -0.385645
  C       1.536700     -0.619840     -0.676541
  C       0.503507      0.263094      0.056934
  O       0.915950      1.239461      0.727102
  N      -0.770401     -0.093903     -0.079116
  C      -1.911054      0.587688      0.515717
  C      -3.220039     -0.140538      0.079591
  O      -3.078320     -1.114007     -0.727005
  O      -4.297114      0.409155      0.442222
  H       2.649164      0.795861      0.242156
  H       3.499636     -0.668470      0.105652
  H       3.348142      0.319472     -1.227353
  H       1.496682     -1.649540     -0.302522
  H       1.349953     -0.623268     -1.756620
  H      -1.078530     -0.900708     -0.643621
  H      -1.852987      0.578318      1.616272
  H      -1.961954      1.640352      0.193731
17
Coordinates from ORCA-job geo_opt E -492.692875392246
  N       2.873010     -0.022692     -0.371592
  C       1.532742     -0.618451     -0.679588
  C       0.499143      0.259478      0.049394
  O       0.901359      1.236040      0.735850
  N      -0.776961     -0.091858     -0.103805
  C      -1.922708      0.595140      0.490793
  C      -3.229347     -0.111819      0.058480
  O      -3.112989     -1.137475     -0.696908
  O      -4.297763      0.383753      0.532127
  H       2.663688      0.796976      0.251908
  H       3.495512     -0.675128      0.118702
  H       3.363916      0.310657     -1.209455
  H       1.511841     -1.651965     -0.313550
  H       1.379316     -0.613835     -1.765185
  H      -1.069066     -0.893504     -0.678070
  H      -1.855711      0.585278      1.591543
  H      -1.955982      1.649406      0.170310
17
Coordinates from ORCA-job geo_opt E -492.693221977514
  N       2.870573     -0.027005     -0.373254
  C       1.532610     -0.613722     -0.679034
  C       0.499056      0.265317      0.048998
  O       0.904175      1.235497      0.728055
  N      -0.773435     -0.086929     -0.099203
  C      -1.913017      0.596804      0.494626
  C      -3.221411     -0.119792      0.059439
  O      -3.092804     -1.133961     -0.693465
  O      -4.292142      0.370271      0.511453
  H       2.657021      0.791015      0.253392
  H       3.488975     -0.680784      0.119775
  H       3.358974      0.310012     -1.210683
  H       1.491721     -1.645091     -0.313714
  H       1.362839     -0.607945     -1.760509
  H      -1.070507     -0.889277     -0.670560
  H      -1.849246      0.587431      1.593397
  H      -1.953382      1.648160      0.172241
17
Coordinates from ORCA-job geo_opt E -492.693275765830
  N       2.871522     -0.025485     -0.371982
  C       1.532366     -0.612706     -0.678470
  C       0.497921      0.264103      0.049108
  O       0.898980      1.235315      0.729753
  N      -0.774705     -0.089510     -0.102298
  C      -1.915080      0.593755      0.492902
  C      -3.224387     -0.120691      0.064594
  O      -3.104032     -1.131578     -0.694742
  O      -4.292748      0.376723      0.517030
  H       2.661832      0.794240      0.251674
  H       3.488465     -0.679619      0.122538
  H       3.361765      0.306795     -1.210305
  H       1.496102     -1.644938     -0.314452
  H       1.367160     -0.605874     -1.760865
  H      -1.065151     -0.892403     -0.674708
  H      -1.845796      0.586677      1.591593
  H      -1.954215      1.645195      0.169582
17
Coordinates from ORCA-job geo_opt E -492.693308150926
  N       2.872658     -0.025621     -0.368218
  C       1.531874     -0.609553     -0.679014
  C       0.496150      0.265280      0.046834
  O       0.892022      1.235944      0.730034
  N      -0.776321     -0.090211     -0.109230
  C      -1.916762      0.591628      0.488346
  C      -3.227695     -0.122248      0.070561
  O      -3.116473     -1.130648     -0.692187
  O      -4.291777      0.376169      0.532959
  H       2.668467      0.796493      0.251638
  H       3.484264     -0.681774      0.130322
  H       3.367874      0.299768     -1.206344
  H       1.496139     -1.643070     -0.318553
  H       1.372474     -0.599192     -1.762278
  H      -1.057163     -0.894024     -0.682987
  H      -1.839380      0.588644      1.586521
  H      -1.956350      1.642413      0.162548
17
Coordinates from ORCA-job geo_opt E -492.693317810860
  N       2.873322     -0.026316     -0.366340
  C       1.531891     -0.607404     -0.679512
  C       0.495583      0.265757      0.047199
  O       0.889137      1.235406      0.731839
  N      -0.776898     -0.089880     -0.112817
  C      -1.917059      0.591243      0.485482
  C      -3.229431     -0.123740      0.073406
  O      -3.121666     -1.132713     -0.687818
  O      -4.291331      0.374887      0.540484
  H       2.672405      0.797115      0.251884
  H       3.481441     -0.683667      0.134921
  H       3.371273      0.295549     -1.204214
  H       1.494377     -1.642100     -0.322869
  H       1.373335     -0.593220     -1.762822
  H      -1.052199     -0.893775     -0.688178
  H      -1.835978      0.591726      1.583301
  H      -1.958202      1.641132      0.157007
17
Coordinates from ORCA-job geo_opt E -492.693320920984
  N       2.873697     -0.027722     -0.364793
  C       1.532063     -0.605758     -0.680846
  C       0.495529      0.267286      0.046348
  O       0.888712      1.235455      0.732765
  N      -0.777033     -0.088397     -0.115232
  C      -1.916966      0.591822      0.483861
  C      -3.229997     -0.125655      0.075616
  O      -3.122688     -1.135973     -0.683489
  O      -4.291116      0.372486      0.544973
  H       2.674167      0.796618      0.252521
  H       3.478735     -0.685985      0.139046
  H       3.374491      0.292166     -1.201735
  H       1.491358     -1.641406     -0.327401
  H       1.373868     -0.588167     -1.764154
  H      -1.049924     -0.892602     -0.691077
  H      -1.833909      0.594942      1.581464
  H      -1.960987      1.640890      0.153086
17
Coordinates from ORCA-job geo_opt E -492.693321978801
  N       2.873797     -0.028483     -0.364391
  C       1.532264     -0.605236     -0.681503
  C       0.495789      0.267320      0.047061
  O       0.889290      1.235168      0.733742
  N      -0.776930     -0.087589     -0.115705
  C      -1.916844      0.592435      0.483241
  C      -3.230008     -0.126645      0.076437
  O      -3.122196     -1.138001     -0.681307
  O      -4.291101      0.371510      0.545901
  H       2.674555      0.796262      0.252610
  H       3.477703     -0.686798      0.140781
  H       3.375823      0.290735     -1.200871
  H       1.490073     -1.641623     -0.330422
  H       1.373331     -0.585163     -1.764694
  H      -1.049237     -0.891989     -0.691596
  H      -1.833543      0.597154      1.580799
  H      -1.962766      1.640943      0.150871
