17
Coordinates from ORCA-job geo_opt E -492.693321978801
  N           2.87379741542756     -0.02848280264563     -0.36439135387294
  C           1.53226399497592     -0.60523552879358     -0.68150285615733
  C           0.49578917644397      0.26732030753078      0.04706116500676
  O           0.88928969872841      1.23516821621382      0.73374202619189
  N          -0.77693042855167     -0.08758912336801     -0.11570536741963
  C          -1.91684399455398      0.59243487649175      0.48324090451544
  C          -3.23000809948037     -0.12664546477761      0.07643695868327
  O          -3.12219573444560     -1.13800127757058     -0.68130732967231
  O          -4.29110077432105      0.37150984903082      0.54590146467319
  H           2.67455537101338      0.79626157800558      0.25260996817182
  H           3.47770263720874     -0.68679805345853      0.14078128251174
  H           3.37582294381270      0.29073494907588     -1.20087117120378
  H           1.49007286576374     -1.64162320809668     -0.33042249054101
  H           1.37333113268698     -0.58516257618290     -1.76469405490928
  H          -1.04923662197351     -0.89198876042071     -0.69159590300320
  H          -1.83354316075902      0.59715420169773      1.58079906853880
  H          -1.96276639197620      1.64094281726787      0.15087066848657
