17
zwitterion conformer 1
N       2.85157046    -0.03284756    -0.38924258
C       1.52801351    -0.61830993    -0.67131079
C       0.50255410     0.26585289     0.06218023
O       0.92980844     1.21796322     0.71888021
N      -0.76234402    -0.07424323    -0.07204971
C      -1.88307909     0.60909857     0.51285508
C      -3.18134711    -0.12797550     0.03591635
O      -2.99371620    -1.11200683    -0.70802318
O      -4.26292954     0.32668715     0.43646975
H       2.61575707     0.77981849     0.24111500
H       3.47657628    -0.67356253     0.10687825
H       3.31820741     0.32116411    -1.22853592
H       1.44440951    -1.63702907    -0.29668065
H       1.29821101    -0.61858893    -1.73522493
H      -1.09092048    -0.86573200    -0.63300469
H      -1.85298580     0.58592900     1.60564555
H      -1.93778552     1.65378215     0.19508501
