20
Coordinates from ORCA-job geo_opt E -34.366594372090
  N          -1.17859523308190      0.56406089163788     -1.86765464286218
  C          -1.49950714120877     -0.16528865927058     -0.65636592546822
  C          -0.36876839932272     -1.13101543107845     -0.27635225528722
  C           0.91291369071503     -0.43546133679321      0.03554525924326
  C           1.22131069172692      0.83317485916991      0.44991835698042
  N           2.56852953992947      0.96840720423325      0.61049628362076
  C           3.07364391916547     -0.19554668289160      0.30180760005241
  N           2.11789886790129     -1.08144538780862     -0.05503235997613
  C          -1.87727974773337      0.73795639284608      0.51511183834670
  O          -2.04632893339457      1.93576125713052      0.41073343504937
  O          -2.05624521357794      0.07831874486978      1.64277571168977
  H          -0.29176031767309      1.04506659686229     -1.74688661490822
  H          -1.88064728776999      1.27966587164961     -2.02682717810516
  H          -2.39905467464697     -0.76342561798620     -0.86080186832097
  H          -0.69162396366373     -1.71744725605068      0.58768730490176
  H          -0.21274422875435     -1.80621281670051     -1.11888394946107
  H           0.57295559582704      1.66625076017693      0.63932967023104
  H           4.11885945297102     -0.42600978917613      0.32514307548783
  H           2.25229875977165     -2.03970442254001     -0.33546159401646
  H          -2.33585536718049      0.65289483171974      2.38244605280231
