20
Coordinates from ORCA-job geo_opt E -34.328554352560
  N      -1.152190      0.886674     -1.693411
  C      -1.372989     -0.023228     -0.618907
  C      -0.297174     -1.035550     -0.390222
  C       1.028448     -0.467160     -0.079636
  C       1.393331      0.866111      0.024500
  N       2.717314      0.932315      0.326746
  C       3.154292     -0.324090      0.406250
  N       2.157848     -1.169778      0.166164
  C      -1.766892      0.688874      0.625492
  O      -1.881897      1.942995      0.687450
  O      -2.025742     -0.030063      1.785098
  H      -1.355177      1.853944     -1.353654
  H      -1.783698      0.731132     -2.514183
  H      -2.280561     -0.635861     -0.901673
  H      -0.609067     -1.585637      0.547266
  H      -0.281967     -1.796722     -1.179990
  H       0.741970      1.721308     -0.110127
  H       4.193806     -0.586049      0.638584
  H       2.195864     -2.221784      0.158141
  H      -2.775521      0.252568      2.432841
20
Coordinates from ORCA-job geo_opt E -34.349132677000
  N      -1.158738      0.880905     -1.704896
  C      -1.412016     -0.035822     -0.616741
  C      -0.311501     -1.060847     -0.373028
  C       1.017004     -0.467438     -0.068701
  C       1.391812      0.855360      0.063993
  N       2.713955      0.933671      0.362032
  C       3.145267     -0.311165      0.407124
  N       2.152915     -1.175694      0.153819
  C      -1.786292      0.700619      0.624434
  O      -1.905083      1.922388      0.667620
  O      -2.006012     -0.022502      1.739103
  H      -1.330363      1.834023     -1.378926
  H      -1.772941      0.735181     -2.500019
  H      -2.318552     -0.639892     -0.864547
  H      -0.613756     -1.628763      0.532842
  H      -0.266139     -1.783777     -1.190032
  H       0.757469      1.711437     -0.039596
  H       4.164322     -0.568826      0.623508
  H       2.203579     -2.190403      0.126774
  H      -2.664927      0.311545      2.391967
20
Coordinates from ORCA-job geo_opt E -34.356483988270
  N      -1.147129      0.855104     -1.716899
  C      -1.441198     -0.051920     -0.619170
  C      -0.327041     -1.080661     -0.361616
  C       0.992691     -0.457197     -0.058133
  C       1.366505      0.854761      0.109442
  N       2.690472      0.937784      0.401145
  C       3.123778     -0.296795      0.409323
  N       2.136627     -1.175994      0.138501
  C      -1.793610      0.715788      0.625917
  O      -1.910931      1.920606      0.650987
  O      -1.985484     -0.026697      1.698866
  H      -1.284626      1.808520     -1.400788
  H      -1.756526      0.709009     -2.505263
  H      -2.345922     -0.645393     -0.842437
  H      -0.624720     -1.669182      0.513720
  H      -0.247194     -1.757044     -1.212210
  H       0.743709      1.720522      0.039192
  H       4.138620     -0.558303      0.610509
  H       2.202225     -2.175987      0.087009
  H      -2.530247      0.373077      2.388633
20
Coordinates from ORCA-job geo_opt E -34.360747046870
  N      -1.153825      0.804300     -1.762880
  C      -1.470982     -0.074199     -0.644013
  C      -0.343937     -1.096028     -0.375179
  C       0.956461     -0.444630     -0.038558
  C       1.313214      0.854089      0.208013
  N       2.638172      0.938720      0.506992
  C       3.086285     -0.284106      0.440084
  N       2.112187     -1.166138      0.114797
  C      -1.786087      0.733315      0.602994
  O      -1.910447      1.935765      0.601248
  O      -1.923001     -0.011380      1.674733
  H      -1.249788      1.767671     -1.465319
  H      -1.777207      0.652771     -2.540254
  H      -2.380156     -0.662079     -0.835204
  H      -0.647953     -1.725846      0.461938
  H      -0.219342     -1.714676     -1.263462
  H       0.692661      1.724703      0.193193
  H       4.103580     -0.552362      0.623639
  H       2.199540     -2.159968      0.003237
  H      -2.239374      0.480076      2.450728
20
Coordinates from ORCA-job geo_opt E -34.361658469020
  N      -1.172779      0.759831     -1.799237
  C      -1.482949     -0.087602     -0.658019
  C      -0.347241     -1.097117     -0.388987
  C       0.938837     -0.436284     -0.019201
  C       1.282739      0.849846      0.294617
  N       2.610698      0.930187      0.592479
  C       3.069758     -0.283970      0.461438
  N       2.102369     -1.155014      0.092683
  C      -1.765014      0.749181      0.583736
  O      -1.929488      1.950029      0.553224
  O      -1.883802      0.021670      1.672747
  H      -1.231662      1.733129     -1.518837
  H      -1.824474      0.608402     -2.556775
  H      -2.396735     -0.677373     -0.820964
  H      -0.657534     -1.760394      0.421126
  H      -0.198035     -1.680697     -1.298108
  H       0.662853      1.722530      0.322364
  H       4.091060     -0.560121      0.625606
  H       2.202294     -2.142886     -0.073243
  H      -2.070897      0.556653      2.470078
20
Coordinates from ORCA-job geo_opt E -34.361725887230
  N      -1.185059      0.742631     -1.817446
  C      -1.490283     -0.093549     -0.668303
  C      -0.350399     -1.094478     -0.395951
  C       0.929311     -0.432823     -0.009273
  C       1.268194      0.848356      0.330272
  N       2.596031      0.926180      0.632145
  C       3.059798     -0.284166      0.475615
  N       2.095351     -1.148200      0.088218
  C      -1.775298      0.747735      0.569270
  O      -1.929231      1.951585      0.536904
  O      -1.830879      0.036871      1.676870
  H      -1.224726      1.719451     -1.544072
  H      -1.851591      0.598404     -2.564587
  H      -2.402728     -0.686928     -0.827549
  H      -0.665723     -1.769930      0.403562
  H      -0.191799     -1.670663     -1.308758
  H       0.649587      1.722075      0.370070
  H       4.081811     -0.563458      0.634305
  H       2.199759     -2.132704     -0.099683
  H      -1.982126      0.583611      2.475118
20
Coordinates from ORCA-job geo_opt E -34.361915768370
  N      -1.187006      0.736808     -1.816985
  C      -1.486498     -0.093889     -0.663665
  C      -0.343976     -1.089724     -0.390343
  C       0.937202     -0.430248     -0.007333
  C       1.281605      0.849668      0.332879
  N       2.611373      0.922943      0.627757
  C       3.070972     -0.288920      0.466066
  N       2.101748     -1.147633      0.082238
  C      -1.776849      0.747874      0.570336
  O      -1.952691      1.949141      0.532131
  O      -1.854688      0.041322      1.680581
  H      -1.205562      1.714681     -1.544262
  H      -1.869042      0.606364     -2.552816
  H      -2.396900     -0.691036     -0.821643
  H      -0.658888     -1.766329      0.409076
  H      -0.189023     -1.670112     -1.301398
  H       0.669008      1.727541      0.374359
  H       4.092436     -0.573379      0.618676
  H       2.202770     -2.132077     -0.109169
  H      -2.045990      0.587005      2.470243
20
Coordinates from ORCA-job geo_opt E -34.362075520500
  N      -1.189361      0.722598     -1.822438
  C      -1.485742     -0.098687     -0.661816
  C      -0.341187     -1.090781     -0.385621
  C       0.938167     -0.428953     -0.005143
  C       1.282003      0.848877      0.342446
  N       2.613688      0.923863      0.628237
  C       3.074189     -0.286755      0.458898
  N       2.104076     -1.144508      0.076148
  C      -1.774865      0.747616      0.567406
  O      -1.954187      1.948085      0.523877
  O      -1.866811      0.046702      1.679292
  H      -1.156125      1.699704     -1.549270
  H      -1.901934      0.627580     -2.534025
  H      -2.395830     -0.696383     -0.815760
  H      -0.655436     -1.769936      0.411869
  H      -0.186633     -1.672353     -1.296404
  H       0.671858      1.728079      0.394242
  H       4.095684     -0.572966      0.605270
  H       2.206619     -2.127362     -0.120708
  H      -2.078173      0.595579      2.460227
20
Coordinates from ORCA-job geo_opt E -34.362599672570
  N      -1.198887      0.680118     -1.836533
  C      -1.487439     -0.116485     -0.657995
  C      -0.335803     -1.097231     -0.369808
  C       0.938567     -0.426058      0.001261
  C       1.280220      0.847488      0.364091
  N       2.615462      0.928604      0.631459
  C       3.081114     -0.276459      0.438084
  N       2.110236     -1.134040      0.057428
  C      -1.779881      0.743178      0.555773
  O      -1.952703      1.943534      0.493530
  O      -1.907690      0.059926      1.673483
  H      -0.990118      1.634714     -1.562172
  H      -1.994117      0.721330     -2.459623
  H      -2.393706     -0.717388     -0.806530
  H      -0.647413     -1.780210      0.425136
  H      -0.181318     -1.685092     -1.277515
  H       0.676973      1.729634      0.443880
  H       4.103315     -0.565249      0.566847
  H       2.219123     -2.111989     -0.155190
  H      -2.155934      0.621677      2.431121
20
Coordinates from ORCA-job geo_opt E -34.363033695870
  N      -1.205036      0.657084     -1.841818
  C      -1.490155     -0.128500     -0.655621
  C      -0.334758     -1.104290     -0.359813
  C       0.936858     -0.425812      0.003069
  C       1.275604      0.846714      0.370462
  N       2.612405      0.934838      0.627074
  C       3.082771     -0.266416      0.424243
  N       2.112948     -1.127864      0.047465
  C      -1.785027      0.738705      0.549197
  O      -1.942155      1.939897      0.475323
  O      -1.936785      0.064728      1.668001
  H      -0.882935      1.579947     -1.569072
  H      -2.035335      0.798300     -2.400635
  H      -2.393463     -0.730608     -0.805174
  H      -0.643646     -1.786376      0.436228
  H      -0.180590     -1.697309     -1.264592
  H       0.674808      1.729010      0.466235
  H       4.105771     -0.553793      0.543845
  H       2.227021     -2.103148     -0.170573
  H      -2.198303      0.634893      2.412886
20
Coordinates from ORCA-job geo_opt E -34.363345380320
  N      -1.193524      0.657374     -1.844545
  C      -1.498571     -0.134796     -0.659303
  C      -0.350304     -1.129782     -0.353310
  C       0.922474     -0.438061     -0.010459
  C       1.247606      0.845973      0.322937
  N       2.579110      0.958862      0.589108
  C       3.064555     -0.237831      0.420780
  N       2.107868     -1.129910      0.059969
  C      -1.787684      0.732845      0.553548
  O      -1.866107      1.939121      0.500179
  O      -1.955553      0.034586      1.648057
  H      -0.773171      1.533170     -1.558692
  H      -2.036010      0.903837     -2.342323
  H      -2.402993     -0.721760     -0.831302
  H      -0.653976     -1.787115      0.460414
  H      -0.197597     -1.734651     -1.249137
  H       0.634804      1.719533      0.413515
  H       4.089559     -0.504333      0.554628
  H       2.235315     -2.106394     -0.127894
  H      -2.165802      0.599332      2.410560
20
Coordinates from ORCA-job geo_opt E -34.364130701060
  N      -1.219279      0.621401     -1.847069
  C      -1.502354     -0.154343     -0.653914
  C      -0.341276     -1.126455     -0.340020
  C       0.926637     -0.429672      0.000702
  C       1.254127      0.846757      0.361378
  N       2.591359      0.957329      0.603236
  C       3.077017     -0.234902      0.396664
  N       2.114950     -1.116115      0.033010
  C      -1.805235      0.725244      0.535931
  O      -1.894711      1.929410      0.442702
  O      -2.001633      0.061961      1.650675
  H      -0.655186      1.423228     -1.585140
  H      -2.066147      1.006413     -2.241221
  H      -2.396753     -0.757056     -0.822894
  H      -0.642735     -1.794124      0.468235
  H      -0.187595     -1.735355     -1.234059
  H       0.652399      1.724864      0.484203
  H       4.103337     -0.509791      0.504162
  H       2.243955     -2.087583     -0.183942
  H      -2.250877      0.648789      2.384090
20
Coordinates from ORCA-job geo_opt E -34.364646257460
  N      -1.229768      0.599555     -1.851360
  C      -1.505811     -0.164510     -0.651278
  C      -0.339591     -1.123777     -0.330881
  C       0.926939     -0.424482      0.007902
  C       1.254509      0.848797      0.381081
  N       2.595149      0.959389      0.607347
  C       3.081753     -0.229607      0.380001
  N       2.117346     -1.106309      0.017056
  C      -1.815004      0.721421      0.530940
  O      -1.892457      1.926954      0.428015
  O      -2.041396      0.070905      1.649756
  H      -0.580350      1.344036     -1.616951
  H      -2.062551      1.070945     -2.179521
  H      -2.395961     -0.776364     -0.822012
  H      -0.641032     -1.790983      0.479162
  H      -0.184920     -1.738718     -1.221042
  H       0.656372      1.727529      0.520025
  H       4.109923     -0.506080      0.470706
  H       2.247218     -2.075057     -0.216134
  H      -2.300367      0.666357      2.373917
20
Coordinates from ORCA-job geo_opt E -34.364864782160
  N      -1.225270      0.577901     -1.865541
  C      -1.501586     -0.162197     -0.653576
  C      -0.332634     -1.092484     -0.321467
  C       0.941802     -0.408759      0.028891
  C       1.283380      0.859208      0.418954
  N       2.632416      0.945366      0.620379
  C       3.103022     -0.248517      0.362648
  N       2.123251     -1.097398      0.001703
  C      -1.840229      0.723235      0.531528
  O      -1.948024      1.935079      0.445590
  O      -2.096720      0.073051      1.657161
  H      -0.557510      1.322042     -1.667417
  H      -2.067662      1.046461     -2.191590
  H      -2.385682     -0.797778     -0.826911
  H      -0.645460     -1.749723      0.499876
  H      -0.175131     -1.723962     -1.199604
  H       0.689015      1.741926      0.556417
  H       4.134523     -0.536454      0.425583
  H       2.235243     -2.067835     -0.259955
  H      -2.366744      0.660837      2.394059
20
Coordinates from ORCA-job geo_opt E -34.365944171800
  N      -1.231236      0.566371     -1.868385
  C      -1.512832     -0.172866     -0.653868
  C      -0.347845     -1.116241     -0.313226
  C       0.924853     -0.418471      0.023085
  C       1.248475      0.854366      0.407835
  N       2.594787      0.966492      0.606023
  C       3.084591     -0.216211      0.348526
  N       2.118925     -1.091256     -0.007683
  C      -1.839665      0.724020      0.530076
  O      -1.879270      1.935249      0.446068
  O      -2.117704      0.067497      1.639662
  H      -0.443828      1.185214     -1.701933
  H      -2.012997      1.179032     -2.083680
  H      -2.397146     -0.796840     -0.840801
  H      -0.655547     -1.754596      0.520430
  H      -0.187033     -1.753585     -1.185473
  H       0.638513      1.722658      0.562546
  H       4.120464     -0.481050      0.408819
  H       2.247143     -2.057352     -0.264931
  H      -2.352648      0.657567      2.383638
20
Coordinates from ORCA-job geo_opt E -34.366222546990
  N      -1.223405      0.569737     -1.865861
  C      -1.513380     -0.171467     -0.654023
  C      -0.353777     -1.117333     -0.301765
  C       0.923236     -0.419162      0.023652
  C       1.245691      0.856682      0.400156
  N       2.592651      0.972622      0.589103
  C       3.083300     -0.209671      0.333990
  N       2.118386     -1.090037     -0.013173
  C      -1.855470      0.723832      0.529903
  O      -1.893533      1.934794      0.453865
  O      -2.135247      0.055373      1.631017
  H      -0.389568      1.131312     -1.717617
  H      -1.974457      1.230545     -2.044122
  H      -2.395494     -0.794023     -0.852178
  H      -0.662781     -1.735492      0.546106
  H      -0.193510     -1.767960     -1.163417
  H       0.626839      1.718479      0.554045
  H       4.121325     -0.466595      0.389507
  H       2.245264     -2.057097     -0.266178
  H      -2.366069      0.635460      2.383718
20
Coordinates from ORCA-job geo_opt E -34.366302886560
  N      -1.199788      0.588252     -1.865850
  C      -1.506512     -0.159578     -0.659399
  C      -0.363722     -1.125040     -0.295909
  C       0.918526     -0.428922      0.019949
  C       1.235477      0.851538      0.385126
  N       2.579738      0.974374      0.578213
  C       3.074556     -0.207300      0.333955
  N       2.115448     -1.098087     -0.009324
  C      -1.859551      0.732564      0.529544
  O      -1.934748      1.940900      0.465678
  O      -2.089205      0.040355      1.624950
  H      -0.371521      1.154997     -1.705950
  H      -1.961048      1.224625     -2.072508
  H      -2.395931     -0.767169     -0.860725
  H      -0.676347     -1.718391      0.566341
  H      -0.203778     -1.785797     -1.148456
  H       0.594632      1.698471      0.529193
  H       4.114981     -0.448970      0.397479
  H       2.241961     -2.067311     -0.248214
  H      -2.313167      0.600490      2.392635
20
Coordinates from ORCA-job geo_opt E -34.366447314590
  N      -1.198129      0.568746     -1.868151
  C      -1.505253     -0.164019     -0.656159
  C      -0.364910     -1.117014     -0.278587
  C       0.919514     -0.422395      0.031991
  C       1.237238      0.852069      0.422053
  N       2.585833      0.974460      0.587309
  C       3.079937     -0.200820      0.303898
  N       2.117183     -1.082968     -0.039366
  C      -1.878926      0.732649      0.523774
  O      -1.977605      1.940398      0.451162
  O      -2.124061      0.050150      1.626883
  H      -0.296995      1.025188     -1.769429
  H      -1.892556      1.296450     -2.004343
  H      -2.393653     -0.778750     -0.860037
  H      -0.682475     -1.698216      0.592144
  H      -0.204961     -1.792505     -1.119820
  H       0.590047      1.690389      0.591545
  H       4.123901     -0.438425      0.339124
  H       2.240178     -2.047919     -0.304734
  H      -2.374307      0.612531      2.387470
20
Coordinates from ORCA-job geo_opt E -34.366531724790
  N      -1.201041      0.568360     -1.867863
  C      -1.505431     -0.165725     -0.656376
  C      -0.362652     -1.121118     -0.285229
  C       0.918746     -0.425107      0.030639
  C       1.235525      0.847494      0.426160
  N       2.583112      0.971208      0.597098
  C       3.079076     -0.203053      0.313446
  N       2.117781     -1.084844     -0.036729
  C      -1.871368      0.733122      0.521779
  O      -1.980993      1.939257      0.437795
  O      -2.100171      0.060465      1.633399
  H      -0.321418      1.063095     -1.749033
  H      -1.916942      1.269997     -2.027198
  H      -2.396442     -0.777784     -0.854456
  H      -0.679400     -1.715401      0.576153
  H      -0.202791     -1.788421     -1.133504
  H       0.592912      1.688853      0.596658
  H       4.121888     -0.443246      0.352182
  H       2.244121     -2.048338     -0.303645
  H      -2.354512      0.631186      2.385453
20
Coordinates from ORCA-job geo_opt E -34.366569540370
  N      -1.194828      0.566492     -1.868836
  C      -1.503813     -0.165591     -0.657061
  C      -0.364815     -1.125895     -0.284356
  C       0.915491     -0.429113      0.032020
  C       1.229004      0.841392      0.436422
  N       2.575818      0.969455      0.606448
  C       3.075763     -0.200610      0.313079
  N       2.117225     -1.083948     -0.042200
  C      -1.870458      0.735833      0.518640
  O      -2.004116      1.938641      0.425512
  O      -2.074133      0.069101      1.637950
  H      -0.317141      1.062874     -1.746565
  H      -1.909727      1.267247     -2.034117
  H      -2.399127     -0.771742     -0.853329
  H      -0.683503     -1.721436      0.574837
  H      -0.205353     -1.792767     -1.133109
  H       0.583481      1.679148      0.613532
  H       4.119303     -0.436917      0.348168
  H       2.247021     -2.045052     -0.314658
  H      -2.336092      0.642887      2.384353
20
Coordinates from ORCA-job geo_opt E -34.366588785090
  N      -1.185123      0.563996     -1.868728
  C      -1.501396     -0.165507     -0.657077
  C      -0.367446     -1.129784     -0.280273
  C       0.912771     -0.433023      0.034366
  C       1.223159      0.835277      0.448239
  N       2.569842      0.968209      0.612502
  C       3.073451     -0.197419      0.307514
  N       2.117064     -1.081917     -0.050849
  C      -1.874085      0.737779      0.515358
  O      -2.037001      1.936365      0.412748
  O      -2.053580      0.077757      1.642657
  H      -0.301537      1.050382     -1.747533
  H      -1.891113      1.274258     -2.032069
  H      -2.400599     -0.765923     -0.855230
  H      -0.688981     -1.722658      0.579544
  H      -0.209644     -1.800135     -1.126587
  H       0.574555      1.668920      0.633838
  H       4.118102     -0.429264      0.335340
  H       2.249852     -2.040586     -0.329973
  H      -2.328292      0.653273      2.382940
20
Coordinates from ORCA-job geo_opt E -34.366592326290
  N      -1.181327      0.564030     -1.868042
  C      -1.500449     -0.165238     -0.656600
  C      -0.368182     -1.130320     -0.278083
  C       0.912699     -0.433998      0.034782
  C       1.222394      0.834577      0.448440
  N       2.569227      0.968496      0.611005
  C       3.073489     -0.196425      0.304327
  N       2.117353     -1.081603     -0.053003
  C      -1.876126      0.737722      0.515567
  O      -2.043263      1.935816      0.412472
  O      -2.054869      0.077613      1.643022
  H      -0.294951      1.045695     -1.747803
  H      -1.883745      1.278712     -2.028555
  H      -2.400034     -0.764386     -0.857620
  H      -0.690405     -1.720118      0.583742
  H      -0.211450     -1.803244     -1.122455
  H       0.573478      1.667793      0.635199
  H       4.118466     -0.427340      0.330013
  H       2.250681     -2.040177     -0.332527
  H      -2.332986      0.652396      2.382847
20
Coordinates from ORCA-job geo_opt E -34.366593955280
  N      -1.179171      0.564090     -1.867740
  C      -1.499743     -0.165169     -0.656406
  C      -0.368648     -1.130775     -0.276811
  C       0.912807     -0.434992      0.035211
  C       1.221603      0.833683      0.449252
  N       2.568718      0.968670      0.609928
  C       3.073565     -0.195731      0.302329
  N       2.117702     -1.081514     -0.054326
  C      -1.877173      0.737816      0.515388
  O      -2.046325      1.935653      0.411549
  O      -2.055843      0.077856      1.642963
  H      -0.291695      1.044057     -1.747656
  H      -1.880432      1.280535     -2.026527
  H      -2.399381     -0.763485     -0.859929
  H      -0.691337     -1.718074      0.586685
  H      -0.212560     -1.805481     -1.119774
  H       0.572850      1.666687      0.637723
  H       4.118758     -0.426168      0.326355
  H       2.251710     -2.039981     -0.334203
  H      -2.335405      0.652326      2.382716
20
Coordinates from ORCA-job geo_opt E -34.366594372090
  N      -1.178595      0.564061     -1.867655
  C      -1.499507     -0.165289     -0.656366
  C      -0.368768     -1.131015     -0.276352
  C       0.912914     -0.435461      0.035545
  C       1.221311      0.833175      0.449918
  N       2.568530      0.968407      0.610496
  C       3.073644     -0.195547      0.301808
  N       2.117899     -1.081445     -0.055032
  C      -1.877280      0.737956      0.515112
  O      -2.046329      1.935761      0.410733
  O      -2.056245      0.078319      1.642776
  H      -0.291760      1.045067     -1.746887
  H      -1.880647      1.279666     -2.026827
  H      -2.399055     -0.763426     -0.860802
  H      -0.691624     -1.717447      0.587687
  H      -0.212744     -1.806213     -1.118884
  H       0.572956      1.666251      0.639330
  H       4.118859     -0.426010      0.325143
  H       2.252299     -2.039704     -0.335462
  H      -2.335855      0.652895      2.382446
