20
neutral_delta conformer 4
N      -1.15218973     0.88667443    -1.69341130
C      -1.37298868    -0.02322755    -0.61890665
C      -0.29717357    -1.03555012    -0.39022239
C       1.02844816    -0.46715991    -0.07963551
C       1.39333074     0.86611109     0.02449952
N       2.71731447     0.93231490     0.32674616
C       3.15429162    -0.32408995     0.40625019
N       2.15784848    -1.16977779     0.16616393
C      -1.76689246     0.68887387     0.62549165
O      -1.88189725     1.94299474     0.68744999
O      -2.02574161    -0.03006285     1.78509757
H      -1.35517667     1.85394361    -1.35365369
H      -1.78369836     0.73113238    -2.51418320
H      -2.28056094    -0.63586085    -0.90167272
H      -0.60906704    -1.58563700     0.54726632
H      -0.28196722    -1.79672175    -1.17998978
H       0.74197025     1.72130773    -0.11012736
H       4.19380637    -0.58604949     0.63858412
H       2.19586447    -2.22178392     0.15814055
H      -2.77552102     0.25256844     2.43284080
