20
neutral_delta CPCM-opt conformer 1
N      -0.86242648     1.63225164     0.43253525
C      -1.16587147     0.21689737     0.21077675
C      -0.10880249    -0.41802234    -0.73370724
C       1.26096434    -0.46981190    -0.13701784
C       2.21878191    -1.46566123    -0.08001691
N       3.35480057    -1.01337574     0.57165866
C       3.08417895     0.24399014     0.91083947
N       1.84085806     0.61210594     0.49526674
C      -2.55767471    -0.01820127    -0.38483695
O      -3.18648411     0.80327088    -1.03302788
O      -3.01379820    -1.26529323    -0.12898925
H      -1.47164173     2.00878945     1.16336204
H      -1.07382563     2.16254061    -0.41885773
H      -1.12865738    -0.30497591     1.17879581
H      -0.41098176    -1.44043943    -0.99856769
H      -0.10493753     0.16885331    -1.66944354
H       2.15017402    -2.47602476    -0.47569365
H       3.74381344     0.91739410     1.45146340
H       1.31782119     1.47452737     0.67695344
H      -3.88629103    -1.36881502    -0.56980485
