20
Coordinates from ORCA-job geo_opt E -34.375896005890
  N          -1.36977669431246     -1.27254810198891     -0.21714563790296
  C          -1.50492599927427      0.14229414086564      0.18086143803451
  C          -0.33082886046764      0.94510360408120     -0.38909462952231
  C           0.98503612913364      0.37511460824686      0.02457459033907
  C           2.09498377142477      0.99023463346963      0.53369494318328
  N           3.02954459304842      0.00828792537342      0.70612152694471
  C           2.47009390285014     -1.14753125723926      0.30608405049899
  N           1.24325245543425     -0.96430344591808     -0.11211900787998
  C          -2.83163265402305      0.68712962772312     -0.48410511599176
  O          -3.26698649705562     -0.03836425717690     -1.40042555854757
  O          -3.28158655253077      1.75823596824226     -0.06176842189412
  H          -1.77536317620428     -1.90829873471620      0.47018193259148
  H          -0.34016003556654     -1.48367182383098     -0.35605693535494
  H          -1.94431961516757     -1.32515598249572     -1.08843860389461
  H          -1.56216792123502      0.26247129909808      1.26234108722237
  H          -0.41734660861947      1.98113823554266     -0.06367655457798
  H          -0.40709459520581      0.93350160920969     -1.48095875480657
  H           2.27961269923452      2.01475486617186      0.77649515589632
  H           3.96249517879986      0.13676899010717      1.06370249066262
  H           2.96717047973690     -2.09516188476555      0.32973198499946
