20
Coordinates from ORCA-job geo_opt E -34.311140521020
  N      -1.543441     -1.002903      0.376270
  C      -1.384684      0.381145      0.019020
  C      -0.223217      0.639987     -0.909519
  C       1.071612      0.241114     -0.334970
  C       1.393131     -0.308692      0.886108
  N       2.717984     -0.510628      0.992096
  C       3.246169     -0.086520     -0.169872
  N       2.266110      0.367380     -0.975072
  C      -2.663100      0.839270     -0.577648
  O      -3.686507      1.017795      0.115013
  O      -2.751060      1.082450     -1.934729
  H      -1.630831     -1.078004      1.412781
  H      -0.754469     -1.622019      0.092340
  H      -2.446463     -1.404435      0.014784
  H      -1.246882      0.989259      0.937674
  H      -0.200498      1.761494     -1.032877
  H      -0.415076      0.253040     -1.931176
  H       0.688142     -0.550527      1.667828
  H       3.262986     -0.912891      1.797424
  H       4.300093     -0.096315     -0.445476
20
Coordinates from ORCA-job geo_opt E -34.338772420240
  N      -1.579340     -1.040209      0.357718
  C      -1.399164      0.389184      0.027104
  C      -0.202589      0.638613     -0.882394
  C       1.098330      0.228718     -0.301098
  C       1.409153     -0.279718      0.941883
  N       2.741168     -0.477767      0.992795
  C       3.232891     -0.096855     -0.205068
  N       2.270067      0.330779     -0.997801
  C      -2.688422      0.893509     -0.599241
  O      -3.710074      1.032253      0.095124
  O      -2.720088      1.111775     -1.878203
  H      -1.692678     -1.162654      1.375580
  H      -0.791361     -1.636040      0.060324
  H      -2.452251     -1.415682     -0.049361
  H      -1.270769      0.972982      0.950371
  H      -0.161181      1.730560     -1.039921
  H      -0.378255      0.221235     -1.877087
  H       0.743661     -0.480493      1.761400
  H       3.288836     -0.836012      1.766080
  H       4.262067     -0.124178     -0.498205
20
Coordinates from ORCA-job geo_opt E -34.346672235830
  N      -1.572984     -1.065467      0.330174
  C      -1.408080      0.393741      0.027602
  C      -0.200774      0.635269     -0.870650
  C       1.102470      0.215367     -0.275124
  C       1.400525     -0.241039      0.987639
  N       2.744653     -0.448138      1.002177
  C       3.204808     -0.122573     -0.226390
  N       2.252391      0.276192     -1.015284
  C      -2.728544      0.911533     -0.624238
  O      -3.711403      1.037171      0.129042
  O      -2.698016      1.194853     -1.808825
  H      -1.701176     -1.228043      1.333994
  H      -0.764468     -1.610668      0.010920
  H      -2.414596     -1.428774     -0.126979
  H      -1.286985      0.952506      0.956742
  H      -0.150891      1.705210     -1.070654
  H      -0.363551      0.165520     -1.838343
  H       0.773145     -0.393450      1.838095
  H       3.297583     -0.771194      1.769924
  H       4.225895     -0.178018     -0.529820
20
Coordinates from ORCA-job geo_opt E -34.347877885870
  N      -1.581628     -1.062466      0.294408
  C      -1.402575      0.406837      0.038053
  C      -0.198144      0.645061     -0.861109
  C       1.105430      0.217334     -0.264282
  C       1.410283     -0.194480      1.010025
  N       2.755924     -0.429697      1.013668
  C       3.201491     -0.161467     -0.232860
  N       2.243574      0.226127     -1.024482
  C      -2.735850      0.968962     -0.598661
  O      -3.721797      0.939367      0.164979
  O      -2.734058      1.183097     -1.810759
  H      -1.718686     -1.258274      1.290833
  H      -0.768126     -1.589601     -0.043911
  H      -2.418182     -1.399814     -0.193744
  H      -1.270802      0.926311      0.987589
  H      -0.144838      1.712041     -1.079787
  H      -0.360086      0.153953     -1.821043
  H       0.803239     -0.297155      1.881489
  H       3.313704     -0.733488      1.792938
  H       4.221125     -0.252649     -0.543342
20
Coordinates from ORCA-job geo_opt E -34.348825451950
  N      -1.590934     -1.103214      0.255626
  C      -1.406430      0.371372      0.039579
  C      -0.208129      0.616169     -0.863097
  C       1.101844      0.210816     -0.260521
  C       1.424590     -0.124263      1.029605
  N       2.770922     -0.378851      1.030793
  C       3.199372     -0.194733     -0.234818
  N       2.227641      0.157222     -1.036724
  C      -2.756117      0.958792     -0.584278
  O      -3.712167      0.941239      0.218390
  O      -2.719391      1.390970     -1.766733
  H      -1.744816     -1.324794      1.244416
  H      -0.764787     -1.608754     -0.088611
  H      -2.416906     -1.423312     -0.266681
  H      -1.268106      0.862528      1.004557
  H      -0.169631      1.680175     -1.112277
  H      -0.359752      0.094738     -1.811978
  H       0.840405     -0.162498      1.922965
  H       3.335284     -0.640891      1.827807
  H       4.217108     -0.322712     -0.548021
20
Coordinates from ORCA-job geo_opt E -34.350129006290
  N      -1.588886     -1.099304      0.252344
  C      -1.402888      0.373690      0.038912
  C      -0.206192      0.621853     -0.863669
  C       1.102897      0.217332     -0.261297
  C       1.425508     -0.107869      1.030705
  N       2.768085     -0.375571      1.030358
  C       3.194966     -0.209175     -0.238048
  N       2.225364      0.142104     -1.040138
  C      -2.752283      0.959959     -0.576968
  O      -3.723463      0.887018      0.197951
  O      -2.711271      1.402726     -1.731798
  H      -1.753490     -1.319154      1.239542
  H      -0.758221     -1.603477     -0.081470
  H      -2.408589     -1.419459     -0.277368
  H      -1.267125      0.862398      1.004215
  H      -0.170861      1.685751     -1.109208
  H      -0.355423      0.105856     -1.815086
  H       0.843707     -0.136467      1.926384
  H       3.328824     -0.635627      1.826496
  H       4.209341     -0.352582     -0.551856
20
Coordinates from ORCA-job geo_opt E -34.350720199530
  N      -1.589554     -1.103181      0.242321
  C      -1.399197      0.369129      0.038477
  C      -0.205721      0.622496     -0.865010
  C       1.103355      0.220449     -0.263332
  C       1.430914     -0.074097      1.034136
  N       2.768881     -0.360810      1.032601
  C       3.189556     -0.235699     -0.242467
  N       2.219140      0.106620     -1.046899
  C      -2.752283      0.963053     -0.563914
  O      -3.736760      0.802239      0.176816
  O      -2.699319      1.478179     -1.680704
  H      -1.774619     -1.324049      1.225541
  H      -0.750527     -1.603635     -0.075138
  H      -2.398399     -1.420605     -0.304453
  H      -1.262950      0.849248      1.007817
  H      -0.177139      1.686478     -1.110891
  H      -0.350671      0.109025     -1.818077
  H       0.857802     -0.074224      1.936455
  H       3.327908     -0.606913      1.833036
  H       4.199584     -0.403703     -0.556313
20
Coordinates from ORCA-job geo_opt E -34.351327411900
  N      -1.591064     -1.107208      0.236314
  C      -1.395495      0.363440      0.036486
  C      -0.205012      0.621238     -0.867994
  C       1.103941      0.221151     -0.267538
  C       1.435775     -0.047009      1.034452
  N       2.769538     -0.348092      1.033621
  C       3.185942     -0.256873     -0.245965
  N       2.214919      0.076446     -1.052824
  C      -2.751535      0.964339     -0.552417
  O      -3.746767      0.722923      0.148626
  O      -2.688462      1.557497     -1.627216
  H      -1.796730     -1.324099      1.216306
  H      -0.745313     -1.607669     -0.062031
  H      -2.390774     -1.423649     -0.323865
  H      -1.258206      0.838657      1.008295
  H      -0.184120      1.685837     -1.112983
  H      -0.345512      0.111748     -1.823443
  H       0.869867     -0.023901      1.941547
  H       3.326321     -0.581255      1.838678
  H       4.192686     -0.443522     -0.558049
20
Coordinates from ORCA-job geo_opt E -34.351990383230
  N      -1.593434     -1.111940      0.230080
  C      -1.393116      0.357832      0.035194
  C      -0.204850      0.618931     -0.869959
  C       1.104462      0.220999     -0.270171
  C       1.441599     -0.019896      1.035723
  N       2.771980     -0.334347      1.034592
  C       3.181976     -0.277682     -0.249232
  N       2.209451      0.046180     -1.057723
  C      -2.751336      0.966053     -0.542684
  O      -3.754755      0.647412      0.113102
  O      -2.678603      1.638025     -1.567449
  H      -1.819165     -1.326672      1.206077
  H      -0.741735     -1.612081     -0.050793
  H      -2.383992     -1.426407     -0.344008
  H      -1.254004      0.828247      1.009193
  H      -0.190248      1.683739     -1.115251
  H      -0.341623      0.110503     -1.826456
  H       0.883547      0.027207      1.946971
  H       3.328592     -0.553695      1.843366
  H       4.185254     -0.482411     -0.560573
20
Coordinates from ORCA-job geo_opt E -34.353058930790
  N      -1.598127     -1.119250      0.219693
  C      -1.390156      0.349283      0.034585
  C      -0.204920      0.614991     -0.871601
  C       1.105242      0.220854     -0.272798
  C       1.451974      0.022484      1.037458
  N       2.777048     -0.312429      1.035621
  C       3.175363     -0.309448     -0.253169
  N       2.199659     -0.000465     -1.063249
  C      -2.750713      0.968824     -0.527763
  O      -3.762000      0.540655      0.046363
  O      -2.667002      1.751677     -1.465555
  H      -1.852013     -1.333073      1.188860
  H      -0.739303     -1.619160     -0.038034
  H      -2.375639     -1.428431     -0.374678
  H      -1.248128      0.811178      1.012278
  H      -0.198660      1.679829     -1.117977
  H      -0.336765      0.106900     -1.828862
  H       0.906578      0.107569      1.953941
  H       3.334960     -0.510085      1.848495
  H       4.172602     -0.541901     -0.563609
20
Coordinates from ORCA-job geo_opt E -34.354696220620
  N      -1.606541     -1.131398      0.202399
  C      -1.386185      0.335179      0.035345
  C      -0.205623      0.608285     -0.872537
  C       1.106215      0.220692     -0.275566
  C       1.469931      0.088745      1.037949
  N       2.786292     -0.277217      1.035984
  C       3.164032     -0.357718     -0.256478
  N       2.182280     -0.072583     -1.067521
  C      -2.748940      0.972809     -0.503894
  O      -3.761048      0.401531     -0.078908
  O      -2.657775      1.902796     -1.287653
  H      -1.899053     -1.346419      1.160185
  H      -0.740081     -1.631963     -0.025228
  H      -2.366255     -1.429110     -0.420337
  H      -1.239504      0.782308      1.019178
  H      -0.211515      1.673058     -1.120591
  H      -0.330553      0.100156     -1.830546
  H       0.945316      0.233758      1.959577
  H       3.348128     -0.440393      1.852873
  H       4.150877     -0.632515     -0.564230
20
Coordinates from ORCA-job geo_opt E -34.357577754240
  N      -1.625912     -1.151516      0.179716
  C      -1.383913      0.311022      0.037544
  C      -0.206799      0.592703     -0.871024
  C       1.108791      0.216535     -0.276418
  C       1.501887      0.181244      1.034877
  N       2.807210     -0.222410      1.032928
  C       3.149702     -0.420926     -0.256869
  N       2.155975     -0.172800     -1.065255
  C      -2.742624      0.975852     -0.476202
  O      -3.733929      0.251899     -0.317566
  O      -2.664252      2.085221     -0.978212
  H      -1.972717     -1.367297      1.118862
  H      -0.757041     -1.662705     -0.008805
  H      -2.366508     -1.424829     -0.478507
  H      -1.228908      0.741224      1.028099
  H      -0.228835      1.657750     -1.120888
  H      -0.322124      0.079656     -1.827860
  H       1.007895      0.412416      1.955985
  H       3.381125     -0.332894      1.850301
  H       4.120977     -0.750146     -0.560706
20
Coordinates from ORCA-job geo_opt E -34.359837920020
  N      -1.662720     -1.164046      0.184257
  C      -1.398196      0.292226      0.046669
  C      -0.204974      0.572450     -0.851353
  C       1.118880      0.206399     -0.258342
  C       1.546644      0.233052      1.046493
  N       2.851590     -0.183844      1.024411
  C       3.153332     -0.447286     -0.265585
  N       2.140491     -0.223920     -1.058994
  C      -2.726650      0.963747     -0.501630
  O      -3.676358      0.154966     -0.615090
  O      -2.710305      2.203033     -0.714710
  H      -2.064734     -1.374640      1.102855
  H      -0.816168     -1.718242      0.023172
  H      -2.410529     -1.391780     -0.494295
  H      -1.235759      0.740413      1.031066
  H      -0.229596      1.640899     -1.095388
  H      -0.314853      0.036051     -1.798289
  H       1.069635      0.520372      1.957343
  H       3.457767     -0.261317      1.829208
  H       4.112503     -0.798534     -0.591798
20
Coordinates from ORCA-job geo_opt E -34.362014421840
  N      -1.671347     -1.179196      0.163279
  C      -1.389598      0.270825      0.059902
  C      -0.210252      0.561621     -0.849183
  C       1.114304      0.201666     -0.261186
  C       1.573756      0.330360      1.024184
  N       2.860673     -0.132011      1.015296
  C       3.127191     -0.515836     -0.251471
  N       2.101394     -0.337480     -1.038471
  C      -2.717346      0.963399     -0.465261
  O      -3.564606      0.162554     -0.904256
  O      -2.779923      2.194864     -0.373830
  H      -2.087451     -1.400438      1.072888
  H      -0.828233     -1.737424      0.000722
  H      -2.420004     -1.370522     -0.531750
  H      -1.218590      0.694842      1.052295
  H      -0.248763      1.629972     -1.089435
  H      -0.315969      0.032711     -1.799121
  H       1.131268      0.709663      1.920825
  H       3.475415     -0.155411      1.812806
  H       4.068080     -0.924159     -0.558231
20
Coordinates from ORCA-job geo_opt E -34.363188253850
  N      -1.665774     -1.178034      0.152377
  C      -1.390147      0.274659      0.087121
  C      -0.216389      0.573895     -0.830077
  C       1.108801      0.203913     -0.248148
  C       1.588614      0.366752      1.024342
  N       2.866555     -0.119747      1.011808
  C       3.106116     -0.551170     -0.244367
  N       2.073332     -0.377635     -1.023449
  C      -2.718318      0.946565     -0.465854
  O      -3.522370      0.134724     -0.958738
  O      -2.807273      2.167418     -0.361548
  H      -2.055281     -1.439726      1.063046
  H      -0.830348     -1.730011     -0.061785
  H      -2.432735     -1.324866     -0.543729
  H      -1.219944      0.689492      1.081979
  H      -0.244761      1.643221     -1.059542
  H      -0.331631      0.051786     -1.781577
  H       1.163162      0.786084      1.911581
  H       3.494582     -0.129637      1.798084
  H       4.033808     -0.987683     -0.551522
20
Coordinates from ORCA-job geo_opt E -34.364319273340
  N      -1.658977     -1.182591      0.126581
  C      -1.399675      0.272143      0.150352
  C      -0.230930      0.602162     -0.776056
  C       1.099918      0.214252     -0.210416
  C       1.640530      0.463246      1.022139
  N       2.893966     -0.084719      1.000041
  C       3.056256     -0.635680     -0.220356
  N       1.999397     -0.479055     -0.972625
  C      -2.710470      0.901332     -0.483434
  O      -3.386974      0.075229     -1.130256
  O      -2.902122      2.105026     -0.309218
  H      -1.978740     -1.544474      1.028905
  H      -0.864005     -1.723226     -0.223067
  H      -2.487082     -1.200753     -0.542202
  H      -1.234077      0.669729      1.148812
  H      -0.239532      1.676961     -0.972270
  H      -0.365320      0.095052     -1.731624
  H       1.258474      0.983985      1.873806
  H       3.563676     -0.063705      1.751907
  H       3.945687     -1.144915     -0.531019
20
Coordinates from ORCA-job geo_opt E -34.364961408020
  N      -1.628756     -1.186747      0.123940
  C      -1.402421      0.276500      0.142425
  C      -0.233080      0.623775     -0.777284
  C       1.094487      0.224824     -0.212645
  C       1.628313      0.453756      1.026663
  N       2.876856     -0.102512      1.008610
  C       3.046665     -0.637151     -0.217725
  N       1.995165     -0.466934     -0.975139
  C      -2.718321      0.904573     -0.489424
  O      -3.481813      0.050669     -0.984009
  O      -2.840895      2.126547     -0.451375
  H      -1.907039     -1.564210      1.032528
  H      -0.829223     -1.702733     -0.251076
  H      -2.468128     -1.228293     -0.536255
  H      -1.240166      0.671311      1.141159
  H      -0.238317      1.702011     -0.956544
  H      -0.369613      0.135403     -1.742237
  H       1.240265      0.965886      1.881364
  H       3.541083     -0.098559      1.765170
  H       3.934938     -1.148116     -0.528145
20
Coordinates from ORCA-job geo_opt E -34.365421281610
  N      -1.615401     -1.200001      0.107068
  C      -1.403288      0.264198      0.129974
  C      -0.232220      0.640138     -0.775999
  C       1.093372      0.234648     -0.213972
  C       1.642888      0.495285      1.013058
  N       2.876246     -0.091438      1.008517
  C       3.024739     -0.675908     -0.198266
  N       1.973713     -0.504185     -0.955838
  C      -2.723692      0.902430     -0.480077
  O      -3.479939      0.060687     -1.007767
  O      -2.862130      2.121364     -0.392516
  H      -1.868058     -1.585615      1.018758
  H      -0.817438     -1.703584     -0.286508
  H      -2.469612     -1.250340     -0.537804
  H      -1.246031      0.647307      1.135204
  H      -0.248552      1.722825     -0.930984
  H      -0.359857      0.173443     -1.753516
  H       1.272777      1.045235      1.852404
  H       3.544267     -0.076516      1.761894
  H       3.898214     -1.219972     -0.493631
20
Coordinates from ORCA-job geo_opt E -34.366561760140
  N      -1.584932     -1.229143      0.033410
  C      -1.403114      0.232785      0.116487
  C      -0.231957      0.692281     -0.751070
  C       1.088927      0.261708     -0.202232
  C       1.701409      0.621732      0.970336
  N       2.885294     -0.052909      1.005625
  C       2.948517     -0.789077     -0.124418
  N       1.886724     -0.627306     -0.869021
  C      -2.733616      0.877618     -0.452087
  O      -3.479737      0.040652     -1.006210
  O      -2.896799      2.090613     -0.310698
  H      -1.734711     -1.676904      0.937125
  H      -0.817643     -1.684206     -0.465739
  H      -2.494528     -1.260518     -0.543144
  H      -1.263840      0.567344      1.143950
  H      -0.272482      1.782855     -0.831894
  H      -0.343347      0.289593     -1.759570
  H       1.397949      1.292593      1.746809
  H       3.578014     -0.000856      1.735214
  H       3.769872     -1.428857     -0.372875
20
Coordinates from ORCA-job geo_opt E -34.368070333130
  N      -1.547813     -1.259320     -0.079533
  C      -1.400437      0.193543      0.099812
  C      -0.232377      0.753127     -0.710393
  C       1.081811      0.290288     -0.179826
  C       1.789765      0.769660      0.893592
  N       2.905502     -0.003376      0.992937
  C       2.837253     -0.917346     -0.000270
  N       1.754702     -0.772089     -0.717576
  C      -2.749641      0.842699     -0.407439
  O      -3.502998      0.009715     -0.963944
  O      -2.927280      2.048663     -0.217401
  H      -1.577614     -1.789022      0.789716
  H      -0.824570     -1.636179     -0.698069
  H      -2.509276     -1.274570     -0.572088
  H      -1.281065      0.454588      1.153739
  H      -0.303121      1.844024     -0.698425
  H      -0.324762      0.431008     -1.750223
  H       1.588786      1.583170      1.559425
  H       3.639595      0.096810      1.676467
  H       3.583540     -1.665395     -0.170502
20
Coordinates from ORCA-job geo_opt E -34.369436043790
  N      -1.506341     -1.273495     -0.198059
  C      -1.399192      0.163017      0.084875
  C      -0.235208      0.813599     -0.656635
  C       1.070326      0.314426     -0.146607
  C       1.888179      0.887522      0.795587
  N       2.932973      0.032432      0.965235
  C       2.712819     -1.021546      0.146582
  N       1.602611     -0.885604     -0.527964
  C      -2.772842      0.797952     -0.365143
  O      -3.530991     -0.040594     -0.912195
  O      -2.968173      1.996236     -0.136087
  H      -1.440647     -1.874933      0.620976
  H      -0.813626     -1.557597     -0.900095
  H      -2.492869     -1.295409     -0.629283
  H      -1.304921      0.347560      1.160281
  H      -0.333225      1.895079     -0.553800
  H      -0.310393      0.573158     -1.720618
  H       1.805843      1.815017      1.322682
  H       3.718393      0.170149      1.582434
  H       3.377283     -1.856966      0.067832
20
Coordinates from ORCA-job geo_opt E -34.370472446280
  N      -1.468958     -1.262495     -0.256684
  C      -1.408162      0.164609      0.087956
  C      -0.241176      0.860308     -0.600850
  C       1.055267      0.331796     -0.100461
  C       1.951920      0.933772      0.745304
  N       2.956230      0.029408      0.932835
  C       2.630162     -1.071225      0.217551
  N       1.493152     -0.925419     -0.406954
  C      -2.802069      0.750702     -0.367473
  O      -3.559853     -0.117364     -0.867680
  O      -3.012123      1.953745     -0.176918
  H      -1.390748     -1.893139      0.541838
  H      -0.746883     -1.491516     -0.954663
  H      -2.431419     -1.315397     -0.700930
  H      -1.352580      0.316925      1.172014
  H      -0.346108      1.929626     -0.439580
  H      -0.308353      0.674434     -1.676792
  H       1.954608      1.907245      1.186130
  H       3.783202      0.171443      1.491498
  H       3.243894     -1.947457      0.173857
20
Coordinates from ORCA-job geo_opt E -34.371485611830
  N      -1.409806     -1.263410     -0.291898
  C      -1.428485      0.156142      0.101674
  C      -0.262814      0.911419     -0.528971
  C       1.031867      0.353250     -0.052781
  C       2.017256      0.969217      0.673037
  N       2.977295      0.020623      0.881706
  C       2.540291     -1.114600      0.293728
  N       1.373360     -0.952097     -0.270026
  C      -2.824171      0.715346     -0.393250
  O      -3.549367     -0.156264     -0.929647
  O      -3.066714      1.908305     -0.198242
  H      -1.292234     -1.916831      0.481951
  H      -0.672772     -1.430709     -0.990513
  H      -2.371248     -1.348628     -0.741667
  H      -1.410793      0.277645      1.188268
  H      -0.370195      1.967148     -0.293050
  H      -0.327943      0.800066     -1.615266
  H       2.103670      1.977152      1.017383
  H       3.846514      0.155868      1.372876
  H       3.096290     -2.029642      0.294688
20
Coordinates from ORCA-job geo_opt E -34.372789893810
  N      -1.393847     -1.265459     -0.222083
  C      -1.467816      0.172296      0.135752
  C      -0.286750      0.919183     -0.487839
  C       1.017289      0.361959     -0.014076
  C       2.023027      0.954167      0.695874
  N       2.995392     -0.000523      0.836136
  C       2.546985     -1.109376      0.217872
  N       1.362099     -0.930213     -0.305736
  C      -2.836667      0.709454     -0.466164
  O      -3.503648     -0.156127     -1.066441
  O      -3.104852      1.896471     -0.291666
  H      -1.401340     -1.889232      0.585231
  H      -0.550731     -1.464406     -0.772573
  H      -2.283160     -1.378894     -0.793130
  H      -1.488865      0.330789      1.210844
  H      -0.366186      1.977307     -0.237001
  H      -0.359272      0.830608     -1.574869
  H       2.119393      1.948255      1.076107
  H       3.877506      0.117965      1.305302
  H       3.101443     -2.024223      0.168463
20
Coordinates from ORCA-job geo_opt E -34.374158664620
  N      -1.346277     -1.255641     -0.170733
  C      -1.503095      0.185892      0.161202
  C      -0.316157      0.962309     -0.416069
  C       0.994436      0.389987      0.027152
  C       2.060492      0.957639      0.659168
  N       3.008685     -0.030299      0.755751
  C       2.488683     -1.130913      0.187832
  N       1.279631     -0.919548     -0.265640
  C      -2.845640      0.670909     -0.539150
  O      -3.385177     -0.188105     -1.254784
  O      -3.205795      1.828851     -0.317085
  H      -1.530669     -1.861305      0.630756
  H      -0.386959     -1.454803     -0.494737
  H      -2.094076     -1.406619     -0.896623
  H      -1.588296      0.356179      1.229336
  H      -0.386149      2.008368     -0.110908
  H      -0.387286      0.935857     -1.505860
  H       2.219032      1.950022      1.022877
  H       3.919469      0.068193      1.170603
  H       3.005150     -2.066974      0.126913
20
Coordinates from ORCA-job geo_opt E -34.375126751710
  N      -1.368984     -1.267235     -0.180206
  C      -1.507896      0.167456      0.159980
  C      -0.320689      0.954733     -0.402765
  C       0.996197      0.389852      0.024365
  C       2.079524      0.971651      0.615245
  N       3.024648     -0.013503      0.732259
  C       2.492395     -1.134802      0.218369
  N       1.276416     -0.932471     -0.221480
  C      -2.841557      0.677733     -0.529931
  O      -3.337492     -0.133602     -1.330042
  O      -3.235401      1.809133     -0.220118
  H      -1.651543     -1.871833      0.592795
  H      -0.370998     -1.485035     -0.413004
  H      -2.051333     -1.391810     -0.967878
  H      -1.596374      0.321534      1.233933
  H      -0.398953      1.995760     -0.083440
  H      -0.385758      0.944974     -1.494071
  H       2.251323      1.972126      0.950927
  H       3.942798      0.100335      1.129617
  H       3.003678     -2.074995      0.185445
20
Coordinates from ORCA-job geo_opt E -34.375342697650
  N      -1.360794     -1.268382     -0.238494
  C      -1.506080      0.140012      0.163138
  C      -0.331671      0.965809     -0.363370
  C       0.984286      0.392062      0.040370
  C       2.114200      0.993355      0.518339
  N       3.034958     -0.001122      0.693934
  C       2.447362     -1.155342      0.331378
  N       1.217258     -0.958265     -0.069063
  C      -2.838326      0.671562     -0.503076
  O      -3.284480     -0.080040     -1.392304
  O      -3.280331      1.754812     -0.094451
  H      -1.682102     -1.912113      0.485309
  H      -0.335467     -1.457659     -0.442353
  H      -2.001060     -1.341814     -1.063125
  H      -1.596817      0.243399      1.246596
  H      -0.427173      1.990796     -0.006892
  H      -0.390389      0.990946     -1.456765
  H       2.330285      2.015649      0.745428
  H       3.975568      0.125930      1.033009
  H       2.930771     -2.109593      0.372390
20
Coordinates from ORCA-job geo_opt E -34.375713134490
  N      -1.367188     -1.267082     -0.195078
  C      -1.513557      0.146600      0.186046
  C      -0.338004      0.952307     -0.366860
  C       0.979458      0.381238      0.036145
  C       2.098716      0.985117      0.536003
  N       3.032941     -0.000105      0.686638
  C       2.465965     -1.151257      0.283262
  N       1.234003     -0.960668     -0.114068
  C      -2.828621      0.676850     -0.516956
  O      -3.228089     -0.052289     -1.447397
  O      -3.301576      1.740336     -0.098098
  H      -1.778473     -1.898660      0.492985
  H      -0.326072     -1.475488     -0.300035
  H      -1.931240     -1.324017     -1.072829
  H      -1.601193      0.276860      1.265763
  H      -0.423487      1.985219     -0.032703
  H      -0.405193      0.951117     -1.460034
  H       2.297894      2.003395      0.793740
  H       3.970729      0.129765      1.032111
  H       2.962987     -2.099238      0.291364
20
Coordinates from ORCA-job geo_opt E -34.375794011680
  N      -1.385664     -1.274305     -0.210716
  C      -1.504483      0.143622      0.178340
  C      -0.327164      0.937405     -0.392954
  C       0.989814      0.372675      0.024312
  C       2.090613      0.987057      0.552874
  N       3.032709      0.010730      0.716207
  C       2.486842     -1.142516      0.289379
  N       1.262396     -0.962321     -0.135031
  C      -2.829379      0.691324     -0.492366
  O      -3.278535     -0.049464     -1.390322
  O      -3.264198      1.775229     -0.088578
  H      -1.755810     -1.907294      0.498664
  H      -0.362872     -1.489686     -0.388336
  H      -2.000167     -1.326141     -1.057788
  H      -1.568491      0.273621      1.258516
  H      -0.413217      1.976685     -0.077254
  H      -0.396858      0.915965     -1.485516
  H       2.268836      2.007083      0.818862
  H       3.961458      0.145435      1.082766
  H       2.994172     -2.085105      0.298940
20
Coordinates from ORCA-job geo_opt E -34.375867490350
  N      -1.369463     -1.271580     -0.211038
  C      -1.506773      0.145669      0.180205
  C      -0.330901      0.949576     -0.382511
  C       0.985489      0.379250      0.029878
  C       2.096421      0.988172      0.542848
  N       3.030860      0.003592      0.705417
  C       2.469719     -1.147738      0.294683
  N       1.243294     -0.959294     -0.121270
  C      -2.831979      0.682700     -0.497364
  O      -3.269097     -0.059798     -1.398751
  O      -3.278281      1.763586     -0.096529
  H      -1.746969     -1.907760      0.491629
  H      -0.343049     -1.479031     -0.370118
  H      -1.968774     -1.331497     -1.067021
  H      -1.577559      0.272573      1.259917
  H      -0.417517      1.985115     -0.054347
  H      -0.402153      0.941511     -1.475017
  H       2.285600      2.009054      0.797682
  H       3.964029      0.131407      1.062535
  H       2.967101     -2.095507      0.309173
20
Coordinates from ORCA-job geo_opt E -34.375886100430
  N      -1.369781     -1.271500     -0.212227
  C      -1.506299      0.143898      0.181820
  C      -0.331640      0.947424     -0.383909
  C       0.984479      0.376976      0.027961
  C       2.095802      0.988705      0.537582
  N       3.030602      0.005650      0.703463
  C       2.469607     -1.148196      0.299373
  N       1.241895     -0.962395     -0.114342
  C      -2.830829      0.684197     -0.492775
  O      -3.261608     -0.047938     -1.406188
  O      -3.283351      1.757743     -0.079342
  H      -1.763614     -1.908042      0.481114
  H      -0.340210     -1.480179     -0.357178
  H      -1.954666     -1.325536     -1.077597
  H      -1.572522      0.268737      1.262311
  H      -0.418515      1.982965     -0.057165
  H      -0.404555      0.937424     -1.476242
  H       2.283904      2.011056      0.787109
  H       3.964353      0.134831      1.058710
  H       2.966947     -2.095820      0.317523
20
Coordinates from ORCA-job geo_opt E -34.375893803070
  N      -1.369960     -1.272053     -0.214653
  C      -1.505314      0.142860      0.181862
  C      -0.331204      0.945725     -0.387308
  C       0.984779      0.375431      0.025364
  C       2.095064      0.989510      0.534958
  N       3.029775      0.007281      0.705213
  C       2.470153     -1.147857      0.303118
  N       1.243195     -0.963660     -0.114029
  C      -2.830824      0.686025     -0.487178
  O      -3.263212     -0.041344     -1.403698
  O      -3.283153      1.757279     -0.067898
  H      -1.772085     -1.908408      0.474090
  H      -0.340191     -1.482153     -0.354934
  H      -1.947872     -1.324021     -1.084209
  H      -1.565800      0.265630      1.262877
  H      -0.418009      1.981647     -0.061923
  H      -0.406358      0.934035     -1.479332
  H       2.280706      2.013098      0.780987
  H       3.962884      0.136396      1.062167
  H       2.967426     -2.095421      0.324526
20
Coordinates from ORCA-job geo_opt E -34.375895668540
  N      -1.370006     -1.272566     -0.216758
  C      -1.504941      0.142295      0.181128
  C      -0.330805      0.945067     -0.388956
  C       0.985059      0.375008      0.024688
  C       2.094923      0.990124      0.534057
  N       3.029691      0.008240      0.705911
  C       2.470310     -1.147541      0.305627
  N       1.243214     -0.964336     -0.111858
  C      -2.831339      0.687037     -0.484413
  O      -3.265999     -0.038425     -1.401193
  O      -3.282037      1.757952     -0.062498
  H      -1.775332     -1.908517      0.470534
  H      -0.340464     -1.483662     -0.355762
  H      -1.945119     -1.324659     -1.087823
  H      -1.562578      0.263170      1.262487
  H      -0.417488      1.981118     -0.063725
  H      -0.406898      0.933267     -1.480845
  H       2.279587      2.014491      0.777463
  H       3.962739      0.137064      1.063111
  H       2.967483     -2.095124      0.328825
20
Coordinates from ORCA-job geo_opt E -34.375896005890
  N      -1.369777     -1.272548     -0.217146
  C      -1.504926      0.142294      0.180861
  C      -0.330829      0.945104     -0.389095
  C       0.985036      0.375115      0.024575
  C       2.094984      0.990235      0.533695
  N       3.029545      0.008288      0.706122
  C       2.470094     -1.147531      0.306084
  N       1.243252     -0.964303     -0.112119
  C      -2.831633      0.687130     -0.484105
  O      -3.266986     -0.038364     -1.400426
  O      -3.281587      1.758236     -0.061768
  H      -1.775363     -1.908299      0.470182
  H      -0.340160     -1.483672     -0.356057
  H      -1.944320     -1.325156     -1.088439
  H      -1.562168      0.262471      1.262341
  H      -0.417347      1.981138     -0.063677
  H      -0.407095      0.933502     -1.480959
  H       2.279613      2.014755      0.776495
  H       3.962495      0.136769      1.063702
  H       2.967170     -2.095162      0.329732
