20
zwitterion conformer 3
N      -1.54344125    -1.00290315     0.37627033
C      -1.38468445     0.38114493     0.01901970
C      -0.22321740     0.63998677    -0.90951858
C       1.07161206     0.24111362    -0.33496997
C       1.39313142    -0.30869217     0.88610773
N       2.71798418    -0.51062773     0.99209592
C       3.24616893    -0.08651981    -0.16987235
N       2.26611014     0.36738003    -0.97507152
C      -2.66310008     0.83927037    -0.57764798
O      -3.68650697     1.01779469     0.11501338
O      -2.75105970     1.08244959    -1.93472874
H      -1.63083069    -1.07800413     1.41278090
H      -0.75446945    -1.62201887     0.09233962
H      -2.44646255    -1.40443484     0.01478423
H      -1.24688184     0.98925944     0.93767370
H      -0.20049807     1.76149383    -1.03287688
H      -0.41507553     0.25304006    -1.93117553
H       0.68814193    -0.55052711     1.66782785
H       3.26298603    -0.91289055     1.79742409
H       4.30009329    -0.09631495    -0.44547592
