24
Coordinates from ORCA-job geo_opt_tzvp E -700.811667201202
  N           3.19714820860610      0.83714517136984      1.46585173306249
  C           2.42363822404259     -0.41813406320687      1.23599170704648
  C           1.48444428554219     -0.16031374547870      0.05293303019422
  O           1.30544933542215      1.00362986571250     -0.35294959255548
  N           0.88517944561964     -1.24195457907688     -0.46376882876097
  C          -0.05338399383026     -1.17765192698707     -1.58242446699658
  C          -1.50000706862132     -0.87485324797860     -1.14313849232439
  O          -2.38857382316533     -1.74215410649389     -1.20790928343549
  N          -1.70115187525046      0.38878729312620     -0.71208145229597
  C          -2.95329269111272      0.86272375325474     -0.15042618641822
  C          -3.05692712278485      0.83978668584477      1.40575314793558
  O          -2.09598807770660      0.36377246848420      2.07295045318615
  O          -4.13820162119770      1.31897970178094      1.85897725284891
  H           2.67466372672313      1.60068244065704      0.98613860031606
  H           4.13796301271573      0.79434190860558      1.05455540957695
  H           3.29400479091921      1.06315616339783      2.46290559721252
  H           3.11198400817200     -1.24872377775454      1.05039572676732
  H           1.83169358229407     -0.63346418388735      2.13386158877514
  H           1.06607522092210     -2.15213451992539     -0.04574154706028
  H           0.29405092030909     -0.40671675554096     -2.28448331241052
  H          -0.04831414112698     -2.14994189993515     -2.08500907991204
  H          -0.88106818575816      0.99399478638670     -0.64959872081720
  H          -3.12355071189355      1.89513998118298     -0.48764291421041
  H          -3.76583544884006      0.24390258646208     -0.55429846972428
