24
Coordinates from ORCA-job geo_opt_tzvp E -700.811650721416
  N       3.195915      0.836943      1.465371
  C       2.417831     -0.418001      1.240074
  C       1.483671     -0.161957      0.052102
  O       1.308708      1.002845     -0.357361
  N       0.885112     -1.243601     -0.466193
  C      -0.051920     -1.174624     -1.587331
  C      -1.498921     -0.873184     -1.147164
  O      -2.387679     -1.741734     -1.212800
  N      -1.700226      0.390193     -0.714400
  C      -2.953620      0.859143     -0.148057
  C      -3.049698      0.841175      1.408828
  O      -2.081005      0.375465      2.074176
  O      -4.133855      1.313697      1.865027
  H       2.679569      1.597732      0.974526
  H       4.139466      0.785028      1.061350
  H       3.285922      1.070882      2.461174
  H       3.103630     -1.252031      1.061519
  H       1.821579     -0.625151      2.136793
  H       1.059379     -2.153899     -0.045607
  H       0.297393     -0.401262     -2.285278
  H      -0.046665     -2.145072     -2.093211
  H      -0.880000      0.994553     -0.647488
  H      -3.131186      1.889089     -0.488613
  H      -3.763400      0.233773     -0.546594
24
Coordinates from ORCA-job geo_opt_tzvp E -700.811663031854
  N       3.193648      0.836979      1.467746
  C       2.422154     -0.419878      1.236339
  C       1.484528     -0.162315      0.051980
  O       1.305561      1.002349     -0.353292
  N       0.886312     -1.243520     -0.466590
  C      -0.052651     -1.175884     -1.585342
  C      -1.498905     -0.874914     -1.143567
  O      -2.386583     -1.743625     -1.206855
  N      -1.701168      0.389010     -0.713697
  C      -2.953932      0.859860     -0.149425
  C      -3.051200      0.844372      1.406972
  O      -2.084557      0.378055      2.073299
  O      -4.132634      1.322290      1.861829
  H       2.671498      1.598548      0.984333
  H       4.136091      0.793655      1.060350
  H       3.285718      1.064331      2.464913
  H       3.111945     -1.249388      1.051653
  H       1.828739     -0.635586      2.133097
  H       1.064244     -2.154139     -0.048236
  H       0.294795     -0.402567     -2.284517
  H      -0.047535     -2.146682     -2.090802
  H      -0.881549      0.994729     -0.650298
  H      -3.130271      1.889656     -0.491502
  H      -3.764246      0.234662     -0.547546
24
Coordinates from ORCA-job geo_opt_tzvp E -700.811606470371
  N       3.196831      0.836767      1.466216
  C       2.427798     -0.419852      1.233159
  C       1.484921     -0.160976      0.053880
  O       1.304680      1.002533     -0.350140
  N       0.885408     -1.241922     -0.462684
  C      -0.054186     -1.177937     -1.579866
  C      -1.499984     -0.874469     -1.139708
  O      -2.387517     -1.742028     -1.200326
  N      -1.701367      0.389921     -0.711782
  C      -2.952945      0.865788     -0.151912
  C      -3.056141      0.849171      1.403708
  O      -2.102079      0.362623      2.071624
  O      -4.144743      1.311975      1.854251
  H       2.669630      1.600144      0.991256
  H       4.136599      0.799446      1.052331
  H       3.295291      1.058744      2.464020
  H       3.118791     -1.247205      1.042594
  H       1.838731     -0.640812      2.131730
  H       1.067226     -2.152231     -0.045336
  H       0.292898     -0.407105     -2.282361
  H      -0.049658     -2.150531     -2.082129
  H      -0.881284      0.995493     -0.651185
  H      -3.123341      1.897066     -0.492957
  H      -3.765560      0.245397     -0.553543
24
Coordinates from ORCA-job geo_opt_tzvp E -700.811665548160
  N       3.197814      0.836794      1.465114
  C       2.423983     -0.418370      1.236108
  C       1.483612     -0.160272      0.054196
  O       1.305988      1.003450     -0.352436
  N       0.884572     -1.241632     -0.462972
  C      -0.053113     -1.176847     -1.582295
  C      -1.499973     -0.874283     -1.144041
  O      -2.387803     -1.742149     -1.207903
  N      -1.701435      0.388913     -0.711965
  C      -2.953901      0.862189     -0.150586
  C      -3.057646      0.839832      1.405344
  O      -2.097060      0.364049      2.072854
  O      -4.138521      1.319775      1.858248
  H       2.674805      1.599994      0.985265
  H       4.138352      0.793573      1.053377
  H       3.295065      1.063105      2.462045
  H       3.112118     -1.248966      1.049719
  H       1.832880     -0.633541      2.134616
  H       1.064503     -2.151859     -0.044632
  H       0.295082     -0.405427     -2.283442
  H      -0.047531     -2.148924     -2.085330
  H      -0.881221      0.993788     -0.647625
  H      -3.124857      1.894373     -0.488313
  H      -3.765713      0.242433     -0.554504
24
Coordinates from ORCA-job geo_opt_tzvp E -700.811665799909
  N       3.195925      0.836954      1.467286
  C       2.424262     -0.419252      1.235413
  C       1.485306     -0.161129      0.052169
  O       1.304360      1.003369     -0.351655
  N       0.886347     -1.242607     -0.465289
  C      -0.053337     -1.177270     -1.583084
  C      -1.499614     -0.875605     -1.141778
  O      -2.387831     -1.743422     -1.206154
  N      -1.701581      0.388556     -0.712499
  C      -2.953923      0.861915     -0.150455
  C      -3.055512      0.842919      1.405901
  O      -2.092798      0.370397      2.073210
  O      -4.137091      1.321582      1.859226
  H       2.672852      1.600057      0.987464
  H       4.137275      0.795560      1.057058
  H       3.291227      1.062231      2.464649
  H       3.113865     -1.248604      1.049088
  H       1.832144     -0.636524      2.132687
  H       1.067382     -2.153093     -0.047987
  H       0.293205     -0.405323     -2.284437
  H      -0.048382     -2.148934     -2.086852
  H      -0.881974      0.994497     -0.651108
  H      -3.126319      1.893127     -0.490230
  H      -3.765787      0.240599     -0.551780
24
Coordinates from ORCA-job geo_opt_tzvp E -700.811667201202
  N       3.197148      0.837145      1.465852
  C       2.423638     -0.418134      1.235992
  C       1.484444     -0.160314      0.052933
  O       1.305449      1.003630     -0.352950
  N       0.885179     -1.241955     -0.463769
  C      -0.053384     -1.177652     -1.582424
  C      -1.500007     -0.874853     -1.143138
  O      -2.388574     -1.742154     -1.207909
  N      -1.701152      0.388787     -0.712081
  C      -2.953293      0.862724     -0.150426
  C      -3.056927      0.839787      1.405753
  O      -2.095988      0.363772      2.072950
  O      -4.138202      1.318980      1.858977
  H       2.674664      1.600682      0.986139
  H       4.137963      0.794342      1.054555
  H       3.294005      1.063156      2.462906
  H       3.111984     -1.248724      1.050396
  H       1.831694     -0.633464      2.133862
  H       1.066075     -2.152135     -0.045742
  H       0.294051     -0.406717     -2.284483
  H      -0.048314     -2.149942     -2.085009
  H      -0.881068      0.993995     -0.649599
  H      -3.123551      1.895140     -0.487643
  H      -3.765835      0.243903     -0.554298
