24
zwitterion conformer 2
N       3.19591462     0.83694278     1.46537096
C       2.41783064    -0.41800127     1.24007363
C       1.48367143    -0.16195720     0.05210195
O       1.30870837     1.00284475    -0.35736103
N       0.88511243    -1.24360128    -0.46619320
C      -0.05191967    -1.17462387    -1.58733052
C      -1.49892073    -0.87318393    -1.14716366
O      -2.38767943    -1.74173420    -1.21280033
N      -1.70022581     0.39019309    -0.71440004
C      -2.95362020     0.85914256    -0.14805742
C      -3.04969825     0.84117514     1.40882811
O      -2.08100501     0.37546454     2.07417569
O      -4.13385489     1.31369689     1.86502670
H       2.67956884     1.59773152     0.97452627
H       4.13946609     0.78502760     1.06134977
H       3.28592239     1.07088198     2.46117385
H       3.10362983    -1.25203116     1.06151945
H       1.82157917    -0.62515057     2.13679303
H       1.05937877    -2.15389859    -0.04560741
H       0.29739255    -0.40126155    -2.28527815
H      -0.04666476    -2.14507210    -2.09321069
H      -0.88000046     0.99455326    -0.64748753
H      -3.13118602     1.88908857    -0.48861322
H      -3.76339990     0.23377304    -0.54659431
