14
Coordinates from ORCA-job geo_opt E -25.124359346840
  N          -1.26721604027138     -0.93764938661776      0.23840994523608
  C          -0.10760289301695     -0.08350078672842      0.55554447154985
  C           1.17004803291999     -0.47823940623605     -0.20056005283727
  O           2.25843595956833      0.31400951931977      0.20352524143560
  C          -0.52866958935449      1.38317895052895      0.12734227306260
  O          -1.70664072707775      1.46712673872535     -0.27223076157933
  O           0.32968649573097      2.26899099670421      0.21315628631131
  H          -1.96457693159554     -0.19508997623075     -0.09177508959137
  H          -1.63696162842190     -1.44508854428029      1.04487789094149
  H          -1.07526706392629     -1.58841034756263     -0.52781674421104
  H           0.10939916212764     -0.06861658561626      1.62481592564290
  H           1.45524588017129     -1.50999789155344      0.02493887953688
  H           1.00557742840123     -0.37039042159953     -1.28400260814673
  H           1.95854190474486      1.24367713114685      0.19631346264902
