14
Coordinates from ORCA-job geo_opt E -25.074262687800
  N      -1.291118     -0.922116      0.296330
  C      -0.247949      0.037307      0.473383
  C       1.067834     -0.364299     -0.164167
  O       1.990198      0.671914      0.092829
  C      -0.603889      1.379345     -0.095346
  O      -1.572699      1.444802     -0.910884
  O       0.131100      2.495663      0.285315
  H      -2.185243     -0.451303      0.570415
  H      -1.099304     -1.694125      0.975019
  H      -1.329689     -1.330389     -0.660606
  H      -0.096404      0.213835      1.558173
  H       1.461315     -1.323805      0.178197
  H       0.967956     -0.422363     -1.266684
  H       2.807892      0.265534      0.520565
14
Coordinates from ORCA-job geo_opt E -25.100316831640
  N      -1.287448     -0.912383      0.294950
  C      -0.224890      0.079004      0.485640
  C       1.104839     -0.363376     -0.153916
  O       2.102066      0.616000      0.073250
  C      -0.643066      1.424034     -0.105359
  O      -1.620039      1.440648     -0.882658
  O      -0.046697      2.491150      0.301664
  H      -2.184122     -0.460207      0.531047
  H      -1.126521     -1.694230      0.949786
  H      -1.312797     -1.289929     -0.662030
  H      -0.060916      0.259213      1.558505
  H       1.441230     -1.334522      0.217214
  H       0.981714     -0.448481     -1.247546
  H       2.876648      0.193077      0.491993
14
Coordinates from ORCA-job geo_opt E -25.104226593510
  N      -1.275546     -0.914277      0.301288
  C      -0.209931      0.100494      0.514423
  C       1.109596     -0.353256     -0.146829
  O       2.134471      0.597728      0.068081
  C      -0.687690      1.465039     -0.068097
  O      -1.626084      1.415597     -0.882362
  O      -0.059675      2.451267      0.237655
  H      -2.178014     -0.475834      0.512088
  H      -1.134960     -1.722020      0.918152
  H      -1.290333     -1.233837     -0.671698
  H      -0.035588      0.261303      1.578913
  H       1.409838     -1.331281      0.239603
  H       0.954346     -0.439395     -1.232047
  H       2.889568      0.178473      0.483371
14
Coordinates from ORCA-job geo_opt E -25.106105159910
  N      -1.257538     -0.905573      0.302083
  C      -0.190813      0.113820      0.501369
  C       1.117895     -0.367398     -0.153181
  O       2.157595      0.563394      0.060456
  C      -0.674201      1.477889     -0.121494
  O      -1.684239      1.383792     -0.849079
  O      -0.147156      2.496459      0.301625
  H      -2.162715     -0.455985      0.484143
  H      -1.132753     -1.711253      0.925652
  H      -1.264504     -1.221411     -0.673756
  H      -0.010850      0.292238      1.560983
  H       1.388393     -1.346927      0.252075
  H       0.960265     -0.458034     -1.236909
  H       2.900619      0.138989      0.498572
14
Coordinates from ORCA-job geo_opt E -25.106521913980
  N      -1.254642     -0.912976      0.313361
  C      -0.195223      0.108083      0.513681
  C       1.111005     -0.359452     -0.157709
  O       2.152464      0.563904      0.073322
  C      -0.701512      1.477575     -0.097222
  O      -1.668744      1.358267     -0.880769
  O      -0.107123      2.531698      0.261539
  H      -2.162750     -0.463855      0.499020
  H      -1.124459     -1.727571      0.925515
  H      -1.265969     -1.209376     -0.670601
  H      -0.013553      0.277872      1.577157
  H       1.381238     -1.348373      0.224995
  H       0.951573     -0.423655     -1.243798
  H       2.897694      0.127859      0.514047
14
Coordinates from ORCA-job geo_opt E -25.107636841430
  N      -1.250478     -0.908915      0.316113
  C      -0.189217      0.111952      0.514393
  C       1.113949     -0.357912     -0.160565
  O       2.161196      0.556409      0.076446
  C      -0.703939      1.477591     -0.102002
  O      -1.679559      1.351269     -0.867807
  O      -0.123554      2.510947      0.249977
  H      -2.158161     -0.457923      0.495717
  H      -1.124678     -1.725346      0.924854
  H      -1.261662     -1.197907     -0.669710
  H      -0.006161      0.285152      1.575684
  H       1.374067     -1.351009      0.218293
  H       0.952725     -0.413630     -1.246201
  H       2.895470      0.119323      0.527348
14
Coordinates from ORCA-job geo_opt E -25.107773033900
  N      -1.245402     -0.907982      0.322471
  C      -0.184744      0.113760      0.513943
  C       1.115345     -0.354907     -0.167152
  O       2.169280      0.546819      0.084534
  C      -0.709436      1.476891     -0.108164
  O      -1.693875      1.339360     -0.858541
  O      -0.128850      2.509289      0.231910
  H      -2.153453     -0.454989      0.497166
  H      -1.120582     -1.725510      0.929273
  H      -1.258742     -1.190899     -0.665422
  H       0.001903      0.291074      1.573823
  H       1.365206     -1.356055      0.197332
  H       0.955360     -0.391620     -1.253480
  H       2.887991      0.104770      0.554845
14
Coordinates from ORCA-job geo_opt E -25.107994769450
  N      -1.235839     -0.907794      0.336088
  C      -0.176786      0.115817      0.511371
  C       1.117962     -0.347822     -0.182919
  O       2.185529      0.526922      0.099472
  C      -0.719857      1.473989     -0.119681
  O      -1.723797      1.320072     -0.837356
  O      -0.129853      2.507552      0.189317
  H      -2.144572     -0.451198      0.502603
  H      -1.110819     -1.725652      0.941354
  H      -1.255052     -1.183094     -0.654526
  H       0.018531      0.301467      1.568239
  H       1.349103     -1.365574      0.146551
  H       0.962501     -0.342923     -1.269911
  H       2.862949      0.078237      0.621937
14
Coordinates from ORCA-job geo_opt E -25.108185638970
  N      -1.231623     -0.908591      0.343413
  C      -0.172956      0.115357      0.508975
  C       1.119478     -0.344262     -0.192923
  O       2.194323      0.516239      0.102833
  C      -0.723665      1.471566     -0.124583
  O      -1.739703      1.314194     -0.823322
  O      -0.124062      2.505827      0.164801
  H      -2.140515     -0.449464      0.505582
  H      -1.106305     -1.725405      0.949634
  H      -1.254472     -1.183249     -0.647611
  H       0.027952      0.305082      1.564155
  H       1.343119     -1.370273      0.115804
  H       0.967157     -0.317533     -1.279583
  H       2.841272      0.070511      0.665366
14
Coordinates from ORCA-job geo_opt E -25.108405447690
  N      -1.227371     -0.909246      0.349209
  C      -0.169049      0.115358      0.506205
  C       1.120904     -0.341408     -0.202626
  O       2.203001      0.505109      0.104330
  C      -0.726497      1.469707     -0.128426
  O      -1.755179      1.310267     -0.807370
  O      -0.117634      2.503384      0.141795
  H      -2.136298     -0.447897      0.507278
  H      -1.101927     -1.724252      0.957518
  H      -1.252869     -1.185517     -0.641483
  H       0.037283      0.308459      1.559750
  H       1.337147     -1.374548      0.087644
  H       0.971249     -0.295240     -1.288611
  H       2.817242      0.065823      0.707326
14
Coordinates from ORCA-job geo_opt E -25.108748033200
  N      -1.220290     -0.909856      0.357401
  C      -0.162530      0.115647      0.502312
  C       1.123354     -0.337776     -0.216640
  O       2.216505      0.486498      0.107062
  C      -0.730933      1.467253     -0.134015
  O      -1.778638      1.303811     -0.780952
  O      -0.109093      2.499161      0.106731
  H      -2.129318     -0.444864      0.508101
  H      -1.095686     -1.722233      0.968870
  H      -1.248675     -1.187928     -0.632977
  H       0.051436      0.313529      1.553462
  H       1.326953     -1.380920      0.046820
  H       0.977804     -0.262628     -1.300945
  H       2.779112      0.060306      0.767310
14
Coordinates from ORCA-job geo_opt E -25.109139607480
  N      -1.213634     -0.910604      0.363665
  C      -0.156184      0.115480      0.498412
  C       1.125927     -0.335406     -0.229508
  O       2.229551      0.467454      0.107333
  C      -0.734172      1.465148     -0.137655
  O      -1.801390      1.300650     -0.750649
  O      -0.098257      2.494052      0.072892
  H      -2.122662     -0.441337      0.505554
  H      -1.091374     -1.719458      0.979828
  H      -1.242774     -1.192881     -0.625661
  H       0.064620      0.316906      1.547503
  H       1.317929     -1.386944      0.010163
  H       0.984534     -0.234602     -1.311619
  H       2.737886      0.061541      0.822282
14
Coordinates from ORCA-job geo_opt E -25.109581577510
  N      -1.207466     -0.911522      0.368275
  C      -0.150017      0.114696      0.494441
  C       1.128632     -0.334111     -0.241372
  O       2.242035      0.448088      0.106678
  C      -0.736487      1.463218     -0.139513
  O      -1.823738      1.300437     -0.716016
  O      -0.085460      2.487857      0.039428
  H      -2.116283     -0.436920      0.499154
  H      -1.089464     -1.715628      0.991069
  H      -1.235053     -1.200744     -0.619149
  H       0.076882      0.318457      1.541831
  H       1.309832     -1.392890     -0.023452
  H       0.991750     -0.209843     -1.320997
  H       2.694838      0.068906      0.872163
14
Coordinates from ORCA-job geo_opt E -25.110067236060
  N      -1.201968     -0.912631      0.370970
  C      -0.143994      0.113033      0.490361
  C       1.131557     -0.334101     -0.252163
  O       2.253753      0.428965      0.105103
  C      -0.737901      1.461494     -0.139278
  O      -1.845887      1.303425     -0.675759
  O      -0.070719      2.480379      0.006318
  H      -2.110184     -0.431171      0.487842
  H      -1.090826     -1.710656      1.002432
  H      -1.225398     -1.211539     -0.613666
  H       0.088205      0.317708      1.536474
  H       1.303029     -1.398914     -0.053134
  H       0.999387     -0.189370     -1.329275
  H       2.650946      0.083377      0.916313
14
Coordinates from ORCA-job geo_opt E -25.110869360630
  N      -1.202122     -0.915707      0.363177
  C      -0.142501      0.110465      0.482796
  C       1.132963     -0.339638     -0.259905
  O       2.260036      0.417166      0.085913
  C      -0.730877      1.462361     -0.128519
  O      -1.855650      1.326253     -0.641343
  O      -0.045886      2.476283      0.000699
  H      -2.108314     -0.428040      0.475969
  H      -1.094889     -1.702760      1.009767
  H      -1.219951     -1.241807     -0.611791
  H       0.093318      0.309873      1.529241
  H       1.307522     -1.405620     -0.060143
  H       1.004004     -0.196601     -1.337009
  H       2.602348      0.127773      0.943687
14
Coordinates from ORCA-job geo_opt E -25.111513913450
  N      -1.202059     -0.918086      0.352570
  C      -0.140497      0.107787      0.475968
  C       1.134491     -0.345650     -0.265854
  O       2.268657      0.404617      0.068818
  C      -0.724961      1.462707     -0.114817
  O      -1.866852      1.346269     -0.599101
  O      -0.023517      2.471583     -0.006169
  H      -2.104414     -0.420245      0.454201
  H      -1.105131     -1.691383      1.017860
  H      -1.209378     -1.274558     -0.611040
  H       0.097306      0.299585      1.523746
  H       1.309198     -1.412094     -0.063432
  H       1.006562     -0.206565     -1.343460
  H       2.560594      0.176033      0.963250
14
Coordinates from ORCA-job geo_opt E -25.112296998670
  N      -1.199560     -0.920312      0.343160
  C      -0.133585      0.100845      0.470617
  C       1.138802     -0.354439     -0.274059
  O       2.282944      0.381438      0.055660
  C      -0.720105      1.461207     -0.099600
  O      -1.888771      1.364295     -0.522420
  O       0.003509      2.458618     -0.035495
  H      -2.096181     -0.402967      0.410625
  H      -1.128931     -1.676093      1.031379
  H      -1.187450     -1.306983     -0.608148
  H       0.106799      0.283215      1.519877
  H       1.307188     -1.423849     -0.077376
  H       1.012875     -0.209427     -1.350642
  H       2.502465      0.244453      0.988962
14
Coordinates from ORCA-job geo_opt E -25.113342314240
  N      -1.202816     -0.922901      0.301300
  C      -0.127710      0.088892      0.459947
  C       1.144631     -0.374696     -0.274888
  O       2.296615      0.371804      0.011929
  C      -0.710011      1.460256     -0.049282
  O      -1.911403      1.400023     -0.394633
  O       0.034226      2.450316     -0.027983
  H      -2.077087     -0.355620      0.299406
  H      -1.201022     -1.629265      1.044360
  H      -1.142854     -1.393292     -0.607234
  H       0.106393      0.237783      1.517141
  H       1.325125     -1.434789     -0.038103
  H       1.006801     -0.273634     -1.355952
  H       2.459111      0.375124      0.966533
14
Coordinates from ORCA-job geo_opt E -25.114425421610
  N      -1.194608     -0.922444      0.292036
  C      -0.106635      0.069695      0.456962
  C       1.159662     -0.388326     -0.286479
  O       2.333136      0.307633      0.034289
  C      -0.715526      1.448792     -0.022992
  O      -1.954114      1.403161     -0.192256
  O       0.044489      2.414292     -0.137773
  H      -2.033009     -0.297982      0.164336
  H      -1.288660     -1.573440      1.076160
  H      -1.086118     -1.452330     -0.578306
  H       0.128946      0.203858      1.516457
  H       1.309512     -1.462998     -0.091507
  H       1.037123     -0.237209     -1.362900
  H       2.365801      0.487299      0.984512
14
Coordinates from ORCA-job geo_opt E -25.115363339890
  N      -1.207717     -0.916406      0.269699
  C      -0.097575      0.042260      0.465692
  C       1.165379     -0.403982     -0.283631
  O       2.302953      0.382770     -0.034254
  C      -0.707154      1.441143      0.020395
  O      -1.938590      1.374936     -0.189206
  O       0.033365      2.418097     -0.033442
  H      -2.000606     -0.227081      0.068085
  H      -1.392385     -1.522895      1.070297
  H      -1.069667     -1.484050     -0.572558
  H       0.128799      0.144617      1.531136
  H       1.377380     -1.447510     -0.007625
  H       0.996394     -0.343366     -1.363631
  H       2.409425      0.541466      0.911582
14
Coordinates from ORCA-job geo_opt E -25.115887195150
  N      -1.217701     -0.926006      0.263011
  C      -0.106484      0.026699      0.476892
  C       1.156761     -0.407817     -0.277804
  O       2.250369      0.454385     -0.095592
  C      -0.687750      1.446959      0.040347
  O      -1.896660      1.393749     -0.280342
  O       0.047121      2.424635      0.094185
  H      -2.006383     -0.220254      0.045116
  H      -1.429965     -1.516645      1.067696
  H      -1.064895     -1.505057     -0.567719
  H       0.116028      0.113264      1.544133
  H       1.427987     -1.420895      0.053451
  H       0.959981     -0.416985     -1.353946
  H       2.451593      0.553967      0.843112
14
Coordinates from ORCA-job geo_opt E -25.116257075300
  N      -1.225522     -0.928388      0.245278
  C      -0.107386      0.008548      0.488063
  C       1.156088     -0.417447     -0.272824
  O       2.223608      0.485040     -0.156261
  C      -0.670888      1.440527      0.078893
  O      -1.872873      1.398000     -0.278753
  O       0.061130      2.419712      0.185211
  H      -1.975700     -0.194839     -0.043820
  H      -1.509648     -1.466125      1.064798
  H      -1.046400     -1.558330     -0.539166
  H       0.111395      0.073979      1.557223
  H       1.469267     -1.407944      0.092535
  H       0.941664     -0.475049     -1.343027
  H       2.445266      0.622315      0.774389
14
Coordinates from ORCA-job geo_opt E -25.116628044680
  N      -1.233407     -0.925999      0.248945
  C      -0.107505     -0.009344      0.511918
  C       1.151811     -0.418784     -0.271384
  O       2.196852      0.509933     -0.205236
  C      -0.653001      1.429059      0.103019
  O      -1.824822      1.376883     -0.344734
  O       0.062717      2.411096      0.288797
  H      -1.954448     -0.185835     -0.106565
  H      -1.578733     -1.418483      1.073203
  H      -1.032909     -1.589959     -0.500444
  H       0.117259      0.048699      1.578949
  H       1.497983     -1.400472      0.092664
  H       0.919679     -0.488873     -1.336683
  H       2.438523      0.662079      0.720090
14
Coordinates from ORCA-job geo_opt E -25.116946702630
  N      -1.237999     -0.929950      0.248431
  C      -0.109372     -0.030102      0.536553
  C       1.141967     -0.422658     -0.271290
  O       2.162811      0.534878     -0.265338
  C      -0.627300      1.421875      0.139392
  O      -1.758889      1.387949     -0.405787
  O       0.070993      2.393929      0.418732
  H      -1.912192     -0.192870     -0.203381
  H      -1.663637     -1.349586      1.075610
  H      -1.008944     -1.650623     -0.437709
  H       0.126542      0.008920      1.600937
  H       1.524572     -1.389190      0.096904
  H       0.883472     -0.518560     -1.330250
  H       2.407979      0.735990      0.649735
14
Coordinates from ORCA-job geo_opt E -25.117188501270
  N      -1.238418     -0.929108      0.247340
  C      -0.109141     -0.036379      0.549709
  C       1.133738     -0.424620     -0.273230
  O       2.150526      0.540678     -0.291846
  C      -0.614240      1.418782      0.156689
  O      -1.710933      1.395539     -0.453709
  O       0.065650      2.385102      0.495244
  H      -1.891129     -0.207668     -0.242482
  H      -1.697046     -1.313849      1.074923
  H      -0.998678     -1.677514     -0.405881
  H       0.137417     -0.011256      1.611965
  H       1.528391     -1.384274      0.096117
  H       0.855914     -0.534222     -1.327402
  H       2.387949      0.778788      0.615103
14
Coordinates from ORCA-job geo_opt E -25.117363070300
  N      -1.239409     -0.927658      0.244594
  C      -0.104729     -0.044558      0.559590
  C       1.127342     -0.430194     -0.279950
  O       2.141504      0.541015     -0.313485
  C      -0.598481      1.416000      0.176177
  O      -1.661728      1.407406     -0.485245
  O       0.065654      2.372329      0.567800
  H      -1.860295     -0.225998     -0.291282
  H      -1.737087     -1.263732      1.071367
  H      -0.992253     -1.712751     -0.362874
  H       0.153605     -0.040595      1.619174
  H       1.533869     -1.382591      0.092044
  H       0.830170     -0.551236     -1.327358
  H       2.341839      0.842563      0.581986
14
Coordinates from ORCA-job geo_opt E -25.117412259980
  N      -1.241761     -0.926925      0.241542
  C      -0.101850     -0.048989      0.559384
  C       1.127957     -0.435398     -0.282957
  O       2.137053      0.541023     -0.320585
  C      -0.590305      1.415501      0.183061
  O      -1.645448      1.414834     -0.488606
  O       0.073647      2.366317      0.590132
  H      -1.853479     -0.229022     -0.303263
  H      -1.748426     -1.248158      1.069214
  H      -0.995355     -1.722990     -0.351673
  H       0.156509     -0.054894      1.618893
  H       1.542361     -1.382030      0.096362
  H       0.827781     -0.564846     -1.327635
  H       2.311316      0.875576      0.568671
14
Coordinates from ORCA-job geo_opt E -25.117466710240
  N      -1.246360     -0.925537      0.235791
  C      -0.097776     -0.056601      0.557160
  C       1.131822     -0.444810     -0.284183
  O       2.132402      0.540274     -0.327478
  C      -0.577892      1.414670      0.190859
  O      -1.632506      1.426164     -0.478623
  O       0.096158      2.356147      0.605626
  H      -1.850091     -0.227077     -0.312389
  H      -1.758689     -1.235575      1.064575
  H      -1.002068     -1.729608     -0.347046
  H       0.155318     -0.074468      1.617830
  H       1.557225     -1.382325      0.107824
  H       0.832711     -0.587797     -1.326364
  H       2.259746      0.926544      0.548957
14
Coordinates from ORCA-job geo_opt E -25.117573593550
  N      -1.255933     -0.921969      0.218899
  C      -0.091758     -0.075907      0.558733
  C       1.140076     -0.465333     -0.277525
  O       2.115704      0.544200     -0.355726
  C      -0.547921      1.410263      0.216642
  O      -1.595629      1.452879     -0.458543
  O       0.143451      2.328956      0.658238
  H      -1.836900     -0.218017     -0.339909
  H      -1.788218     -1.207581      1.044299
  H      -1.015924     -1.742285     -0.342066
  H       0.147010     -0.119767      1.621849
  H       1.596018     -1.374780      0.147562
  H       0.841772     -0.653253     -1.311852
  H       2.148252      1.042595      0.471938
14
Coordinates from ORCA-job geo_opt E -25.117923025180
  N      -1.272916     -0.912206      0.181371
  C      -0.082326     -0.110345      0.561835
  C       1.161893     -0.501994     -0.251529
  O       2.086686      0.551623     -0.393929
  C      -0.493068      1.402890      0.268018
  O      -1.535955      1.505470     -0.400998
  O       0.238959      2.274360      0.748227
  H      -1.819417     -0.192354     -0.380294
  H      -1.831372     -1.169987      0.999266
  H      -1.040849     -1.750500     -0.354437
  H       0.116190     -0.201935      1.629977
  H       1.672364     -1.348837      0.240390
  H       0.879654     -0.779153     -1.268509
  H       1.920159      1.232967      0.273149
14
Coordinates from ORCA-job geo_opt E -25.117753728180
  N      -1.288722     -0.902273      0.148922
  C      -0.081535     -0.126128      0.550361
  C       1.187416     -0.527468     -0.214013
  O       2.079961      0.551328     -0.400260
  C      -0.467670      1.404860      0.284832
  O      -1.555150      1.542566     -0.300604
  O       0.332296      2.245280      0.719943
  H      -1.861300     -0.143972     -0.337326
  H      -1.809311     -1.228004      0.966728
  H      -1.054476     -1.696812     -0.446965
  H       0.061719     -0.228673      1.626172
  H       1.721504     -1.322398      0.337906
  H       0.945946     -0.875399     -1.219485
  H       1.789321      1.307095      0.136329
14
Coordinates from ORCA-job geo_opt E -25.118087523880
  N      -1.282251     -0.908813      0.167972
  C      -0.087672     -0.108634      0.546193
  C       1.177734     -0.513166     -0.225352
  O       2.111968      0.534516     -0.378602
  C      -0.498553      1.408677      0.252365
  O      -1.602038      1.517201     -0.315130
  O       0.295479      2.275825      0.642282
  H      -1.882530     -0.153915     -0.301179
  H      -1.777277     -1.264121      0.988561
  H      -1.045204     -1.682388     -0.454899
  H       0.073504     -0.178463      1.622235
  H       1.678462     -1.349849      0.290848
  H       0.928361     -0.814558     -1.246542
  H       1.910016      1.237688      0.263788
14
Coordinates from ORCA-job geo_opt E -25.118430007840
  N      -1.271415     -0.907879      0.165450
  C      -0.086680     -0.101180      0.559604
  C       1.169107     -0.508475     -0.229098
  O       2.125892      0.516959     -0.380492
  C      -0.505215      1.407461      0.269666
  O      -1.583348      1.513265     -0.339346
  O       0.257581      2.284746      0.694567
  H      -1.847880     -0.173316     -0.338751
  H      -1.798580     -1.228851      0.981276
  H      -1.034344     -1.709182     -0.424306
  H       0.096040     -0.182576      1.632312
  H       1.662039     -1.354167      0.277204
  H       0.895498     -0.802420     -1.246781
  H       1.921303      1.245615      0.231233
14
Coordinates from ORCA-job geo_opt E -25.118943789260
  N      -1.270541     -0.906728      0.162457
  C      -0.087451     -0.103158      0.563097
  C       1.170016     -0.513212     -0.217230
  O       2.132368      0.508812     -0.354521
  C      -0.497630      1.406923      0.266189
  O      -1.586747      1.522314     -0.315788
  O       0.286679      2.277336      0.660286
  H      -1.858905     -0.167694     -0.316636
  H      -1.785367     -1.261213      0.972109
  H      -1.031850     -1.683091     -0.459979
  H       0.092939     -0.179600      1.636617
  H       1.657740     -1.359876      0.291384
  H       0.899106     -0.807257     -1.236274
  H       1.879644      1.266445      0.200827
14
Coordinates from ORCA-job geo_opt E -25.119579996960
  N      -1.269237     -0.910586      0.170082
  C      -0.091386     -0.114206      0.574515
  C       1.167873     -0.512286     -0.207740
  O       2.130039      0.515070     -0.321549
  C      -0.480566      1.395934      0.264682
  O      -1.567747      1.527873     -0.318305
  O       0.326001      2.255199      0.635408
  H      -1.858768     -0.163598     -0.311194
  H      -1.791147     -1.278904      0.968882
  H      -1.032779     -1.670193     -0.473457
  H       0.098040     -0.179801      1.646237
  H       1.655739     -1.365198      0.285338
  H       0.895191     -0.794864     -1.233218
  H       1.818746      1.295561      0.172858
14
Coordinates from ORCA-job geo_opt E -25.119948246530
  N      -1.266234     -0.910870      0.171955
  C      -0.093159     -0.111973      0.576186
  C       1.167861     -0.512686     -0.203376
  O       2.145734      0.503124     -0.295232
  C      -0.482601      1.395315      0.262153
  O      -1.575342      1.527395     -0.311230
  O       0.327263      2.258017      0.618237
  H      -1.862286     -0.163930     -0.300897
  H      -1.783323     -1.293413      0.967307
  H      -1.031881     -1.659002     -0.486183
  H       0.100596     -0.173875      1.647340
  H       1.643581     -1.375397      0.282495
  H       0.894717     -0.783655     -1.232708
  H       1.815075      1.300951      0.156492
14
Coordinates from ORCA-job geo_opt E -25.120501648620
  N      -1.261168     -0.912162      0.180544
  C      -0.095893     -0.106222      0.575160
  C       1.168718     -0.511629     -0.203014
  O       2.175735      0.481032     -0.246226
  C      -0.490737      1.393284      0.252906
  O      -1.594377      1.515186     -0.310583
  O       0.316130      2.271281      0.583487
  H      -1.868889     -0.163134     -0.281924
  H      -1.768881     -1.310504      0.974261
  H      -1.036583     -1.646847     -0.496260
  H       0.108115     -0.161475      1.645028
  H       1.619961     -1.396431      0.261684
  H       0.896016     -0.750312     -1.241959
  H       1.831853      1.297934      0.159435
14
Coordinates from ORCA-job geo_opt E -25.121313071140
  N      -1.258927     -0.913799      0.185972
  C      -0.098953     -0.102679      0.577084
  C       1.169175     -0.510544     -0.195621
  O       2.202098      0.456324     -0.178176
  C      -0.494673      1.392195      0.244218
  O      -1.608294      1.511927     -0.300145
  O       0.320349      2.274377      0.544053
  H      -1.880525     -0.167961     -0.259171
  H      -1.753088     -1.335594      0.976147
  H      -1.038571     -1.629374     -0.513191
  H       0.109296     -0.153040      1.646755
  H       1.595074     -1.418491      0.246023
  H       0.903985     -0.709836     -1.245292
  H       1.833054      1.306495      0.123885
14
Coordinates from ORCA-job geo_opt E -25.122576547750
  N      -1.262680     -0.918130      0.199153
  C      -0.101640     -0.097351      0.573408
  C       1.171232     -0.505891     -0.192543
  O       2.228967      0.420978     -0.061539
  C      -0.499466      1.390628      0.220106
  O      -1.625670      1.499139     -0.301401
  O       0.324482      2.278703      0.481350
  H      -1.907055     -0.177848     -0.214921
  H      -1.726350     -1.366014      0.993052
  H      -1.052768     -1.613258     -0.523886
  H       0.107761     -0.142975      1.644315
  H       1.559632     -1.451957      0.202246
  H       0.931655     -0.624288     -1.258983
  H       1.851900      1.308264      0.092183
14
Coordinates from ORCA-job geo_opt E -25.123814582520
  N      -1.260048     -0.931071      0.232383
  C      -0.109439     -0.084609      0.572217
  C       1.162825     -0.483653     -0.198569
  O       2.258413      0.343129      0.117693
  C      -0.523448      1.384972      0.171844
  O      -1.666950      1.466134     -0.319173
  O       0.302747      2.287792      0.359407
  H      -1.933201     -0.202495     -0.161032
  H      -1.687120     -1.402994      1.032105
  H      -1.062201     -1.605446     -0.513718
  H       0.119818     -0.105662      1.639997
  H       1.481131     -1.492188      0.085215
  H       0.959716     -0.445708     -1.279096
  H       1.957757      1.271800      0.113264
14
Coordinates from ORCA-job geo_opt E -25.123540243460
  N      -1.283417     -0.936755      0.241504
  C      -0.098339     -0.084411      0.536175
  C       1.180042     -0.485251     -0.213607
  O       2.235310      0.326771      0.212313
  C      -0.513540      1.385794      0.113917
  O      -1.690120      1.458059     -0.296789
  O       0.340975      2.273624      0.235444
  H      -1.986642     -0.183589     -0.052230
  H      -1.623459     -1.443120      1.059086
  H      -1.114135     -1.587967     -0.528016
  H       0.097158     -0.094791      1.612109
  H       1.481720     -1.513111      0.031147
  H       1.047212     -0.371107     -1.293416
  H       1.927234      1.255855      0.194902
14
Coordinates from ORCA-job geo_opt E -25.124306937650
  N      -1.267619     -0.939265      0.239236
  C      -0.108944     -0.081238      0.553461
  C       1.170941     -0.479462     -0.196430
  O       2.257562      0.315069      0.206425
  C      -0.528465      1.383043      0.125434
  O      -1.707154      1.467956     -0.275335
  O       0.326719      2.270932      0.216939
  H      -1.972736     -0.192700     -0.073652
  H      -1.627044     -1.462948      1.039195
  H      -1.089373     -1.570895     -0.545967
  H       0.104610     -0.070457      1.623580
  H       1.459485     -1.507686      0.042253
  H       1.011437     -0.379890     -1.280750
  H       1.970582      1.247541      0.178151
14
Coordinates from ORCA-job geo_opt E -25.124342335550
  N      -1.266464     -0.937812      0.240845
  C      -0.107274     -0.082951      0.557907
  C       1.168583     -0.477742     -0.201250
  O       2.258585      0.315857      0.195617
  C      -0.528939      1.382002      0.129763
  O      -1.702214      1.462573     -0.284248
  O       0.324512      2.270343      0.227818
  H      -1.960458     -0.194971     -0.096504
  H      -1.642335     -1.441774      1.046509
  H      -1.077869     -1.588204     -0.526736
  H       0.111332     -0.073190      1.627043
  H       1.456126     -1.508511      0.028057
  H       1.001774     -0.371823     -1.283736
  H       1.964642      1.246202      0.191457
14
Coordinates from ORCA-job geo_opt E -25.124356166840
  N      -1.266756     -0.937639      0.238751
  C      -0.107465     -0.083084      0.556165
  C       1.170111     -0.478621     -0.199141
  O       2.259145      0.314376      0.202230
  C      -0.529333      1.382237      0.126682
  O      -1.707833      1.465598     -0.271710
  O       0.328822      2.268172      0.209682
  H      -1.964484     -0.192770     -0.087272
  H      -1.634686     -1.449579      1.043056
  H      -1.078147     -1.582482     -0.533309
  H       0.108497     -0.068258      1.625695
  H       1.455343     -1.509794      0.028213
  H       1.006010     -0.372311     -1.282863
  H       1.960776      1.244155      0.196360
14
Coordinates from ORCA-job geo_opt E -25.124358775390
  N      -1.267058     -0.937798      0.238962
  C      -0.107572     -0.083215      0.555994
  C       1.169868     -0.477919     -0.200212
  O       2.258742      0.312755      0.205499
  C      -0.529301      1.382749      0.126541
  O      -1.707545      1.465907     -0.272268
  O       0.328988      2.268711      0.210179
  H      -1.964467     -0.194689     -0.090290
  H      -1.636105     -1.446333      1.045006
  H      -1.075914     -1.586950     -0.528838
  H       0.109195     -0.068159      1.625319
  H       1.454071     -1.510176      0.023649
  H       1.006149     -0.367889     -1.283639
  H       1.960949      1.243006      0.196639
14
Coordinates from ORCA-job geo_opt E -25.124359346840
  N      -1.267216     -0.937649      0.238410
  C      -0.107603     -0.083501      0.555544
  C       1.170048     -0.478239     -0.200560
  O       2.258436      0.314010      0.203525
  C      -0.528670      1.383179      0.127342
  O      -1.706641      1.467127     -0.272231
  O       0.329686      2.268991      0.213156
  H      -1.964577     -0.195090     -0.091775
  H      -1.636962     -1.445089      1.044878
  H      -1.075267     -1.588410     -0.527817
  H       0.109399     -0.068617      1.624816
  H       1.455246     -1.509998      0.024939
  H       1.005577     -0.370390     -1.284003
  H       1.958542      1.243677      0.196313
