14
zwitterion conformer 2
N      -1.29111805    -0.92211612     0.29633018
C      -0.24794852     0.03730731     0.47338256
C       1.06783366    -0.36429909    -0.16416686
O       1.99019833     0.67191419     0.09282882
C      -0.60388911     1.37934487    -0.09534567
O      -1.57269922     1.44480181    -0.91088353
O       0.13110034     2.49566322     0.28531504
H      -2.18524326    -0.45130340     0.57041544
H      -1.09930422    -1.69412503     0.97501855
H      -1.32968860    -1.33038913    -0.66060648
H      -0.09640429     0.21383545     1.55817273
H       1.46131478    -1.32380511     0.17819694
H       0.96795618    -0.42236347    -1.26668387
H       2.80789197     0.26553449     0.52056527
