17
Coordinates from ORCA-job geo_opt_tzvp E -438.504148992526
  C       2.021227      0.294315      0.111317
  C       0.756465     -0.552855      0.098834
  O       0.410563     -1.051040      1.410508
  C      -0.466773      0.126751     -0.549045
  N      -1.597930     -0.868098     -0.602529
  C      -1.052853      1.395273      0.167730
  O      -0.272086      2.356793      0.365424
  O      -2.293036      1.329148      0.448491
  H       2.857107     -0.309179      0.490991
  H       2.270064      0.632957     -0.904805
  H       1.891688      1.180225      0.745877
  H       0.948837     -1.466717     -0.486714
  H       0.371107     -0.286205      2.017668
  H      -0.219388      0.406542     -1.581873
  H      -2.422769     -0.288519     -0.287936
  H      -1.454688     -1.620816      0.086056
  H      -1.747535     -1.278575     -1.529994
17
Coordinates from ORCA-job geo_opt_tzvp E -438.504157207400
  C       2.021130      0.293590      0.110772
  C       0.756133     -0.552627      0.099038
  O       0.411084     -1.048709      1.410273
  C      -0.467369      0.127012     -0.548064
  N      -1.597278     -0.867780     -0.603202
  C      -1.053678      1.394581      0.169445
  O      -0.273578      2.355436      0.367872
  O      -2.293295      1.329177      0.448434
  H       2.856447     -0.309924      0.491570
  H       2.270530      0.630329     -0.905795
  H       1.892099      1.180613      0.743840
  H       0.947812     -1.467193     -0.485993
  H       0.373108     -0.284530      2.017583
  H      -0.219800      0.408142     -1.580693
  H      -2.423267     -0.288867     -0.290548
  H      -1.455249     -1.620217      0.086017
  H      -1.744829     -1.279033     -1.530548
17
Coordinates from ORCA-job geo_opt_tzvp E -438.504148621493
  C       2.020917      0.293130      0.109243
  C       0.755375     -0.551931      0.099588
  O       0.410971     -1.044464      1.410878
  C      -0.468132      0.127289     -0.548119
  N      -1.596829     -0.867444     -0.605096
  C      -1.055007      1.394669      0.168842
  O      -0.272817      2.350956      0.377416
  O      -2.292608      1.327128      0.452389
  H       2.855332     -0.309813      0.492883
  H       2.271608      0.625727     -0.908387
  H       1.892355      1.182674      0.738849
  H       0.946319     -1.467711     -0.484091
  H       0.375102     -0.280674      2.018363
  H      -0.219549      0.409324     -1.580435
  H      -2.424680     -0.289028     -0.297032
  H      -1.457627     -1.618336      0.086470
  H      -1.740732     -1.281494     -1.531759
17
Coordinates from ORCA-job geo_opt_tzvp E -438.504159556453
  C       2.021371      0.292542      0.108273
  C       0.755481     -0.552021      0.100264
  O       0.412775     -1.044603      1.411335
  C      -0.468711      0.127686     -0.545997
  N      -1.596486     -0.867458     -0.604955
  C      -1.055884      1.393742      0.173220
  O      -0.274400      2.350793      0.380600
  O      -2.296544      1.331461      0.443013
  H       2.855679     -0.310383      0.492201
  H       2.271907      0.623778     -0.909886
  H       1.893588      1.182913      0.736869
  H       0.945559     -1.467521     -0.484237
  H       0.378782     -0.281978      2.020397
  H      -0.220525      0.411922     -1.577874
  H      -2.425641     -0.290472     -0.298422
  H      -1.458450     -1.618332      0.086915
  H      -1.738502     -1.282070     -1.531717
17
Coordinates from ORCA-job geo_opt_tzvp E -438.504161972964
  C       2.021726      0.292616      0.108355
  C       0.755689     -0.552131      0.100280
  O       0.412407     -1.045655      1.411802
  C      -0.468206      0.127781     -0.546327
  N      -1.596734     -0.867423     -0.604890
  C      -1.055800      1.393986      0.172835
  O      -0.274755      2.352420      0.378682
  O      -2.296481      1.329992      0.445228
  H       2.856312     -0.310590      0.491308
  H       2.271637      0.624874     -0.909603
  H       1.894086      1.182344      0.737870
  H       0.945848     -1.467418     -0.484309
  H       0.377627     -0.282277      2.020176
  H      -0.220106      0.411496     -1.578220
  H      -2.425749     -0.289684     -0.299444
  H      -1.459033     -1.617670      0.087689
  H      -1.738468     -1.282661     -1.531433
17
Coordinates from ORCA-job geo_opt_tzvp E -438.504164255578
  C       2.021806      0.292424      0.107438
  C       0.755534     -0.552027      0.100617
  O       0.412816     -1.044695      1.412401
  C      -0.468406      0.127974     -0.545796
  N      -1.596587     -0.867385     -0.605387
  C      -1.056315      1.393781      0.173896
  O      -0.274467      2.350749      0.383587
  O      -2.297580      1.330742      0.443523
  H       2.856300     -0.310583      0.490904
  H       2.271627      0.623352     -0.910973
  H       1.894548      1.182943      0.735915
  H       0.945238     -1.467590     -0.483718
  H       0.378874     -0.281252      2.020720
  H      -0.220228      0.412420     -1.577482
  H      -2.426617     -0.289958     -0.302674
  H      -1.460417     -1.616625      0.088615
  H      -1.736125     -1.284271     -1.531587
