17
Coordinates from ORCA-job geo_opt_tzvp E -438.504164255578
  C           2.02180576423569      0.29242395752188      0.10743825710556
  C           0.75553424002635     -0.55202678732034      0.10061709890439
  O           0.41281579937289     -1.04469528832844      1.41240142581612
  C          -0.46840622637003      0.12797356674769     -0.54579579189967
  N          -1.59658670465900     -0.86738497484093     -0.60538667637074
  C          -1.05631547416223      1.39378129963703      0.17389625822197
  O          -0.27446738891954      2.35074885838395      0.38358735338114
  O          -2.29757974837539      1.33074236124630      0.44352313936618
  H           2.85629981686342     -0.31058251271676      0.49090353697757
  H           2.27162703028789      0.62335168875277     -0.91097338606990
  H           1.89454754862761      1.18294299357276      0.73591536444435
  H           0.94523773124591     -1.46759013105128     -0.48371848693952
  H           0.37887376326090     -0.28125234937388      2.02072000897721
  H          -0.22022796730278      0.41242012039031     -1.57748244222164
  H          -2.42661687760929     -0.28995772745743     -0.30267407531766
  H          -1.46041678040359     -1.61662451180215      0.08861516197400
  H          -1.73612453611881     -1.28427056336148     -1.53158673634935
