17
zwitterion conformer 3
C       2.02122713     0.29431472     0.11131728
C       0.75646509    -0.55285497     0.09883413
O       0.41056289    -1.05104002     1.41050805
C      -0.46677262     0.12675089    -0.54904490
N      -1.59792985    -0.86809764    -0.60252894
C      -1.05285343     1.39527299     0.16772955
O      -0.27208628     2.35679264     0.36542384
O      -2.29303650     1.32914817     0.44849052
H       2.85710731    -0.30917909     0.49099108
H       2.27006376     0.63295721    -0.90480454
H       1.89168841     1.18022499     0.74587720
H       0.94883670    -1.46671687    -0.48671371
H       0.37110729    -0.28620533     2.01766752
H      -0.21938846     0.40654229    -1.58187315
H      -2.42276876    -0.28851894    -0.28793648
H      -1.45468803    -1.62081627     0.08605613
H      -1.74753466    -1.27857477    -1.52999357
