17
Coordinates from ORCA-job geo_opt_tzvp E -492.702955400092
  N           2.87354767042952     -0.03022063103254     -0.36294124521264
  C           1.53246496885314     -0.60292807409017     -0.68274243734055
  C           0.49610424552297      0.26952380345357      0.04526827205231
  O           0.88918847772545      1.23613299800462      0.73176890086094
  N          -0.77655350089000     -0.08516021056682     -0.11714051929101
  C          -1.91684974669216      0.59174045562175      0.48194793075841
  C          -3.22974865283729     -0.12871472692622      0.07836072587994
  O          -3.12383188965902     -1.13893969108344     -0.67935510704925
  O          -4.28935681366443      0.36841664323915      0.55000886693469
  H           2.67535224567385      0.79703453897355      0.25115976492108
  H           3.47390376016299     -0.68844476392287      0.14664848881208
  H           3.38020692407723      0.28464561379111     -1.19828838232612
  H           1.48719404598663     -1.64040263259679     -0.33475541962923
  H           1.37479934243922     -0.58048240755181     -1.76626830300712
  H          -1.04790982903848     -0.89075550464506     -0.69195329562410
  H          -1.83251576648311      0.59815160534980      1.57968720092540
  H          -1.96599543160650      1.64040300398220      0.14954754833516
