17
Coordinates from ORCA-job geo_opt_tzvp E -492.702949720472
  N       2.873797     -0.028483     -0.364391
  C       1.532264     -0.605236     -0.681503
  C       0.495789      0.267320      0.047061
  O       0.889290      1.235168      0.733742
  N      -0.776930     -0.087589     -0.115705
  C      -1.916844      0.592435      0.483241
  C      -3.230008     -0.126645      0.076437
  O      -3.122196     -1.138001     -0.681307
  O      -4.291101      0.371510      0.545901
  H       2.674555      0.796262      0.252610
  H       3.477703     -0.686798      0.140781
  H       3.375823      0.290735     -1.200871
  H       1.490073     -1.641623     -0.330422
  H       1.373331     -0.585163     -1.764694
  H      -1.049237     -0.891989     -0.691596
  H      -1.833543      0.597154      1.580799
  H      -1.962766      1.640943      0.150871
17
Coordinates from ORCA-job geo_opt_tzvp E -492.702955588407
  N       2.873425     -0.029005     -0.363907
  C       1.532374     -0.604270     -0.681723
  C       0.495835      0.268341      0.045987
  O       0.888914      1.235446      0.732443
  N      -0.776656     -0.086721     -0.116182
  C      -1.916590      0.591638      0.482987
  C      -3.229676     -0.127835      0.077796
  O      -3.123420     -1.137074     -0.681707
  O      -4.289906      0.370872      0.546781
  H       2.674456      0.796877      0.251761
  H       3.476085     -0.687131      0.142991
  H       3.377053      0.288375     -1.200101
  H       1.489161     -1.640913     -0.331139
  H       1.374064     -0.583915     -1.765139
  H      -1.048732     -0.891797     -0.691396
  H      -1.832535      0.596757      1.580660
  H      -1.963852      1.640356      0.150840
17
Coordinates from ORCA-job geo_opt_tzvp E -492.702892177799
  N       2.872778     -0.031601     -0.361170
  C       1.532598     -0.601634     -0.682656
  C       0.496007      0.270921      0.043565
  O       0.888312      1.235599      0.730457
  N      -0.776318     -0.082337     -0.120077
  C      -1.916578      0.592991      0.478095
  C      -3.229702     -0.125455      0.073783
  O      -3.125458     -1.139907     -0.676124
  O      -4.285732      0.358751      0.563034
  H       2.674824      0.796588      0.251969
  H       3.471328     -0.690244      0.149919
  H       3.381586      0.281660     -1.195757
  H       1.485527     -1.639443     -0.335212
  H       1.376549     -0.578772     -1.766660
  H      -1.047735     -0.887922     -0.695196
  H      -1.832671      0.598467      1.576206
  H      -1.965314      1.642338      0.146775
17
Coordinates from ORCA-job geo_opt_tzvp E -492.702954969051
  N       2.873433     -0.029433     -0.363808
  C       1.532552     -0.603702     -0.681728
  C       0.496150      0.268200      0.046805
  O       0.889108      1.235244      0.732668
  N      -0.776487     -0.086039     -0.116214
  C      -1.916740      0.591541      0.482225
  C      -3.229827     -0.127755      0.077242
  O      -3.124070     -1.137752     -0.680716
  O      -4.289430      0.369804      0.548222
  H       2.675030      0.797294      0.250980
  H       3.475468     -0.687206      0.144325
  H       3.378170      0.286546     -1.199894
  H       1.488767     -1.640898     -0.332721
  H       1.373800     -0.582269     -1.765123
  H      -1.048128     -0.891229     -0.691490
  H      -1.833175      0.597297      1.580035
  H      -1.964623      1.640360      0.150145
17
Coordinates from ORCA-job geo_opt_tzvp E -492.702955400092
  N       2.873548     -0.030221     -0.362941
  C       1.532465     -0.602928     -0.682742
  C       0.496104      0.269524      0.045268
  O       0.889188      1.236133      0.731769
  N      -0.776554     -0.085160     -0.117141
  C      -1.916850      0.591740      0.481948
  C      -3.229749     -0.128715      0.078361
  O      -3.123832     -1.138940     -0.679355
  O      -4.289357      0.368417      0.550009
  H       2.675352      0.797035      0.251160
  H       3.473904     -0.688445      0.146648
  H       3.380207      0.284646     -1.198288
  H       1.487194     -1.640403     -0.334755
  H       1.374799     -0.580482     -1.766268
  H      -1.047910     -0.890756     -0.691953
  H      -1.832516      0.598152      1.579687
  H      -1.965995      1.640403      0.149548
