17
zwitterion conformer 1
N       2.87379742    -0.02848280    -0.36439135
C       1.53226399    -0.60523553    -0.68150286
C       0.49578918     0.26732031     0.04706117
O       0.88928970     1.23516822     0.73374203
N      -0.77693043    -0.08758912    -0.11570537
C      -1.91684399     0.59243488     0.48324090
C      -3.23000810    -0.12664546     0.07643696
O      -3.12219573    -1.13800128    -0.68130733
O      -4.29110077     0.37150985     0.54590146
H       2.67455537     0.79626158     0.25260997
H       3.47770264    -0.68679805     0.14078128
H       3.37582294     0.29073495    -1.20087117
H       1.49007287    -1.64162321    -0.33042249
H       1.37333113    -0.58516258    -1.76469405
H      -1.04923662    -0.89198876    -0.69159590
H      -1.83354316     0.59715420     1.58079907
H      -1.96276639     1.64094282     0.15087067
