27
Coordinates from ORCA-job geo_opt E -43.682929145720
  N          -2.64796284788668     -0.42615535430549     -0.71517988337401
  C          -2.43021961959525      0.26421894144737      0.57004853566396
  C          -1.36873374873945     -0.43438302754047      1.43085651725133
  C          -0.17746847234413     -0.85139221860586      0.63155982652873
  C           0.03000796256609     -2.08270432495115      0.06623704689486
  N           1.21361561460414     -2.09827113618555     -0.61590026866570
  C           1.80105880702528     -0.87231572314836     -0.50601780533457
  C           3.00337137899497     -0.39962942772469     -1.01901818620814
  C           3.34353200271457      0.90593584681706     -0.74221427998141
  C           2.51232919251905      1.72858585136297      0.02534469462003
  C           1.32019348898838      1.26901315686286      0.53698244739623
  C           0.94873049801153     -0.04894846462373      0.27147753617599
  C          -2.00990071761981      1.74255468977173      0.18757161165958
  O          -1.74773708824046      2.52279929128025      1.10528551989617
  O          -2.02665316488577      1.95898274339472     -1.04512373477004
  H          -2.50179416851159      0.39263835173004     -1.39043542140209
  H          -1.90357195283492     -1.12064921008714     -0.86840064008481
  H          -3.57185211499299     -0.84429678980032     -0.82508137216576
  H          -3.35719545725352      0.35265092194660      1.13812890173533
  H          -1.06974948526277      0.27210145563223      2.20714201687912
  H          -1.80960141398784     -1.31061592555328      1.90933548411462
  H          -0.56893174817756     -2.97055471415822      0.13721869714605
  H           1.60728094280042     -2.89455411085777     -1.08773778018582
  H           3.64755245885449     -1.03098101530445     -1.61160065808279
  H           4.26976519455047      1.31013074311707     -1.12327801380399
  H           2.81557906762059      2.74820879962051      0.21653594392053
  H           0.67835536108276      1.91763064986305      1.11626329417659
