27
Coordinates from ORCA-job geo_opt E -43.630694514940
  N      -2.798021     -0.468962     -0.588564
  C      -2.331764      0.295090      0.570794
  C      -1.309043     -0.466473      1.349665
  C      -0.107584     -0.811074      0.576172
  C       0.078661     -2.063462     -0.001517
  N       1.260476     -2.078367     -0.677127
  C       1.825124     -0.858055     -0.536933
  C       3.002663     -0.275528     -0.979697
  C       3.352082      1.018756     -0.682136
  C       2.518797      1.802394      0.087675
  C       1.352558      1.236650      0.529290
  C       0.997525     -0.067712      0.230822
  C      -1.940279      1.625466      0.114420
  O      -1.923737      2.612936      0.927034
  O      -1.580393      1.814112     -1.232667
  H      -2.177937     -0.346971     -1.420083
  H      -2.915033     -1.470963     -0.294454
  H      -3.727275     -0.066887     -0.844040
  H      -3.251082      0.372236      1.215788
  H      -1.039589      0.169611      2.231091
  H      -1.799126     -1.361003      1.760263
  H      -0.599642     -2.903396      0.066153
  H       1.681659     -2.845205     -1.205127
  H       3.634483     -0.939954     -1.591228
  H       4.290050      1.384875     -1.072907
  H       2.798748      2.837610      0.326369
  H       0.707679      1.854275      1.140945
27
Coordinates from ORCA-job geo_opt E -43.664434564330
  N      -2.831360     -0.480622     -0.610087
  C      -2.379258      0.299666      0.578004
  C      -1.334407     -0.475429      1.371202
  C      -0.121007     -0.823023      0.586594
  C       0.086295     -2.062176      0.004581
  N       1.272300     -2.071923     -0.670567
  C       1.849343     -0.848801     -0.539751
  C       3.040533     -0.295412     -1.002694
  C       3.381150      1.001046     -0.704196
  C       2.538724      1.798153      0.074654
  C       1.359149      1.266628      0.539930
  C       1.000389     -0.045666      0.243315
  C      -1.951726      1.658957      0.129588
  O      -1.919766      2.619740      0.930507
  O      -1.627127      1.800680     -1.128427
  H      -2.181696     -0.347134     -1.403442
  H      -2.940539     -1.472112     -0.347359
  H      -3.740242     -0.100905     -0.909026
  H      -3.274093      0.404624      1.221504
  H      -1.061597      0.149888      2.236724
  H      -1.808631     -1.374118      1.777052
  H      -0.566294     -2.912427      0.061970
  H       1.681027     -2.836508     -1.185924
  H       3.675538     -0.942511     -1.607700
  H       4.316670      1.376481     -1.092861
  H       2.822361      2.819023      0.299955
  H       0.714266      1.893881      1.146454
27
Coordinates from ORCA-job geo_opt E -43.673947694790
  N      -2.826844     -0.483829     -0.614735
  C      -2.402041      0.304185      0.584296
  C      -1.354478     -0.484668      1.387341
  C      -0.144170     -0.842591      0.588717
  C       0.081811     -2.063740      0.005190
  N       1.269028     -2.061818     -0.665123
  C       1.845417     -0.834048     -0.538200
  C       3.043363     -0.311593     -1.019447
  C       3.367081      0.989101     -0.718909
  C       2.516595      1.788897      0.061015
  C       1.330794      1.286994      0.546205
  C       0.978535     -0.029885      0.251592
  C      -1.903387      1.684966      0.123412
  O      -1.847706      2.607634      0.947797
  O      -1.615515      1.768706     -1.060437
  H      -2.126943     -0.342948     -1.357159
  H      -2.933295     -1.471703     -0.374535
  H      -3.712877     -0.113550     -0.968798
  H      -3.276201      0.452195      1.221698
  H      -1.069104      0.137846      2.235744
  H      -1.819875     -1.387628      1.784354
  H      -0.538776     -2.934732      0.052103
  H       1.673359     -2.829868     -1.170654
  H       3.688758     -0.937070     -1.618431
  H       4.295918      1.387000     -1.099180
  H       2.800039      2.805674      0.274777
  H       0.680517      1.916476      1.141364
27
Coordinates from ORCA-job geo_opt E -43.676858239290
  N      -2.820208     -0.489223     -0.607136
  C      -2.414178      0.302169      0.592220
  C      -1.359228     -0.481183      1.394645
  C      -0.156206     -0.845365      0.584906
  C       0.073168     -2.061582     -0.001063
  N       1.260378     -2.054215     -0.671607
  C       1.836175     -0.825957     -0.539251
  C       3.036535     -0.315329     -1.024519
  C       3.359073      0.985352     -0.717087
  C       2.510908      1.782058      0.066512
  C       1.322721      1.289581      0.555850
  C       0.967645     -0.025099      0.254386
  C      -1.886694      1.688170      0.107538
  O      -1.804546      2.592898      0.953574
  O      -1.617887      1.757320     -1.104175
  H      -2.103742     -0.327786     -1.330944
  H      -2.905485     -1.482426     -0.378015
  H      -3.705331     -0.133770     -0.978496
  H      -3.282535      0.470246      1.231061
  H      -1.063207      0.148478      2.233712
  H      -1.816959     -1.385601      1.797747
  H      -0.534798     -2.942447      0.043085
  H       1.663631     -2.824183     -1.175611
  H       3.685552     -0.932993     -1.625889
  H       4.286180      1.393276     -1.091515
  H       2.797817      2.798682      0.282059
  H       0.671220      1.918932      1.148011
27
Coordinates from ORCA-job geo_opt E -43.677910907490
  N      -2.817454     -0.505679     -0.594167
  C      -2.431457      0.295043      0.596919
  C      -1.359661     -0.462758      1.399053
  C      -0.168503     -0.838736      0.576068
  C       0.058455     -2.050497     -0.014919
  N       1.245542     -2.039933     -0.686650
  C       1.824538     -0.814087     -0.542417
  C       3.029201     -0.320262     -1.029636
  C       3.359634      0.977000     -0.707959
  C       2.519383      1.770213      0.081657
  C       1.325363      1.291203      0.570312
  C       0.959342     -0.016987      0.255602
  C      -1.891414      1.686716      0.079854
  O      -1.779024      2.576276      0.935812
  O      -1.628788      1.726403     -1.136256
  H      -2.101587     -0.294506     -1.310196
  H      -2.847156     -1.507808     -0.380791
  H      -3.717670     -0.188555     -0.966618
  H      -3.292877      0.482254      1.237881
  H      -1.050148      0.186546      2.219533
  H      -1.803176     -1.365486      1.823041
  H      -0.539958     -2.939818      0.020903
  H       1.644351     -2.812826     -1.191929
  H       3.679498     -0.930943     -1.636736
  H       4.287726      1.393326     -1.071468
  H       2.817532      2.784246      0.307504
  H       0.678309      1.919655      1.165600
27
Coordinates from ORCA-job geo_opt E -43.678032289360
  N      -2.803129     -0.515309     -0.586327
  C      -2.438229      0.284634      0.602678
  C      -1.351549     -0.443046      1.405496
  C      -0.172397     -0.833323      0.572665
  C       0.045135     -2.042073     -0.026703
  N       1.233391     -2.032861     -0.698894
  C       1.818076     -0.810934     -0.542444
  C       3.026562     -0.331209     -1.030438
  C       3.368255      0.962240     -0.697650
  C       2.536407      1.754067      0.096120
  C       1.337005      1.285738      0.582554
  C       0.959369     -0.016396      0.258444
  C      -1.897089      1.682542      0.064169
  O      -1.831075      2.584212      0.909354
  O      -1.712999      1.718942     -1.167794
  H      -2.115857     -0.217074     -1.306277
  H      -2.743593     -1.524112     -0.408093
  H      -3.732409     -0.258652     -0.934397
  H      -3.299492      0.481772      1.240683
  H      -1.030391      0.228246      2.204681
  H      -1.782867     -1.339830      1.856491
  H      -0.551294     -2.934404     -0.002840
  H       1.625340     -2.808377     -1.206752
  H       3.675478     -0.938079     -1.643381
  H       4.297824      1.383209     -1.052802
  H       2.845113      2.765029      0.330952
  H       0.694410      1.915049      1.180503
27
Coordinates from ORCA-job geo_opt E -43.679222499870
  N      -2.796149     -0.519706     -0.587640
  C      -2.444616      0.274119      0.603459
  C      -1.351370     -0.430154      1.410486
  C      -0.179452     -0.832105      0.574607
  C       0.032294     -2.039953     -0.029890
  N       1.222434     -2.030812     -0.701989
  C       1.807226     -0.809466     -0.539579
  C       3.016101     -0.334161     -1.028887
  C       3.361450      0.959201     -0.694117
  C       2.531487      1.750071      0.098580
  C       1.330563      1.283450      0.583855
  C       0.951178     -0.018058      0.260166
  C      -1.899874      1.677417      0.059309
  O      -1.807498      2.574077      0.904664
  O      -1.642045      1.681347     -1.160508
  H      -2.165630     -0.124734     -1.320229
  H      -2.637304     -1.524759     -0.455902
  H      -3.756591     -0.334466     -0.892971
  H      -3.306511      0.479405      1.238218
  H      -1.023660      0.259198      2.191743
  H      -1.775893     -1.319138      1.885340
  H      -0.562331     -2.934235     -0.014947
  H       1.611127     -2.807870     -1.209956
  H       3.665618     -0.938403     -1.644171
  H       4.290131      1.385355     -1.045821
  H       2.841916      2.760846      0.335489
  H       0.687400      1.913534      1.180690
27
Coordinates from ORCA-job geo_opt E -43.680279274050
  N      -2.799595     -0.511017     -0.595369
  C      -2.446334      0.265681      0.603259
  C      -1.349365     -0.424128      1.415657
  C      -0.178704     -0.834100      0.582352
  C       0.029482     -2.042798     -0.023720
  N       1.218142     -2.033500     -0.701327
  C       1.804811     -0.813330     -0.535922
  C       3.012466     -0.335271     -1.026432
  C       3.361052      0.956867     -0.690696
  C       2.532372      1.747260      0.105490
  C       1.332965      1.276765      0.591336
  C       0.952752     -0.025033      0.267850
  C      -1.902593      1.663639      0.050164
  O      -1.792477      2.574948      0.875118
  O      -1.616363      1.631226     -1.163232
  H      -2.273538      0.011878     -1.345271
  H      -2.512368     -1.492959     -0.539500
  H      -3.794428     -0.430361     -0.823481
  H      -3.307523      0.478452      1.236632
  H      -1.019102      0.278184      2.183765
  H      -1.770501     -1.304059      1.910911
  H      -0.564128     -2.937154     -0.011175
  H       1.602978     -2.810965     -1.210651
  H       3.659502     -0.938257     -1.645341
  H       4.288494      1.383858     -1.044013
  H       2.841560      2.757209      0.343565
  H       0.690442      1.906967      1.190032
27
Coordinates from ORCA-job geo_opt E -43.681108995750
  N      -2.793641     -0.497508     -0.610933
  C      -2.440375      0.265706      0.599773
  C      -1.351515     -0.430735      1.421137
  C      -0.174411     -0.838695      0.596238
  C       0.031167     -2.048695     -0.009884
  N       1.217575     -2.042363     -0.691555
  C       1.806960     -0.822893     -0.532197
  C       3.012062     -0.335418     -1.023513
  C       3.359398      0.956727     -0.694403
  C       2.528850      1.750459      0.103523
  C       1.333842      1.272630      0.592281
  C       0.956827     -0.032506      0.275203
  C      -1.903105      1.658097      0.056163
  O      -1.758568      2.576234      0.866676
  O      -1.653038      1.637475     -1.166508
  H      -2.342516      0.108988     -1.363970
  H      -2.416619     -1.448020     -0.607938
  H      -3.800790     -0.504186     -0.787222
  H      -3.305861      0.471153      1.229579
  H      -1.027987      0.269735      2.192805
  H      -1.779043     -1.306862      1.915886
  H      -0.566245     -2.939348      0.009096
  H       1.600698     -2.819757     -1.200895
  H       3.655201     -0.942226     -1.642313
  H       4.286049      1.377348     -1.055967
  H       2.832967      2.760740      0.336643
  H       0.692118      1.903919      1.192297
27
Coordinates from ORCA-job geo_opt E -43.681870917110
  N      -2.766083     -0.490583     -0.631533
  C      -2.436335      0.268465      0.592673
  C      -1.357186     -0.435292      1.426208
  C      -0.172843     -0.839853      0.610003
  C       0.029422     -2.052122      0.006918
  N       1.212757     -2.051988     -0.677920
  C       1.806931     -0.833948     -0.529144
  C       3.010472     -0.342594     -1.023535
  C       3.357881      0.949772     -0.704094
  C       2.528317      1.750260      0.093889
  C       1.336659      1.271663      0.588437
  C       0.959436     -0.035953      0.279916
  C      -1.917666      1.669616      0.076619
  O      -1.738089      2.572337      0.896176
  O      -1.752605      1.710322     -1.161967
  H      -2.360109      0.175713     -1.372961
  H      -2.305889     -1.402487     -0.658193
  H      -3.770605     -0.583961     -0.788403
  H      -3.313306      0.449325      1.213466
  H      -1.044605      0.261517      2.205166
  H      -1.791560     -1.311229      1.912606
  H      -0.572492     -2.939203      0.037911
  H       1.594137     -2.831472     -1.184946
  H       3.648880     -0.956590     -1.640055
  H       4.284889      1.360679     -1.074955
  H       2.831252      2.761185      0.319074
  H       0.698337      1.906421      1.188644
27
Coordinates from ORCA-job geo_opt E -43.682034135220
  N      -2.713095     -0.472886     -0.656658
  C      -2.438551      0.259809      0.590166
  C      -1.360793     -0.430762      1.436851
  C      -0.177991     -0.843329      0.623032
  C       0.020330     -2.058364      0.024996
  N       1.202535     -2.063804     -0.660908
  C       1.798354     -0.845716     -0.521585
  C       3.001657     -0.363226     -1.023897
  C       3.350557      0.931438     -0.714819
  C       2.525000      1.738784      0.078083
  C       1.333469      1.269105      0.580496
  C       0.953411     -0.039836      0.282926
  C      -1.943875      1.680798      0.098269
  O      -1.739412      2.559092      0.935609
  O      -1.864789      1.759019     -1.150979
  H      -2.432470      0.322633     -1.343716
  H      -2.098591     -1.283600     -0.771034
  H      -3.691257     -0.728239     -0.791062
  H      -3.330428      0.415908      1.195534
  H      -1.051682      0.277078      2.207995
  H      -1.793992     -1.303736      1.929222
  H      -0.577078     -2.949556      0.066782
  H       1.582501     -2.849906     -1.159990
  H       3.639243     -0.982185     -1.636874
  H       4.277254      1.340376     -1.089238
  H       2.831625      2.751867      0.294298
  H       0.698068      1.909237      1.176499
27
Coordinates from ORCA-job geo_opt E -43.682501819770
  N      -2.696346     -0.462631     -0.675408
  C      -2.435503      0.265786      0.580902
  C      -1.365991     -0.436606      1.432552
  C      -0.177427     -0.846098      0.625629
  C       0.026864     -2.067075      0.040740
  N       1.208797     -2.075142     -0.643594
  C       1.800084     -0.853696     -0.517754
  C       3.002130     -0.372230     -1.024015
  C       3.345476      0.926976     -0.727890
  C       2.517551      1.739247      0.056045
  C       1.327158      1.271983      0.563178
  C       0.951445     -0.040382      0.277614
  C      -1.959218      1.705399      0.134005
  O      -1.748439      2.548169      1.007049
  O      -1.901073      1.841984     -1.112135
  H      -2.396159      0.321481     -1.365574
  H      -2.074189     -1.272146     -0.775141
  H      -3.671016     -0.724138     -0.821926
  H      -3.336860      0.397248      1.178810
  H      -1.064356      0.263523      2.213892
  H      -1.805770     -1.314602      1.909097
  H      -0.567657     -2.959573      0.098613
  H       1.594708     -2.864362     -1.133799
  H       3.641938     -0.996924     -1.629106
  H       4.271937      1.332913     -1.106622
  H       2.822043      2.755708      0.261645
  H       0.689873      1.915186      1.153190
27
Coordinates from ORCA-job geo_opt E -43.682683601240
  N      -2.677077     -0.448144     -0.692180
  C      -2.433851      0.265611      0.576496
  C      -1.367753     -0.437647      1.432637
  C      -0.176554     -0.848177      0.630668
  C       0.029474     -2.073857      0.054742
  N       1.210854     -2.084509     -0.630643
  C       1.799653     -0.860911     -0.513677
  C       3.000368     -0.381070     -1.024534
  C       3.342022      0.921024     -0.737378
  C       2.513809      1.736961      0.041317
  C       1.324038      1.271567      0.552409
  C       0.950271     -0.043095      0.275778
  C      -1.979144      1.718392      0.159054
  O      -1.764737      2.542129      1.049695
  O      -1.922617      1.879459     -1.083926
  H      -2.412338      0.353426     -1.376064
  H      -2.018290     -1.226893     -0.807583
  H      -3.639631     -0.752125     -0.834751
  H      -3.344916      0.376386      1.165103
  H      -1.070407      0.261796      2.215953
  H      -1.809997     -1.316529      1.905010
  H      -0.564610     -2.965703      0.121874
  H       1.599207     -2.875893     -1.115162
  H       3.640523     -1.009305     -1.625305
  H       4.267837      1.325282     -1.119513
  H       2.817594      2.754861      0.240208
  H       0.686272      1.916965      1.139772
27
Coordinates from ORCA-job geo_opt E -43.682837017930
  N      -2.644739     -0.423180     -0.713363
  C      -2.428201      0.265961      0.571702
  C      -1.371066     -0.441888      1.434037
  C      -0.177627     -0.855517      0.637766
  C       0.031902     -2.086684      0.073003
  N       1.214680     -2.099308     -0.610964
  C       1.796958     -0.870928     -0.505969
  C       2.995435     -0.393834     -1.023784
  C       3.331012      0.914076     -0.750600
  C       2.499452      1.734080      0.017811
  C       1.310574      1.270658      0.534330
  C       0.943648     -0.048687      0.272357
  C      -1.993452      1.735770      0.192478
  O      -1.765098      2.526477      1.109881
  O      -1.951308      1.933175     -1.044178
  H      -2.425485      0.393411     -1.385541
  H      -1.939007     -1.159298     -0.846153
  H      -3.588567     -0.780976     -0.855473
  H      -3.353629      0.355061      1.142690
  H      -1.076787      0.256386      2.219105
  H      -1.818479     -1.321922      1.899628
  H      -0.561134     -2.978040      0.149332
  H       1.608517     -2.893487     -1.086093
  H       3.639213     -1.024740     -1.617209
  H       4.254624      1.320162     -1.136181
  H       2.799762      2.755180      0.205980
  H       0.668801      1.918093      1.115408
27
Coordinates from ORCA-job geo_opt E -43.682886857630
  N      -2.637721     -0.418558     -0.719324
  C      -2.428161      0.264819      0.569518
  C      -1.371028     -0.439809      1.433493
  C      -0.177371     -0.855563      0.638009
  C       0.032788     -2.088592      0.077193
  N       1.215072     -2.102240     -0.607836
  C       1.797450     -0.873408     -0.504636
  C       2.996111     -0.398834     -1.024008
  C       3.332499      0.909430     -0.752456
  C       2.501826      1.730824      0.015309
  C       1.312571      1.269397      0.532933
  C       0.944539     -0.050061      0.272058
  C      -2.004859      1.742299      0.198310
  O      -1.771005      2.524149      1.122226
  O      -1.979704      1.953569     -1.035771
  H      -2.450511      0.403123     -1.388401
  H      -1.909102     -1.131343     -0.862457
  H      -3.571008     -0.806563     -0.853495
  H      -3.357381      0.347063      1.135334
  H      -1.076483      0.261398      2.215950
  H      -1.817254     -1.318901      1.901813
  H      -0.561414     -2.978940      0.155121
  H       1.609556     -2.897560     -1.080561
  H       3.640139     -1.030263     -1.616489
  H       4.256013      1.315463     -1.138228
  H       2.803095      2.751895      0.202584
  H       0.671341      1.917205      1.113811
27
Coordinates from ORCA-job geo_opt E -43.682892659600
  N      -2.626499     -0.409789     -0.729458
  C      -2.427507      0.263220      0.566941
  C      -1.370765     -0.437302      1.432555
  C      -0.177391     -0.855865      0.637126
  C       0.032484     -2.090942      0.080230
  N       1.215979     -2.108077     -0.602349
  C       1.799649     -0.879143     -0.501747
  C       3.000228     -0.408478     -1.020157
  C       3.337156      0.900283     -0.752484
  C       2.505208      1.725811      0.010523
  C       1.314237      1.267875      0.526900
  C       0.945615     -0.052561      0.269657
  C      -2.023134      1.752086      0.208571
  O      -1.761868      2.517586      1.139199
  O      -2.051852      1.990671     -1.019532
  H      -2.510835      0.424867     -1.389769
  H      -1.850801     -1.067046     -0.897735
  H      -3.532046     -0.865091     -0.845237
  H      -3.362191      0.335068      1.125035
  H      -1.074952      0.268637      2.210492
  H      -1.814756     -1.314180      1.906546
  H      -0.565125     -2.978859      0.159362
  H       1.612279     -2.906187     -1.068901
  H       3.646026     -1.042005     -1.608403
  H       4.261852      1.304716     -1.136923
  H       2.807038      2.747145      0.195331
  H       0.671970      1.917561      1.104229
27
Coordinates from ORCA-job geo_opt E -43.682925543120
  N      -2.645872     -0.421144     -0.717726
  C      -2.428993      0.264439      0.569903
  C      -1.369236     -0.436611      1.430874
  C      -0.177341     -0.853668      0.632350
  C       0.031934     -2.085985      0.069734
  N       1.215967     -2.101142     -0.611942
  C       1.801048     -0.873570     -0.504779
  C       3.002647     -0.400785     -1.019124
  C       3.340724      0.906090     -0.744811
  C       2.508405      1.728831      0.021270
  C       1.316695      1.268828      0.533828
  C       0.947158     -0.050133      0.270262
  C      -2.008520      1.744176      0.191998
  O      -1.748611      2.522197      1.112486
  O      -2.021119      1.963249     -1.039904
  H      -2.499640      0.397987     -1.390964
  H      -1.900177     -1.113953     -0.872948
  H      -3.569624     -0.839366     -0.829805
  H      -3.357030      0.351249      1.136772
  H      -1.070504      0.268600      2.208346
  H      -1.811577     -1.313322      1.906983
  H      -0.566354     -2.973942      0.142394
  H       1.611047     -2.897413     -1.082536
  H       3.648222     -1.032068     -1.610101
  H       4.266207      1.311390     -1.126446
  H       2.810423      2.749079      0.211079
  H       0.674124      1.916984      1.112810
27
Coordinates from ORCA-job geo_opt E -43.682928329000
  N      -2.647038     -0.425285     -0.715618
  C      -2.430056      0.264230      0.570048
  C      -1.369006     -0.434935      1.431029
  C      -0.177500     -0.851856      0.631990
  C       0.030544     -2.083478      0.067610
  N       1.213927     -2.098775     -0.614957
  C       1.800736     -0.872382     -0.505925
  C       3.002691     -0.399681     -1.019673
  C       3.342459      0.906159     -0.743361
  C       2.511391      1.728655      0.024416
  C       1.319543      1.268982      0.536716
  C       0.948276     -0.049092      0.271370
  C      -2.009474      1.742729      0.188552
  O      -1.750709      2.523392      1.106906
  O      -2.022162      1.958819     -1.044255
  H      -2.497626      0.393679     -1.390297
  H      -1.903743     -1.121005     -0.868257
  H      -3.571731     -0.840960     -0.827711
  H      -3.357214      0.352039      1.137964
  H      -1.070344      0.271065      2.207859
  H      -1.810358     -1.311441      1.908510
  H      -0.568075     -2.971462      0.139305
  H       1.607704     -2.894898     -1.086954
  H       3.646996     -1.030932     -1.612188
  H       4.268353      1.310687     -1.124896
  H       2.814499      2.748379      0.215388
  H       0.677917      1.917368      1.116431
27
Coordinates from ORCA-job geo_opt E -43.682929145720
  N      -2.647963     -0.426155     -0.715180
  C      -2.430220      0.264219      0.570049
  C      -1.368734     -0.434383      1.430857
  C      -0.177468     -0.851392      0.631560
  C       0.030008     -2.082704      0.066237
  N       1.213616     -2.098271     -0.615900
  C       1.801059     -0.872316     -0.506018
  C       3.003371     -0.399629     -1.019018
  C       3.343532      0.905936     -0.742214
  C       2.512329      1.728586      0.025345
  C       1.320193      1.269013      0.536982
  C       0.948730     -0.048948      0.271478
  C      -2.009901      1.742555      0.187572
  O      -1.747737      2.522799      1.105286
  O      -2.026653      1.958983     -1.045124
  H      -2.501794      0.392638     -1.390435
  H      -1.903572     -1.120649     -0.868401
  H      -3.571852     -0.844297     -0.825081
  H      -3.357195      0.352651      1.138129
  H      -1.069749      0.272101      2.207142
  H      -1.809601     -1.310616      1.909335
  H      -0.568932     -2.970555      0.137219
  H       1.607281     -2.894554     -1.087738
  H       3.647552     -1.030981     -1.611601
  H       4.269765      1.310131     -1.123278
  H       2.815579      2.748209      0.216536
  H       0.678355      1.917631      1.116263
