27
zwitterion conformer 6
N      -2.79802137    -0.46896247    -0.58856435
C      -2.33176350     0.29509013     0.57079398
C      -1.30904313    -0.46647343     1.34966504
C      -0.10758449    -0.81107380     0.57617172
C       0.07866058    -2.06346185    -0.00151736
N       1.26047610    -2.07836745    -0.67712732
C       1.82512429    -0.85805505    -0.53693321
C       3.00266313    -0.27552842    -0.97969692
C       3.35208163     1.01875615    -0.68213577
C       2.51879743     1.80239414     0.08767493
C       1.35255761     1.23665014     0.52928986
C       0.99752512    -0.06771181     0.23082239
C      -1.94027867     1.62546601     0.11442000
O      -1.92373664     2.61293592     0.92703437
O      -1.58039254     1.81411228    -1.23266681
H      -2.17793714    -0.34697067    -1.42008315
H      -2.91503322    -1.47096298    -0.29445365
H      -3.72727480    -0.06688718    -0.84404041
H      -3.25108242     0.37223644     1.21578807
H      -1.03958928     0.16961098     2.23109101
H      -1.79912574    -1.36100284     1.76026297
H      -0.59964201    -2.90339556     0.06615261
H       1.68165946    -2.84520477    -1.20512702
H       3.63448263    -0.93995383    -1.59122812
H       4.29005041     1.38487491    -1.07290722
H       2.79874791     2.83761040     0.32636920
H       0.70767862     1.85427461     1.14094519
