20
Coordinates from ORCA-job geo_opt E -549.020034406938
  N       1.398655     -1.721204     -0.495103
  C       1.503453     -0.299666     -0.761876
  C       0.198825      0.225272     -1.402542
  C      -0.917353      0.218888     -0.414054
  C      -1.827600     -0.768187     -0.146067
  N      -2.600960     -0.304778      0.881027
  C      -2.132720      0.922475      1.192700
  N      -1.125169      1.269529      0.437703
  C       1.773784      0.525779      0.491268
  O       1.676281      0.083655      1.618148
  O       2.145942      1.759713      0.223122
  H       0.626347     -1.877043      0.147213
  H       2.238283     -2.044488     -0.026087
  H       2.329734     -0.135439     -1.461179
  H      -0.043500     -0.420625     -2.244791
  H       0.366717      1.245003     -1.746607
  H      -1.981058     -1.724246     -0.599904
  H      -3.368962     -0.791111      1.314571
  H      -2.545321      1.535449      1.967843
  H       2.284623      2.301022      1.024616
20
Coordinates from ORCA-job geo_opt E -549.025387606931
  N       1.415854     -1.721417     -0.471294
  C       1.519899     -0.292410     -0.743854
  C       0.181368      0.244022     -1.345323
  C      -0.969804      0.219225     -0.380295
  C      -1.891750     -0.783915     -0.158809
  N      -2.714506     -0.329360      0.848918
  C      -2.281717      0.912766      1.194759
  N      -1.234557      1.277535      0.473605
  C       1.920180      0.540405      0.484456
  O       1.908388      0.116173      1.631874
  O       2.319873      1.771228      0.155128
  H       0.681783     -1.874399      0.227318
  H       2.286067     -2.058027     -0.052060
  H       2.307828     -0.143689     -1.498105
  H      -0.055245     -0.389049     -2.210128
  H       0.340611      1.274552     -1.687056
  H      -2.027470     -1.749445     -0.632784
  H      -3.503006     -0.831075      1.248619
  H      -2.752270      1.518014      1.964482
  H       2.548475      2.298867      0.950548
20
Coordinates from ORCA-job geo_opt E -549.026057412686
  N       1.399902     -1.724329     -0.437345
  C       1.522455     -0.299401     -0.733585
  C       0.186354      0.251029     -1.320072
  C      -0.971890      0.215264     -0.365202
  C      -1.912593     -0.783423     -0.185132
  N      -2.747279     -0.338081      0.818963
  C      -2.295966      0.884086      1.219122
  N      -1.221611      1.251655      0.528488
  C       1.974560      0.548629      0.466925
  O       1.965235      0.166663      1.630640
  O       2.350444      1.786708      0.094816
  H       0.683342     -1.855005      0.285141
  H       2.274313     -2.066721     -0.029038
  H       2.293847     -0.172309     -1.510367
  H      -0.046341     -0.364408     -2.201084
  H       0.349031      1.286478     -1.651395
  H      -2.063379     -1.733717     -0.688998
  H      -3.555521     -0.834214      1.187103
  H      -2.775916      1.466943      2.002555
  H       2.591012      2.314154      0.888464
20
Coordinates from ORCA-job geo_opt E -549.026284456278
  N       1.374324     -1.707243     -0.378524
  C       1.510811     -0.290896     -0.712579
  C       0.178224      0.264319     -1.289525
  C      -0.988977      0.207276     -0.350633
  C      -1.947573     -0.785329     -0.227316
  N      -2.789228     -0.366716      0.782120
  C      -2.330045      0.833076      1.240021
  N      -1.236570      1.215882      0.580086
  C       2.004507      0.582341      0.450504
  O       2.046109      0.238276      1.624651
  O       2.461007      1.783486      0.013110
  H       0.678143     -1.808465      0.368350
  H       2.253141     -2.048255      0.022115
  H       2.263817     -0.188590     -1.511656
  H      -0.041162     -0.332281     -2.187673
  H       0.338645      1.304677     -1.608750
  H      -2.109461     -1.713429     -0.767544
  H      -3.610617     -0.863594      1.118096
  H      -2.823231      1.382810      2.038469
  H       2.768137      2.292655      0.796678
20
Coordinates from ORCA-job geo_opt E -549.026443132399
  N       1.373206     -1.710037     -0.374078
  C       1.513390     -0.296537     -0.713511
  C       0.182033      0.261273     -1.293122
  C      -0.983620      0.206562     -0.352909
  C      -1.950217     -0.776333     -0.235902
  N      -2.780727     -0.363861      0.783867
  C      -2.313508      0.829958      1.243561
  N      -1.225827      1.211886      0.578745
  C       2.007936      0.576391      0.447511
  O       2.037067      0.239875      1.622496
  O       2.434485      1.789278      0.016313
  H       0.675854     -1.805813      0.371775
  H       2.250888     -2.052144      0.027392
  H       2.268334     -0.200643     -1.510310
  H      -0.039744     -0.333949     -2.190469
  H       0.345257      1.300356     -1.612434
  H      -2.120085     -1.698643     -0.781042
  H      -3.601548     -0.858905      1.122741
  H      -2.798265      1.377194      2.047507
  H       2.725090      2.304093      0.801870
20
Coordinates from ORCA-job geo_opt E -549.026468114966
  N       1.376287     -1.710093     -0.371927
  C       1.514276     -0.297325     -0.713873
  C       0.181950      0.257804     -1.295724
  C      -0.981522      0.204113     -0.352952
  C      -1.951614     -0.774129     -0.237606
  N      -2.782711     -0.358731      0.780248
  C      -2.304807      0.827142      1.247165
  N      -1.213634      1.201968      0.587129
  C       2.005114      0.576932      0.446491
  O       2.037147      0.240928      1.620713
  O       2.422930      1.793508      0.017996
  H       0.678054     -1.805585      0.372966
  H       2.254442     -2.050796      0.029510
  H       2.270546     -0.202346     -1.509223
  H      -0.040845     -0.339285     -2.191209
  H       0.344748      1.295608     -1.618667
  H      -2.126576     -1.693617     -0.785369
  H      -3.608446     -0.848044      1.115349
  H      -2.784980      1.373578      2.054242
  H       2.709640      2.308370      0.804741
20
Coordinates from ORCA-job geo_opt E -549.026479991573
  N       1.377807     -1.709816     -0.366156
  C       1.514793     -0.297849     -0.712064
  C       0.182241      0.254535     -1.296034
  C      -0.980825      0.201893     -0.352970
  C      -1.958254     -0.769664     -0.245681
  N      -2.785096     -0.357282      0.777031
  C      -2.298965      0.822066      1.252100
  N      -1.206333      1.194442      0.593909
  C       2.004635      0.579634      0.445566
  O       2.043980      0.245666      1.619939
  O       2.417465      1.798017      0.014624
  H       0.679747     -1.803869      0.379019
  H       2.256408     -2.049125      0.035315
  H       2.271336     -0.204662     -1.507484
  H      -0.040058     -0.344373     -2.190417
  H       0.344892      1.291303     -1.622593
  H      -2.139892     -1.684350     -0.799407
  H      -3.613694     -0.843417      1.109616
  H      -2.775231      1.364904      2.064004
  H       2.705045      2.311947      0.801683
20
Coordinates from ORCA-job geo_opt E -549.026488728980
  N       1.381387     -1.709755     -0.359235
  C       1.516048     -0.298511     -0.709615
  C       0.182779      0.248752     -1.296731
  C      -0.979556      0.198500     -0.352760
  C      -1.967927     -0.763093     -0.256550
  N      -2.789489     -0.353675      0.771971
  C      -2.290063      0.815407      1.259728
  N      -1.194508      1.183400      0.604486
  C       2.004330      0.583390      0.444861
  O       2.056582      0.249769      1.618901
  O       2.405751      1.805715      0.011518
  H       0.683116     -1.803108      0.385704
  H       2.260621     -2.046682      0.042601
  H       2.273192     -0.206981     -1.504856
  H      -0.039207     -0.354885     -2.188014
  H       0.344769      1.283700     -1.629812
  H      -2.159355     -1.670636     -0.818899
  H      -3.623087     -0.834197      1.100101
  H      -2.760319      1.353669      2.078287
  H       2.694935      2.319223      0.798312
20
Coordinates from ORCA-job geo_opt E -549.026492158316
  N       1.383303     -1.709682     -0.355912
  C       1.516750     -0.298791     -0.708361
  C       0.183101      0.245746     -1.296857
  C      -0.978913      0.196791     -0.352379
  C      -1.972908     -0.759625     -0.261935
  N      -2.792061     -0.351677      0.769187
  C      -2.286066      0.812051      1.263549
  N      -1.188226      1.177453      0.610634
  C       2.005257      0.585201      0.444542
  O       2.065296      0.250564      1.618040
  O       2.398635      1.809813      0.010260
  H       0.684744     -1.802851      0.388719
  H       2.262732     -2.045242      0.046565
  H       2.274147     -0.208092     -1.503551
  H      -0.038964     -0.361163     -2.185870
  H       0.344474      1.279747     -1.633305
  H      -2.169141     -1.663145     -0.829105
  H      -3.628399     -0.829267      1.094583
  H      -2.753332      1.348215      2.085193
  H       2.689569      2.323953      0.796004
20
Coordinates from ORCA-job geo_opt E -549.026495473425
  N       1.386087     -1.709117     -0.347520
  C       1.517833     -0.299423     -0.705463
  C       0.183698      0.240521     -1.296136
  C      -0.978105      0.193292     -0.351222
  C      -1.983064     -0.752724     -0.273244
  N      -2.798339     -0.348202      0.762301
  C      -2.278889      0.803104      1.272012
  N      -1.176613      1.164371      0.624006
  C       2.009002      0.589319      0.443103
  O       2.084653      0.253829      1.615585
  O       2.386891      1.817235      0.005424
  H       0.687129     -1.800616      0.396895
  H       2.265694     -2.041783      0.056963
  H       2.275194     -0.211477     -1.501177
  H      -0.038439     -0.372118     -2.181128
  H       0.343693      1.273008     -1.637911
  H      -2.188612     -1.647194     -0.851318
  H      -3.640596     -0.819887      1.080958
  H      -2.740315      1.334188      2.100192
  H       2.683095      2.333675      0.787681
20
Coordinates from ORCA-job geo_opt E -549.026496080790
  N       1.385734     -1.708820     -0.346067
  C       1.517685     -0.299439     -0.705021
  C       0.183674      0.240639     -1.295507
  C      -0.978372      0.192999     -0.350857
  C      -1.984072     -0.752298     -0.274460
  N      -2.799223     -0.348643      0.761428
  C      -2.279357      0.801613      1.272670
  N      -1.176174      1.162659      0.625913
  C       2.010391      0.589921      0.442649
  O       2.087246      0.254810      1.615129
  O       2.387801      1.817275      0.003820
  H       0.686625     -1.799587      0.398326
  H       2.265119     -2.041042      0.059332
  H       2.274739     -0.212171     -1.501127
  H      -0.038464     -0.371939     -2.180551
  H       0.343418      1.273282     -1.636858
  H      -2.190129     -1.645543     -0.854220
  H      -3.641895     -0.820243      1.079132
  H      -2.740539      1.332072      2.101377
  H       2.685791      2.334456      0.784891
