20
Coordinates from ORCA-job geo_opt E -549.026496080790
  N           1.38573410743385     -1.70881969393049     -0.34606663414369
  C           1.51768539221236     -0.29943923985265     -0.70502095868199
  C           0.18367401121982      0.24063915146788     -1.29550659038080
  C          -0.97837184722910      0.19299864679655     -0.35085733494180
  C          -1.98407176948684     -0.75229803849434     -0.27446031434334
  N          -2.79922259280977     -0.34864264865297      0.76142809169665
  C          -2.27935701430094      0.80161343908426      1.27267019941995
  N          -1.17617364914938      1.16265850111500      0.62591251803483
  C           2.01039117754693      0.58992125395437      0.44264935662399
  O           2.08724604410734      0.25480979899629      1.61512878752638
  O           2.38780121586409      1.81727479234502      0.00382026326005
  H           0.68662486567041     -1.79958729438182      0.39832625161349
  H           2.26511937870597     -2.04104235728814      0.05933225991282
  H           2.27473932820359     -0.21217127414907     -1.50112714099740
  H          -0.03846413388670     -0.37193927189880     -2.18055068466183
  H           0.34341757349620      1.27328207939671     -1.63685799727374
  H          -2.19012923609505     -1.64554260515597     -0.85421951486653
  H          -3.64189520890485     -0.82024273784471      1.07913172935792
  H          -2.74053871117933      1.33207200562281      2.10137679031146
  H           2.68579108858137      2.33445550287004      0.78489089253359
