20
neutral_epsilon conformer 1
N       1.39865524    -1.72120397    -0.49510271
C       1.50345285    -0.29966583    -0.76187590
C       0.19882498     0.22527170    -1.40254208
C      -0.91735312     0.21888829    -0.41405354
C      -1.82760044    -0.76818710    -0.14606678
N      -2.60096006    -0.30477810     0.88102657
C      -2.13271986     0.92247522     1.19269955
N      -1.12516896     1.26952927     0.43770281
C       1.77378370     0.52577936     0.49126766
O       1.67628141     0.08365544     1.61814838
O       2.14594175     1.75971340     0.22312152
H       0.62634738    -1.87704316     0.14721262
H       2.23828260    -2.04448773    -0.02608679
H       2.32973417    -0.13543947    -1.46117908
H      -0.04349981    -0.42062501    -2.24479074
H       0.36671677     1.24500349    -1.74660718
H      -1.98105803    -1.72424595    -0.59990416
H      -3.36896186    -0.79111092     1.31457055
H      -2.54532130     1.53544864     1.96784339
H       2.28462261     2.30102244     1.02461588
