14
zwitterion CPCM-opt conformer 1
N      -1.25837219    -0.92861599     0.19637837
C      -0.09703548    -0.03705680     0.52815143
C       1.19553689    -0.50690092    -0.15644024
O       2.27293996     0.35806992     0.18951194
C      -0.51326505     1.40986903     0.12129191
O      -1.73413750     1.58968623    -0.13925791
O       0.41541512     2.27115025     0.10689341
H      -2.04847637    -0.25349820     0.04280316
H      -1.49094916    -1.59469286     0.94158850
H      -1.11387618    -1.45667236    -0.67496398
H       0.03466210    -0.05920074     1.61901567
H       1.44980460    -1.52451373     0.17609764
H       1.03156687    -0.53444292    -1.25252939
H       1.85618637     1.26681905     0.15399860
