24
Coordinates from ORCA-job geo_opt E -43.540994280850
  N          -2.87925507682266     -0.93341273354211     -1.24038846757029
  C          -2.16851957508137     -0.62181368308826      0.01306971357409
  C          -1.28672331523097      0.59764252757259     -0.26844251747017
  O          -1.14005236155145      0.96889018300027     -1.42749410878241
  N          -0.74339843140003      1.18791611044862      0.79990460515211
  C           0.31800936832673      2.15824271015229      0.66006196102812
  C           1.66734684523469      1.52676978371034      0.28395792603903
  O           2.54495857448332      2.18759963978399     -0.26104034584088
  N           1.80131454743320      0.24600999399728      0.64584508317267
  C           2.74082042137760     -0.67550778152711      0.06416990876017
  C           1.92959330502429     -1.93552911579629     -0.40418022894794
  O           0.72451374234994     -1.94819846458590     -0.07689665373913
  O           2.54054226654460     -2.80005632334555     -1.04588090879919
  H          -2.81207269964225     -1.92313910509001     -1.49202527813769
  H          -3.86216552820568     -0.64355642046423     -1.21785468791022
  H          -2.37787301072627     -0.36193590361088     -1.96018361731521
  H          -1.47747565180661     -1.43001209355156      0.27215827259063
  H          -2.85164623818542     -0.44009781092381      0.83932503620685
  H          -0.87719837172193      0.77235719495183      1.71038772329980
  H           0.07003605325035      2.85590763013881     -0.14394937023659
  H           0.43494928336818      2.71740727324650      1.58781022165693
  H           0.96112449803757     -0.27598056083153      0.90483008090126
  H           3.25327177142956     -0.22906087614924     -0.79028680357559
  H           3.48989957351462     -1.00044217449603      0.79194453594366
