24
Coordinates from ORCA-job geo_opt E -43.470363989330
  N      -3.287549     -1.095050     -0.753545
  C      -2.789294     -0.184034      0.229338
  C      -1.469193      0.409246     -0.181862
  O      -0.977743      0.057154     -1.284052
  N      -0.848105      1.336736      0.698658
  C       0.404469      1.945456      0.397514
  C       1.549325      1.046103      0.251685
  O       2.668620      1.573728     -0.041764
  N       1.534362     -0.352154      0.406516
  C       2.769156     -1.075407      0.219417
  C       3.327413     -0.892972     -1.144323
  O       2.748079     -0.169076     -2.022229
  O       4.519052     -1.550086     -1.427456
  H      -3.818473     -1.895882     -0.297797
  H      -4.035340     -0.637084     -1.354349
  H      -2.586278     -1.501981     -1.394657
  H      -2.594065     -0.724235      1.187232
  H      -3.523317      0.606428      0.447970
  H      -1.351880      1.569602      1.606084
  H       0.361935      2.562791     -0.541482
  H       0.663277      2.693314      1.187237
  H       0.669908     -0.838151      0.652547
  H       3.473347     -0.727452      1.010869
  H       2.592294     -2.156992      0.393291
24
Coordinates from ORCA-job geo_opt E -43.506675035160
  N      -3.277542     -1.090972     -0.771289
  C      -2.770086     -0.194992      0.252054
  C      -1.454767      0.417813     -0.175599
  O      -0.967019      0.114071     -1.267844
  N      -0.867305      1.296653      0.692591
  C       0.379342      1.942550      0.407926
  C       1.575911      1.078026      0.248748
  O       2.665465      1.630254     -0.009414
  N       1.552621     -0.279564      0.410913
  C       2.762675     -1.045021      0.219163
  C       3.316074     -0.956448     -1.175633
  O       2.755039     -0.300637     -2.079226
  O       4.406683     -1.648838     -1.401670
  H      -3.779303     -1.901461     -0.354516
  H      -4.005680     -0.628823     -1.353262
  H      -2.557261     -1.451905     -1.415462
  H      -2.564152     -0.749058      1.184518
  H      -3.496899      0.586549      0.494878
  H      -1.355092      1.492722      1.570672
  H       0.320302      2.563621     -0.509400
  H       0.608539      2.665266      1.208544
  H       0.692821     -0.741864      0.666444
  H       3.499320     -0.696216      0.963327
  H       2.560312     -2.101724      0.438379
24
Coordinates from ORCA-job geo_opt E -43.518872297260
  N      -3.293811     -1.081652     -0.783931
  C      -2.749575     -0.220763      0.275773
  C      -1.437177      0.410000     -0.193337
  O      -0.978678      0.151169     -1.294952
  N      -0.866915      1.243392      0.673703
  C       0.369156      1.934876      0.400878
  C       1.625337      1.109259      0.236386
  O       2.682706      1.688659     -0.007850
  N       1.577183     -0.208252      0.425686
  C       2.753061     -1.027137      0.240724
  C       3.300653     -1.010798     -1.191115
  O       2.739355     -0.357099     -2.077787
  O       4.316138     -1.695297     -1.361935
  H      -3.765680     -1.907985     -0.401629
  H      -4.004472     -0.591599     -1.338558
  H      -2.555992     -1.388561     -1.437238
  H      -2.526914     -0.803746      1.172713
  H      -3.460089      0.556945      0.555076
  H      -1.333684      1.411430      1.545417
  H       0.286015      2.545292     -0.506317
  H       0.569312      2.638726      1.210854
  H       0.708470     -0.645765      0.679425
  H       3.531871     -0.689788      0.933155
  H       2.513730     -2.061305      0.489703
24
Coordinates from ORCA-job geo_opt E -43.522939087750
  N      -3.312949     -1.040191     -0.849730
  C      -2.724489     -0.276806      0.265488
  C      -1.435551      0.402916     -0.222436
  O      -1.026976      0.216988     -1.359288
  N      -0.850574      1.193902      0.681059
  C       0.356309      1.942899      0.413401
  C       1.659547      1.168326      0.246321
  O       2.689365      1.797060      0.012979
  N       1.644995     -0.137501      0.508185
  C       2.811462     -0.963329      0.290899
  C       3.214563     -1.109178     -1.203372
  O       2.465392     -0.643587     -2.076528
  O       4.208557     -1.834643     -1.397287
  H      -3.756652     -1.908678     -0.533575
  H      -4.029690     -0.494654     -1.340479
  H      -2.577236     -1.262412     -1.540720
  H      -2.465099     -0.936152      1.094285
  H      -3.421797      0.474484      0.633488
  H      -1.294415      1.316502      1.577224
  H       0.242926      2.542514     -0.495362
  H       0.526620      2.643621      1.231216
  H       0.789419     -0.580912      0.797665
  H       3.662155     -0.545623      0.836707
  H       2.624116     -1.965548      0.674701
24
Coordinates from ORCA-job geo_opt E -43.524198313730
  N      -3.347802     -0.983439     -0.901286
  C      -2.684635     -0.351479      0.260812
  C      -1.442213      0.400395     -0.265112
  O      -1.121434      0.307233     -1.441121
  N      -0.817601      1.132585      0.670380
  C       0.351381      1.940706      0.395578
  C       1.703734      1.212615      0.246087
  O       2.698877      1.873290     -0.037035
  N       1.704960     -0.073840      0.598594
  C       2.840114     -0.934650      0.362327
  C       3.072397     -1.279280     -1.166237
  O       2.231205     -0.832042     -1.968218
  O       4.188622     -1.807538     -1.414092
  H      -3.750295     -1.898977     -0.677018
  H      -4.072806     -0.373492     -1.293695
  H      -2.619517     -1.085819     -1.631292
  H      -2.367651     -1.099838      0.983928
  H      -3.354969      0.353831      0.748476
  H      -1.210706      1.199996      1.600201
  H       0.207075      2.500047     -0.532300
  H       0.489628      2.654324      1.206709
  H       0.847992     -0.510771      0.895501
  H       3.757299     -0.463978      0.722498
  H       2.696345     -1.879880      0.881155
24
Coordinates from ORCA-job geo_opt E -43.527933711660
  N      -3.340802     -0.961128     -0.917170
  C      -2.652921     -0.386996      0.259082
  C      -1.449464      0.420538     -0.270419
  O      -1.169125      0.381227     -1.458153
  N      -0.805770      1.123130      0.671098
  C       0.346723      1.947155      0.386106
  C       1.705388      1.225754      0.256824
  O       2.686791      1.869304     -0.100582
  N       1.712030     -0.056035      0.626326
  C       2.845357     -0.913514      0.393830
  C       3.055433     -1.263157     -1.137489
  O       2.160852     -0.896579     -1.917307
  O       4.109002     -1.881370     -1.393809
  H      -3.708284     -1.902227     -0.742996
  H      -4.091508     -0.344507     -1.247419
  H      -2.627298     -0.989396     -1.671404
  H      -2.292091     -1.173254      0.920076
  H      -3.318976      0.273096      0.812714
  H      -1.165608      1.153282      1.614707
  H       0.197103      2.479524     -0.557898
  H       0.473562      2.681123      1.182137
  H       0.845562     -0.502317      0.881462
  H       3.765639     -0.429580      0.727088
  H       2.718405     -1.854073      0.928037
24
Coordinates from ORCA-job geo_opt E -43.530124614700
  N      -3.405001     -0.873884     -0.954425
  C      -2.625720     -0.455506      0.227162
  C      -1.491341      0.448587     -0.290894
  O      -1.323163      0.560765     -1.495537
  N      -0.782551      1.064544      0.662272
  C       0.333044      1.926048      0.358648
  C       1.696931      1.226803      0.196123
  O       2.653528      1.874197     -0.217677
  N       1.767390     -0.021397      0.667427
  C       2.924101     -0.847598      0.457488
  C       3.039997     -1.339531     -1.041960
  O       2.054424     -1.134325     -1.766219
  O       4.085367     -1.950162     -1.316481
  H      -3.725134     -1.846238     -0.899993
  H      -4.200550     -0.246027     -1.119382
  H      -2.757130     -0.750716     -1.762035
  H      -2.187697     -1.321183      0.724285
  H      -3.246197      0.095389      0.933440
  H      -1.051849      0.984573      1.632973
  H       0.147909      2.449630     -0.584728
  H       0.458923      2.665147      1.152140
  H       0.913436     -0.496017      0.919139
  H       3.836755     -0.284436      0.665219
  H       2.884527     -1.728661      1.097857
24
Coordinates from ORCA-job geo_opt E -43.532631048480
  N      -3.409903     -0.801121     -1.017288
  C      -2.547037     -0.549413      0.149823
  C      -1.507556      0.488589     -0.303262
  O      -1.448306      0.772379     -1.491917
  N      -0.740577      1.009680      0.656547
  C       0.325971      1.924108      0.347522
  C       1.703900      1.261446      0.194442
  O       2.621079      1.880526     -0.337859
  N       1.846987      0.065259      0.779646
  C       2.988190     -0.760231      0.506764
  C       2.847506     -1.463287     -0.901251
  O       1.723358     -1.414476     -1.424091
  O       3.849176     -2.074706     -1.300504
  H      -3.654997     -1.788274     -1.135483
  H      -4.257906     -0.223033     -0.992289
  H      -2.842283     -0.464105     -1.831063
  H      -2.019077     -1.461413      0.433174
  H      -3.116338     -0.175302      1.000343
  H      -0.897352      0.782577      1.628240
  H       0.116253      2.412590     -0.609151
  H       0.420001      2.687418      1.122803
  H       1.006209     -0.431351      1.040233
  H       3.891503     -0.148446      0.459124
  H       3.101195     -1.529414      1.270337
24
Coordinates from ORCA-job geo_opt E -43.534571878270
  N      -3.380082     -0.764530     -1.081110
  C      -2.458983     -0.623903      0.058011
  C      -1.488611      0.505798     -0.312811
  O      -1.508208      0.927846     -1.464011
  N      -0.701715      0.969821      0.656241
  C       0.324885      1.935162      0.367432
  C       1.715916      1.315463      0.209710
  O       2.592727      1.912614     -0.410070
  N       1.931424      0.164313      0.869639
  C       3.026652     -0.687608      0.495389
  C       2.604550     -1.585728     -0.727449
  O       1.389217     -1.612307     -0.988606
  O       3.510366     -2.223200     -1.285297
  H      -3.565019     -1.737278     -1.338639
  H      -4.264557     -0.268686     -0.924058
  H      -2.884531     -0.265626     -1.862987
  H      -1.867633     -1.534193      0.176387
  H      -2.982412     -0.405223      0.987635
  H      -0.771773      0.615623      1.598978
  H       0.096213      2.413388     -0.588848
  H       0.381853      2.703797      1.141659
  H       1.106020     -0.342583      1.162025
  H       3.877275     -0.081515      0.179988
  H       3.316425     -1.331445      1.325632
24
Coordinates from ORCA-job geo_opt E -43.536823912120
  N      -3.211601     -0.812034     -1.174426
  C      -2.294507     -0.682632     -0.031163
  C      -1.445049      0.564074     -0.295627
  O      -1.504108      1.075956     -1.411368
  N      -0.671845      0.998116      0.694998
  C       0.333474      2.000671      0.446238
  C       1.722774      1.404911      0.235795
  O       2.550857      1.977592     -0.467523
  N       1.995803      0.270763      0.915658
  C       2.961682     -0.662095      0.387320
  C       2.204848     -1.703622     -0.508335
  O       0.961689     -1.700983     -0.408609
  O       2.893803     -2.425817     -1.245994
  H      -3.268440     -1.763154     -1.545447
  H      -4.154628     -0.470303     -0.962618
  H      -2.794146     -0.166011     -1.893360
  H      -1.596958     -1.523974     -0.009771
  H      -2.817933     -0.622002      0.920587
  H      -0.664580      0.522519      1.584210
  H       0.080179      2.507617     -0.487508
  H       0.376555      2.743343      1.246029
  H       1.182266     -0.212409      1.278236
  H       3.693985     -0.131589     -0.220596
  H       3.465881     -1.188939      1.198116
24
Coordinates from ORCA-job geo_opt E -43.535265459090
  N      -2.926768     -0.929725     -1.255802
  C      -2.074917     -0.715004     -0.073452
  C      -1.348464      0.613456     -0.280929
  O      -1.419183      1.155671     -1.383030
  N      -0.659904      1.084441      0.753439
  C       0.349721      2.101827      0.558617
  C       1.722129      1.501655      0.272526
  O       2.514630      2.062317     -0.476698
  N       1.994133      0.330334      0.894178
  C       2.761631     -0.696941      0.216639
  C       1.750306     -1.749307     -0.346618
  O       0.569792     -1.632946      0.051517
  O       2.169942     -2.553908     -1.194972
  H      -2.835717     -1.867594     -1.652508
  H      -3.916534     -0.737424     -1.075745
  H      -2.571318     -0.218251     -1.941952
  H      -1.274277     -1.460637     -0.030526
  H      -2.635336     -0.737327      0.857169
  H      -0.622284      0.539418      1.600255
  H       0.081418      2.669060     -0.335216
  H       0.400850      2.790537      1.403158
  H       1.193039     -0.100795      1.346100
  H       3.349693     -0.254480     -0.585503
  H       3.427420     -1.194378      0.924193
24
Coordinates from ORCA-job geo_opt E -43.538397177430
  N      -3.107943     -0.849697     -1.241947
  C      -2.239382     -0.661910     -0.065318
  C      -1.398101      0.588138     -0.323230
  O      -1.435747      1.107932     -1.436251
  N      -0.701554      1.048398      0.715412
  C       0.330169      2.052097      0.547268
  C       1.716290      1.472442      0.247924
  O       2.501606      2.077925     -0.471756
  N       2.020469      0.304253      0.858440
  C       2.911703     -0.665389      0.246492
  C       2.051031     -1.826920     -0.357951
  O       0.844826     -1.833904     -0.028229
  O       2.611059     -2.600550     -1.151697
  H      -3.097973     -1.809406     -1.596493
  H      -4.076240     -0.561230     -1.071931
  H      -2.690910     -0.206311     -1.955171
  H      -1.507871     -1.471753      0.019779
  H      -2.803687     -0.589693      0.860374
  H      -0.705680      0.515829      1.572110
  H       0.066069      2.655727     -0.325114
  H       0.380870      2.706549      1.417583
  H       1.245971     -0.175932      1.309820
  H       3.509318     -0.186291     -0.527574
  H       3.575706     -1.090306      1.002301
24
Coordinates from ORCA-job geo_opt E -43.539094006540
  N      -3.085571     -0.886272     -1.195372
  C      -2.253202     -0.641397     -0.003243
  C      -1.391444      0.586532     -0.311802
  O      -1.362119      1.015457     -1.460349
  N      -0.708446      1.087751      0.717848
  C       0.335194      2.070407      0.531103
  C       1.711635      1.455678      0.249691
  O       2.539734      2.058818     -0.422594
  N       1.943078      0.267632      0.834774
  C       2.878967     -0.684744      0.282603
  C       2.083351     -1.777078     -0.518006
  O       0.845892     -1.768164     -0.357164
  O       2.742624     -2.537227     -1.243190
  H      -3.082637     -1.866436     -1.489311
  H      -4.051106     -0.565116     -1.072350
  H      -2.635865     -0.293168     -1.931817
  H      -1.545513     -1.459445      0.161601
  H      -2.852060     -0.495040      0.892297
  H      -0.747497      0.608107      1.605808
  H       0.088250      2.672173     -0.347314
  H       0.401132      2.724945      1.400720
  H       1.134077     -0.211851      1.217527
  H       3.580993     -0.180120     -0.380460
  H       3.430533     -1.181442      1.083846
24
Coordinates from ORCA-job geo_opt E -43.539899387360
  N      -3.028465     -0.891218     -1.221034
  C      -2.206576     -0.650667     -0.021779
  C      -1.353491      0.587918     -0.312593
  O      -1.325531      1.033922     -1.453335
  N      -0.705599      1.102240      0.734928
  C       0.330118      2.094026      0.570321
  C       1.695068      1.478491      0.237658
  O       2.509730      2.084824     -0.448620
  N       1.925627      0.282305      0.799469
  C       2.839173     -0.675871      0.230526
  C       2.003380     -1.816233     -0.452934
  O       0.785782     -1.823692     -0.182249
  O       2.619095     -2.610698     -1.177740
  H      -2.997364     -1.865664     -1.532264
  H      -4.002265     -0.596348     -1.094266
  H      -2.589197     -0.275983     -1.945441
  H      -1.491074     -1.463096      0.137300
  H      -2.813694     -0.518106      0.871169
  H      -0.739304      0.603494      1.613289
  H       0.069930      2.733869     -0.276701
  H       0.412040      2.704638      1.470295
  H       1.123127     -0.198774      1.194100
  H       3.481213     -0.193379     -0.506287
  H       3.458274     -1.126002      1.011030
24
Coordinates from ORCA-job geo_opt E -43.540495154120
  N      -2.875099     -0.957841     -1.242070
  C      -2.160285     -0.622927      0.002047
  C      -1.281920      0.595321     -0.293596
  O      -1.163322      0.982905     -1.448995
  N      -0.733053      1.178709      0.777033
  C       0.328497      2.150733      0.651462
  C       1.666706      1.514439      0.249069
  O       2.486703      2.131699     -0.422006
  N       1.861029      0.275730      0.723921
  C       2.742779     -0.689200      0.117817
  C       1.868972     -1.857405     -0.454290
  O       0.671044     -1.857703     -0.104930
  O       2.435226     -2.680686     -1.188362
  H      -2.794274     -1.950313     -1.478764
  H      -3.864001     -0.689267     -1.210888
  H      -2.394072     -0.390540     -1.976548
  H      -1.457515     -1.415017      0.280043
  H      -2.843594     -0.432110      0.826744
  H      -0.828526      0.707177      1.665192
  H       0.075134      2.860169     -0.140227
  H       0.440718      2.688754      1.592612
  H       1.065489     -0.206975      1.135304
  H       3.327488     -0.224116     -0.676973
  H       3.425876     -1.111537      0.861248
24
Coordinates from ORCA-job geo_opt E -43.540685084090
  N      -2.864593     -0.948997     -1.251434
  C      -2.150844     -0.629876     -0.002728
  C      -1.280303      0.596925     -0.288299
  O      -1.148404      0.979090     -1.444078
  N      -0.737424      1.181991      0.785621
  C       0.325530      2.154126      0.661932
  C       1.659848      1.517037      0.240547
  O       2.475398      2.134891     -0.434798
  N       1.854768      0.278189      0.711296
  C       2.736352     -0.683695      0.102250
  C       1.863262     -1.878055     -0.422599
  O       0.675931     -1.883406     -0.040166
  O       2.421143     -2.711790     -1.148841
  H      -2.773181     -1.935818     -1.507814
  H      -3.854862     -0.686197     -1.214812
  H      -2.386500     -0.362463     -1.973240
  H      -1.447032     -1.425878      0.259157
  H      -2.833754     -0.450041      0.824498
  H      -0.846045      0.722713      1.678936
  H       0.068393      2.873778     -0.118965
  H       0.450013      2.678433      1.608795
  H       1.055694     -0.210386      1.110177
  H       3.287601     -0.230024     -0.722229
  H       3.449010     -1.080547      0.831636
24
Coordinates from ORCA-job geo_opt E -43.540845314490
  N      -2.860058     -0.944719     -1.253196
  C      -2.161645     -0.628224      0.005768
  C      -1.266990      0.582329     -0.277784
  O      -1.105778      0.943603     -1.437276
  N      -0.742011      1.182989      0.795170
  C       0.322837      2.154450      0.671158
  C       1.655174      1.517663      0.241669
  O       2.474164      2.140292     -0.424457
  N       1.844260      0.273323      0.698140
  C       2.736896     -0.675698      0.085807
  C       1.877652     -1.891645     -0.417846
  O       0.690464     -1.902270     -0.034912
  O       2.443271     -2.729508     -1.132306
  H      -2.779712     -1.934067     -1.503372
  H      -3.845354     -0.662143     -1.236950
  H      -2.356878     -0.370505     -1.969234
  H      -1.479572     -1.438722      0.279089
  H      -2.853390     -0.429298      0.820783
  H      -0.886860      0.761970      1.701793
  H       0.065971      2.881512     -0.102957
  H       0.457690      2.671264      1.620142
  H       1.035627     -0.226220      1.066563
  H       3.264071     -0.223827     -0.755441
  H       3.470172     -1.052551      0.804492
24
Coordinates from ORCA-job geo_opt E -43.540898880450
  N      -2.843111     -0.947290     -1.256701
  C      -2.167785     -0.620515      0.012546
  C      -1.266011      0.585600     -0.264602
  O      -1.081726      0.934436     -1.425355
  N      -0.747003      1.189374      0.807752
  C       0.320837      2.156783      0.680497
  C       1.646361      1.517334      0.239256
  O       2.469804      2.144994     -0.416938
  N       1.831904      0.266509      0.682840
  C       2.730702     -0.674692      0.066904
  C       1.880696     -1.905206     -0.413436
  O       0.692447     -1.916996     -0.032227
  O       2.450369     -2.750797     -1.116166
  H      -2.760988     -1.938599     -1.497351
  H      -3.827623     -0.662462     -1.263413
  H      -2.323606     -0.381139     -1.968444
  H      -1.493004     -1.431227      0.302737
  H      -2.873193     -0.415062      0.813895
  H      -0.908799      0.786992      1.719633
  H       0.062591      2.892149     -0.085681
  H       0.468253      2.667516      1.630894
  H       1.019459     -0.238769      1.038137
  H       3.239200     -0.224767     -0.787363
  H       3.480223     -1.034164      0.777428
24
Coordinates from ORCA-job geo_opt E -43.540918828720
  N      -2.840189     -0.947817     -1.256433
  C      -2.169660     -0.619032      0.015033
  C      -1.262702      0.583192     -0.261280
  O      -1.076168      0.931380     -1.422152
  N      -0.745941      1.188167      0.811119
  C       0.320184      2.157074      0.682193
  C       1.646766      1.519986      0.242500
  O       2.473539      2.151542     -0.405580
  N       1.826494      0.264526      0.675561
  C       2.728550     -0.674230      0.060533
  C       1.883000     -1.909699     -0.413376
  O       0.691621     -1.918190     -0.041086
  O       2.457867     -2.761015     -1.105059
  H      -2.761708     -1.940127     -1.493597
  H      -3.823261     -0.658659     -1.270289
  H      -2.313707     -0.386280     -1.966702
  H      -1.498580     -1.430550      0.311617
  H      -2.878351     -0.409869      0.812542
  H      -0.912531      0.792637      1.724980
  H       0.060735      2.892862     -0.083200
  H       0.468496      2.668803      1.632026
  H       1.010837     -0.242190      1.021894
  H       3.232954     -0.225340     -0.796813
  H       3.481754     -1.027171      0.770408
24
Coordinates from ORCA-job geo_opt E -43.540937171080
  N      -2.842035     -0.944891     -1.257543
  C      -2.171153     -0.617947      0.013963
  C      -1.266286      0.585934     -0.259894
  O      -1.084377      0.939880     -1.419897
  N      -0.744801      1.185257      0.813185
  C       0.319364      2.155659      0.681942
  C       1.648226      1.521896      0.245883
  O       2.479080      2.158593     -0.391811
  N       1.823924      0.262556      0.668681
  C       2.728927     -0.674183      0.054791
  C       1.889071     -1.917385     -0.405673
  O       0.695332     -1.923962     -0.039977
  O       2.469477     -2.776760     -1.082781
  H      -2.764019     -1.936628     -1.497252
  H      -3.825444     -0.656863     -1.271392
  H      -2.315725     -0.380617     -1.965911
  H      -1.497363     -1.427526      0.310373
  H      -2.880091     -0.413319      0.812577
  H      -0.907936      0.788217      1.726871
  H       0.057997      2.889727     -0.084460
  H       0.466826      2.671544      1.630012
  H       1.006164     -0.245583      1.008084
  H       3.226054     -0.227199     -0.807942
  H       3.488790     -1.016399      0.763010
24
Coordinates from ORCA-job geo_opt E -43.540952522240
  N      -2.846503     -0.941747     -1.256105
  C      -2.169869     -0.618649      0.012863
  C      -1.270380      0.589302     -0.260587
  O      -1.096699      0.949378     -1.419731
  N      -0.743742      1.184132      0.812706
  C       0.318723      2.155644      0.679605
  C       1.651313      1.523890      0.251281
  O       2.490141      2.166164     -0.370357
  N       1.818740      0.259844      0.660978
  C       2.729073     -0.674827      0.052534
  C       1.895909     -1.924411     -0.400825
  O       0.698827     -1.929265     -0.046061
  O       2.484818     -2.791387     -1.060650
  H      -2.768262     -1.932311     -1.500751
  H      -3.830806     -0.656322     -1.263766
  H      -2.325326     -0.371838     -1.964006
  H      -1.491219     -1.426122      0.304301
  H      -2.875694     -0.420713      0.816106
  H      -0.900814      0.783258      1.725739
  H       0.057227      2.885399     -0.090818
  H       0.462487      2.677837      1.625053
  H       0.996530     -0.249642      0.987670
  H       3.223813     -0.229256     -0.812487
  H       3.491714     -1.008359      0.762147
24
Coordinates from ORCA-job geo_opt E -43.540966912960
  N      -2.857392     -0.936835     -1.253314
  C      -2.169398     -0.620200      0.010779
  C      -1.277069      0.593147     -0.263480
  O      -1.115106      0.960423     -1.421762
  N      -0.742944      1.182907      0.809271
  C       0.318259      2.155209      0.674600
  C       1.656432      1.525068      0.259366
  O       2.505379      2.173520     -0.342047
  N       1.815187      0.256331      0.655542
  C       2.732931     -0.675225      0.054107
  C       1.907426     -1.930988     -0.395669
  O       0.707225     -1.936047     -0.051742
  O       2.505118     -2.802675     -1.040985
  H      -2.779976     -1.925796     -1.504806
  H      -3.842500     -0.653800     -1.249273
  H      -2.344916     -0.360283     -1.962390
  H      -1.484751     -1.426575      0.291391
  H      -2.868042     -0.430797      0.822406
  H      -0.890973      0.775250      1.720883
  H       0.058609      2.876850     -0.104052
  H       0.454726      2.687416      1.615606
  H       0.987757     -0.255583      0.965674
  H       3.227443     -0.230143     -0.811512
  H       3.496576     -1.001174      0.766250
24
Coordinates from ORCA-job geo_opt E -43.540980712080
  N      -2.868922     -0.933399     -1.248290
  C      -2.169045     -0.621443      0.010308
  C      -1.282805      0.596186     -0.266732
  O      -1.130760      0.967386     -1.424836
  N      -0.742828      1.184000      0.804526
  C       0.318077      2.156003      0.668694
  C       1.662158      1.525949      0.270332
  O       2.524018      2.180841     -0.305573
  N       1.809636      0.251605      0.650087
  C       2.736972     -0.675482      0.057454
  C       1.919383     -1.935737     -0.395402
  O       0.716012     -1.942461     -0.062961
  O       2.525954     -2.808744     -1.030247
  H      -2.794133     -1.921658     -1.503495
  H      -3.854021     -0.650393     -1.232796
  H      -2.364321     -0.354233     -1.960796
  H      -1.480151     -1.428013      0.279921
  H      -2.859654     -0.437837      0.830103
  H      -0.882996      0.770698      1.714979
  H       0.062973      2.867318     -0.120913
  H       0.445235      2.699861      1.604240
  H       0.975724     -0.263727      0.937881
  H       3.235334     -0.229715     -0.805824
  H       3.498161     -0.997007      0.774180
24
Coordinates from ORCA-job geo_opt E -43.540989395170
  N      -2.875959     -0.932488     -1.244003
  C      -2.169129     -0.621592      0.011242
  C      -1.286102      0.597971     -0.268488
  O      -1.138792      0.969816     -1.426990
  N      -0.743274      1.186297      0.801176
  C       0.318109      2.157323      0.664390
  C       1.665903      1.526398      0.279349
  O       2.537610      2.185569     -0.276829
  N       1.804855      0.247780      0.646737
  C       2.739568     -0.675489      0.060266
  C       1.926890     -1.937712     -0.397980
  O       0.722042     -1.947066     -0.070775
  O       2.537833     -2.808337     -1.031594
  H      -2.803930     -1.921083     -1.498763
  H      -3.860406     -0.647662     -1.222558
  H      -2.375110     -0.355258     -1.960279
  H      -1.478653     -1.429036      0.274068
  H      -2.854644     -0.439782      0.835607
  H      -0.878895      0.769960      1.711061
  H       0.067678      2.860390     -0.134119
  H       0.438257      2.710023      1.595518
  H       0.966397     -0.270822      0.916593
  H       3.242710     -0.228968     -0.799933
  H       3.497041     -0.996232      0.781143
24
Coordinates from ORCA-job geo_opt E -43.540992604100
  N      -2.878344     -0.932939     -1.241640
  C      -2.168987     -0.621541      0.012404
  C      -1.286822      0.598182     -0.268752
  O      -1.140535      0.969591     -1.427662
  N      -0.743428      1.187665      0.799956
  C       0.318161      2.158129      0.661997
  C       1.667121      1.526550      0.283063
  O       2.543126      2.187141     -0.264754
  N       1.802285      0.246190      0.645767
  C       2.740448     -0.675476      0.062395
  C       1.929263     -1.937135     -0.401353
  O       0.723911     -1.948124     -0.075596
  O       2.541125     -2.804777     -1.038037
  H      -2.808445     -1.922115     -1.494703
  H      -3.862091     -0.645894     -1.218857
  H      -2.377946     -0.358688     -1.960202
  H      -1.478400     -1.429684      0.272736
  H      -2.852675     -0.439472      0.838146
  H      -0.877586      0.770994      1.709931
  H       0.069951      2.857380     -0.140576
  H       0.435601      2.714932      1.590983
  H       0.962169     -0.274256      0.907759
  H       3.248252     -0.228690     -0.794859
  H       3.493846     -0.997961      0.786696
24
Coordinates from ORCA-job geo_opt E -43.540993744980
  N      -2.878899     -0.933289     -1.240833
  C      -2.168788     -0.621586      0.012901
  C      -1.286825      0.597961     -0.268555
  O      -1.140356      0.969202     -1.427607
  N      -0.743449      1.187997      0.799851
  C       0.318116      2.158298      0.660865
  C       1.667319      1.526648      0.283960
  O       2.544501      2.187438     -0.261766
  N       1.801539      0.245898      0.645813
  C       2.740682     -0.675455      0.063410
  C       1.929586     -1.936293     -0.403072
  O       0.724373     -1.948354     -0.076462
  O       2.540955     -2.801969     -1.042848
  H      -2.810370     -1.922802     -1.492934
  H      -3.862191     -0.644744     -1.218179
  H      -2.378034     -0.360783     -1.960251
  H      -1.478078     -1.429890      0.272469
  H      -2.852097     -0.439482      0.838916
  H      -0.877341      0.771833      1.710078
  H       0.070351      2.856369     -0.142874
  H       0.435025      2.716655      1.589030
  H       0.961235     -0.275499      0.905553
  H       3.251094     -0.228816     -0.792259
  H       3.491651     -0.999338      0.789639
24
Coordinates from ORCA-job geo_opt E -43.540994280850
  N      -2.879255     -0.933413     -1.240388
  C      -2.168520     -0.621814      0.013070
  C      -1.286723      0.597643     -0.268443
  O      -1.140052      0.968890     -1.427494
  N      -0.743398      1.187916      0.799905
  C       0.318009      2.158243      0.660062
  C       1.667347      1.526770      0.283958
  O       2.544959      2.187600     -0.261040
  N       1.801315      0.246010      0.645845
  C       2.740820     -0.675508      0.064170
  C       1.929593     -1.935529     -0.404180
  O       0.724514     -1.948198     -0.076897
  O       2.540542     -2.800056     -1.045881
  H      -2.812073     -1.923139     -1.492025
  H      -3.862166     -0.643556     -1.217855
  H      -2.377873     -0.361936     -1.960184
  H      -1.477476     -1.430012      0.272158
  H      -2.851646     -0.440098      0.839325
  H      -0.877198      0.772357      1.710388
  H       0.070036      2.855908     -0.143949
  H       0.434949      2.717407      1.587810
  H       0.961124     -0.275981      0.904830
  H       3.253272     -0.229061     -0.790287
  H       3.489900     -1.000442      0.791945
