24
zwitterion conformer 10
N      -3.28754877    -1.09505035    -0.75354495
C      -2.78929417    -0.18403426     0.22933840
C      -1.46919275     0.40924617    -0.18186234
O      -0.97774280     0.05715416    -1.28405169
N      -0.84810468     1.33673562     0.69865833
C       0.40446871     1.94545566     0.39751377
C       1.54932455     1.04610253     0.25168466
O       2.66862017     1.57372766    -0.04176442
N       1.53436249    -0.35215350     0.40651575
C       2.76915564    -1.07540689     0.21941704
C       3.32741278    -0.89297198    -1.14432281
O       2.74807935    -0.16907568    -2.02222929
O       4.51905154    -1.55008641    -1.42745568
H      -3.81847284    -1.89588235    -0.29779669
H      -4.03534004    -0.63708435    -1.35434919
H      -2.58627799    -1.50198127    -1.39465671
H      -2.59406457    -0.72423500     1.18723155
H      -3.52331743     0.60642836     0.44797007
H      -1.35188034     1.56960190     1.60608439
H       0.36193459     2.56279085    -0.54148192
H       0.66327739     2.69331396     1.18723652
H       0.66990803    -0.83815065     0.65254725
H       3.47334678    -0.72745189     1.01086873
H       2.59229435    -2.15699229     0.39329131
