
                                 *****************
                                 * O   R   C   A *
                                 *****************

                                            #,                                       
                                            ###                                      
                                            ####                                     
                                            #####                                    
                                            ######                                   
                                           ########,                                 
                                     ,,################,,,,,                         
                               ,,#################################,,                 
                          ,,##########################################,,             
                       ,#########################################, ''#####,          
                    ,#############################################,,   '####,        
                  ,##################################################,,,,####,       
                ,###########''''           ''''###############################       
              ,#####''   ,,,,##########,,,,          '''####'''          '####       
            ,##' ,,,,###########################,,,                        '##       
           ' ,,###''''                  '''############,,,                           
         ,,##''                                '''############,,,,        ,,,,,,###''
      ,#''                                            '''#######################'''  
     '                                                          ''''####''''         
             ,#######,   #######,   ,#######,      ##                                
            ,#'     '#,  ##    ##  ,#'     '#,    #''#        ,####,    ,#,          
            ##       ##  ##   ,#'  ##            #'  '#       #'       ,# #          
            ##       ##  #######   ##           ,######,      #####,      #          
            '#,     ,#'  ##    ##  '#,     ,#' ,#      #,     #,   #      #          
             '#######'   ##     ##  '#######'  #'      '#     '####' #    #          



                #########################################################
                #                        -***-                          #
                #          Department of theory and spectroscopy        #
                #                                                       #
                #                      Frank Neese                      #
                #                                                       #
                #     Directorship, Architecture, Infrastructure        #
                #                    SHARK, DRIVERS                     #
                #        Core code/Algorithms in most modules           #
                #                                                       #
                #        Max Planck Institute fuer Kohlenforschung      #
                #                Kaiser Wilhelm Platz 1                 #
                #                 D-45470 Muelheim/Ruhr                 #
                #                      Germany                          #
                #                                                       #
                #                  All rights reserved                  #
                #                        -***-                          #
                #########################################################


                         Program Version 6.1.0-f.0  -   RELEASE   -


 With contributions from (in alphabetic order):
[Max-Planck-Institut fuer Kohlenforschung]                               
  Daniel Aravena         : Magnetic Suceptibility                        
  Michael Atanasov       : Ab Initio Ligand Field Theory (pilot matlab implementation)
  Alexander A. Auer      : GIAO ZORA, VPT2 properties, NMR spectrum      
  Ute Becker             : All parallelization in ORCA, NUMFREQ, NUMCALC 
  Giovanni Bistoni       : ED, misc. LED, open-shell LED, HFLD           
  Dmytro Bykov           : pre 5.0 version of the SCF Hessian            
  Marcos Casanova-Páez   : Triplet and SCS-CIS(D). UHF-(DLPNO)-IP/EA/STEOM-CCSD. UHF-CVS-IP/STEOM-CCSD   
  Vijay G. Chilkuri      : MRCI spin determinant printing, contributions to CSF-ICE 
  Pauline Colinet        : FMM embedding                                 
  Dipayan Datta          : RHF DLPNO-CCSD density                        
  Achintya Kumar Dutta   : EOM-CC, STEOM-CC                              
  Nicolas Foglia         : Exact transition moments, OPA infrastructure, MCD improvements    
  Dmitry Ganyushin       : Spin-Orbit,Spin-Spin,Magnetic field MRCI      
  Miquel Garcia-Rates    : C-PCM and meta-GGA Hessian, CCSD/C-PCM, Gaussian charge scheme 
  Tiago L. C. Gouveia    : GS-ROHF, GS-ROCIS                             
  Yang Guo               : DLPNO-NEVPT2, F12-NEVPT2, CIM, IAO-localization        
  Andreas Hansen         : Spin unrestricted coupled pair/coupled cluster methods 
  Ingolf Harden          : AUTO-CI MPn and infrastructure                
  Benjamin Helmich-Paris : MC-RPA, TRAH-(SCF,CASSCF), AVAS, COSX integrals, SCF dyn. polar., MC-PDFT, srDFT 
  Lee Huntington         : MR-EOM, pCC                                   
  Robert Izsak           : Overlap fitted RIJCOSX, COSX-SCS-MP3, EOM     
  Riya Kayal             : Wick's Theorem for AUTO-CI, AUTO-CI UHF-CCSDT 
  Emily Kempfer          : AUTO-CI RHF CISDT and CCSDT, approximate NEVPT4
  Christian Kollmar      : KDIIS, OOCD, Brueckner-CCSD(T), CCSD density, CASPT2, CASPT2-K, improved NEVPT2 
  Axel Koslowski         : Symmetry handling                             
  Simone Kossmann        : meta-GGA functionals, TD-DFT gradient, OOMP2, (MP2 Hessian; deprecated post 5.0) 
  Lucas Lang             : DCDCAS, Hyperfine gauge corrections, ICE-SOC+SSC
  Marvin Lechner         : AUTO-CI (C++ implementation), FIC-MRCC        
  Spencer Leger          : CASSCF response                               
  Dagmar Lenk            : GEPOL surface, SMD, ORCA-2-JSON               
  Dimitrios Liakos       : Extrapolation schemes; Compound Job, Property file
  Dimitrios Manganas     : Further ROCIS development; embedding schemes. LFT, Crystal Embedding 
  Dimitrios Pantazis     : SARC Basis sets                               
  Anastasios Papadopoulos: AUTO-CI, single reference methods and gradients 
  Taras Petrenko         : pre 6.0 DFT Hessian and TD-DFT gradient,  ECA, NRVS 
  Petra Pikulova         : Analytic Raman intensities                    
  Peter Pinski           : DLPNO-MP2, DLPNO-MP2 Gradient                 
  Shashank Vittal Rao    : ES-AILFT, MagRelax                            
  Christoph Reimann      : Effective Core Potentials                     
  Marius Retegan         : Local ZFS, SOC                                
  Christoph Riplinger    : Optimizer, TS searches, QM/MM, DLPNO-CCSD(T), (RO)-DLPNO pert. Triples 
  Michael Roemelt        : Original ROCIS implementation, recursive CI coupling coefficients
  Masaaki Saitow         : Open-shell DLPNO-CCSD energy and density      
  Barbara Sandhoefer     : DKH picture change effects                    
  Yorick L. A. Schmerwitz: GMF and freeze-and-release deltaSCF, NEB S-IDPP initial path                    
  Kantharuban Sivalingam : CASSCF convergence/infrastructure, NEVPT2, NEVPT3, NEVPT4(SD), FIC-MRCI and CEPA variants
  Bernardo de Souza      : ESD, SOC TD-DFT                               
  Georgi L. Stoychev     : AutoAux, RI-MP2 NMR, DLPNO-MP2 response, X2C  
  Van Anh Tran           : RI-MP2 g-tensors                              
  Willem Van den Heuvel  : Paramagnetic NMR                              
  Zikuan Wang            : NOTCH, Electric field optimization            
  Frank Wennmohs         : Technical directorship and infrastructure     
  Hang Xu                : AUTO-CI-Response properties                   
                                                                         
[FACCTs GmbH]                                                            
  Markus Bursch, Nicolas Foglia, Miquel Garcia-Rates, Ingolf Harden, Hagen Neugebauer, Anastasios Papadopoulos, 
  Christoph Riplinger, Bernardo de Souza, Georgi L. Stoychev                                                    
                                                                 
  APM, various basis sets, CI-OPT, improved COSX, DLPNO-Multilevel,           
  DOCKER, DRACO, updates on ESD, Fragmentator, GOAT, IRC, LR-CPCM, L-BFGS, MBIS, meta-GGA TD-DFT gradient, ML-optimized integration grids, 
  MM, NACMEs, nearIR, NEB, NEB-TS, NL-DFT gradient (VV10), 2- and 3-layer-ONIOM, interface openCOSMO-RS, QMMM,   
  Crystal-QMMM, RESP, rigid body optimization, SF, symmetry and pop. for TD-DFT, various functionals, SOLVATOR                                   
                                                                         
[Other institutions]                                                     
  V. Asgeirsson          : NEB                                           
  Christoph Bannwarth    : sTDA-DFT, sTD-DFT, PBEh-3c, B97-3c, D3        
  Giovanni Bistoni       : ETS/NOCV, ADLD/ADEX, COVALED                  
  Martin Brehm           : Molecular dynamics                            
  Ronald Cardenas        : ETS/NOCV                                      
  Martina Colucci        : COVALED                                       
  Sebastian Ehlert       : rSCAN, r2SCAN, r2SCAN-3c, D4, dhf basis sets  
  Marvin Friede          : D4 for Fr, Ra, Ac-Lr                          
  Lars Goerigk           : TD-DFT with DH, B97 family of functionals     
  Stefan Grimme          : VdW corrections, initial TS optimization, DFT functionals, gCP, sTDA/sTD-DF 
  Waldemar Hujo          : DFT-NL                                        
  H. Jonsson             : NEB                                           
  Holger Kruse           : gCP                                           
  Marcel Mueller         : wB97X-3c, vDZP basis set                      
  Hagen Neugebauer       : wr2SCAN, Native XTB                           
  Gianluca Regni         : ADLD/ADEX                                     
  Tobias Risthaus        : pre 6.0 range-separated hybrid DFT and stability analysis
  Lukas Wittmann         : regularized MP2, r2SCAN double-hybrids, wr2SCAN        
                                                                         
We gratefully acknowledge several colleagues who have allowed us to      
interface, adapt or use parts of their codes:                            
  Ed Valeev, F. Pavosevic, A. Kumar             : LibInt (2-el integral package), F12 methods 
  Garnet Chan, S. Sharma, J. Yang, R. Olivares  : DMRG                   
  Ulf Ekstrom                                   : XCFun DFT Library      
  Mihaly Kallay                                 : mrcc  (arbitrary order and MRCC methods)
  Frank Weinhold                                : gennbo (NPA and NBO analysis)           
  Simon Mueller                                 : openCOSMO-RS                            
  Christopher J. Cramer and Donald G. Truhlar   : smd solvation model                     
  S Lehtola, MJT Oliveira, MAL Marques          : LibXC Library                           
  Liviu Ungur et al                             : ANISO software                          


 Your calculation uses the libint2 library for the computation of 2-el integrals
 For citations please refer to: http://libint.valeyev.net

 Your ORCA version has been built with support for libXC version: 7.0.0
 For citations please refer to: https://libxc.gitlab.io

 This ORCA versions uses:
   CBLAS   interface :  Fast vector & matrix operations
   LAPACKE interface :  Fast linear algebra routines
   SCALAPACK package :  Parallel linear algebra routines
   Shared memory     :  Shared parallel matrices
   BLAS/LAPACK       :  OpenBLAS 0.3.29  USE64BITINT DYNAMIC_ARCH NO_AFFINITY Haswell SINGLE_THREADED
        Core in use  :  Haswell
   Copyright (c) 2011-2014, The OpenBLAS Project


  ***********************************
  * Starting time: Sat Apr 11 17:16:35 2026
  * Host name:     analima-B660M-GAMING-X-DDR4
  * Process ID:    1976502
  * Working dir.:  /home/analima/COSMO-RS/COSMO-RS.jl/tgly_cosmo/zwitterion/01_cpcm_xtb2_alpb/conf_10
  ***********************************

NOTE: MaxCore=2000 MB was set to SCF,MP2,MDCI,CIPSI,MRCI,RASCI and CIS
      => If you want to overwrite this, your respective input block should be placed after the MaxCore statement


***************************************
The coordinates will be read from file: input.xyz
***************************************


Your calculation utilizes the semiempirical GFN2-xTB method
Please cite in your paper:
Bannwarth, C.; Ehlert S.; Grimme, S. J. Chem. Theory Comput. 2019, 15, 1652.
   

================================================================================

================================================================================
                                        WARNINGS
                       Please study these warnings very carefully!
================================================================================


WARNING: Geometry Optimization
  ===> : Switching off AutoStart
         For restart on a previous wavefunction, please use MOREAD

WARNING: Found dipole moment calculation with XTB calculation
  ===> : Switching off dipole moment calculation


================================================================================
                                       INPUT FILE
================================================================================
NAME = input.inp
|  1> %MaxCore 2000
|  2> 
|  3> ! XTB2 OPT ALPB(water)
|  4> 
|  5> %base "geo_opt"
|  6> 
|  7> * xyzfile 0 1 input.xyz
|  8> 
|  9> 
| 10>                          ****END OF INPUT****
================================================================================

                       *****************************
                       * Geometry Optimization Run *
                       *****************************

Geometry optimization settings:
Update method            Update   .... BFGS
Choice of coordinates    CoordSys .... (2022) Redundant Internals
Initial Hessian          InHess   .... Almloef's Model
Max. no of cycles        MaxIter  .... 72

Convergence Tolerances:
Energy Change            TolE     ....  5.0000e-06 Eh
Max. Gradient            TolMAXG  ....  3.0000e-04 Eh/bohr
RMS Gradient             TolRMSG  ....  1.0000e-04 Eh/bohr
Max. Displacement        TolMAXD  ....  4.0000e-03 bohr
RMS Displacement         TolRMSD  ....  2.0000e-03 bohr
Strict Convergence                .... False

------------------------------------------------------------------------------
                        ORCA OPTIMIZATION COORDINATE SETUP
------------------------------------------------------------------------------

The optimization will be done in redundant internal coordinates (2022)
Making redundant internal coordinates   ...  (2022 redundants) done
Evaluating the initial hessian          ...  (Almloef) done
Evaluating the coordinates              ...  done
Calculating the B-matrix                .... done
Calculating the G-matrix                .... done
The number of degrees of freedom        ....  102

    -----------------------------------------------------------------
                    Redundant Internal Coordinates


    -----------------------------------------------------------------
         Definition                    Initial Value    Approx d2E/dq
    -----------------------------------------------------------------
      1. B(C   1,N   0)                  1.4298         0.483516   
      2. B(C   2,C   1)                  1.5046         0.410154   
      3. B(O   3,C   2)                  1.2571         0.911803   
      4. B(N   4,C   2)                  1.4217         0.498034   
      5. B(C   5,N   4)                  1.4248         0.492369   
      6. B(C   6,C   5)                  1.4631         0.477571   
      7. B(O   7,C   6)                  1.2717         0.864075   
      8. B(N   8,C   6)                  1.4069         0.525947   
      9. B(C   9,N   8)                  1.4432         0.460261   
     10. B(C  10,C   9)                  1.4848         0.441005   
     11. B(O  11,C  10)                  1.2769         0.847973   
     12. B(O  12,C  10)                  1.3900         0.559696   
     13. B(H  13,N   0)                  1.0634         0.355569   
     14. B(H  14,N   0)                  1.0630         0.356202   
     15. B(H  15,N   0)                  1.0336         0.396725   
     16. B(H  15,O   3)                  2.2429         0.010000   
     17. B(H  16,C   1)                  1.1169         0.326203   
     18. B(H  17,C   1)                  1.1006         0.346289   
     19. B(H  18,N   4)                  1.0637         0.355250   
     20. B(H  19,C   5)                  1.1246         0.317170   
     21. B(H  20,C   5)                  1.1180         0.324894   
     22. B(H  21,N   8)                  1.0218         0.414403   
     23. B(H  22,C   9)                  1.1151         0.328432   
     24. B(H  23,C   9)                  1.1097         0.335013   
     25. A(H  14,N   0,H  15)          107.2373         0.290037   
     26. A(H  13,N   0,H  15)          107.9424         0.289956   
     27. A(C   1,N   0,H  13)          111.0510         0.332832   
     28. A(C   1,N   0,H  14)          111.0504         0.332930   
     29. A(H  13,N   0,H  14)          102.4421         0.285115   
     30. A(C   1,N   0,H  15)          116.1551         0.338952   
     31. A(N   0,C   1,H  17)          111.2079         0.334234   
     32. A(N   0,C   1,C   2)          111.6619         0.383618   
     33. A(C   2,C   1,H  16)          105.7679         0.324029   
     34. A(N   0,C   1,H  16)          110.0174         0.330940   
     35. A(C   2,C   1,H  17)          110.8690         0.327229   
     36. A(H  16,C   1,H  17)          107.0715         0.284634   
     37. A(C   1,C   2,N   4)          118.1168         0.385597   
     38. A(C   1,C   2,O   3)          118.1763         0.429104   
     39. A(O   3,C   2,N   4)          123.7069         0.441458   
     40. A(C   2,N   4,H  18)          117.6628         0.334420   
     41. A(C   2,N   4,C   5)          122.1302         0.395575   
     42. A(C   5,N   4,H  18)          120.2070         0.333785   
     43. A(N   4,C   5,H  20)          109.8761         0.331715   
     44. A(C   6,C   5,H  19)          106.4873         0.330724   
     45. A(N   4,C   5,H  19)          112.1947         0.330396   
     46. A(N   4,C   5,C   6)          116.5082         0.395197   
     47. A(H  19,C   5,H  20)          103.3770         0.280609   
     48. A(C   6,C   5,H  20)          107.4838         0.332044   
     49. A(C   5,C   6,O   7)          117.1710         0.436765   
     50. A(O   7,C   6,N   8)          116.5575         0.441519   
     51. A(C   5,C   6,N   8)          126.2715         0.399803   
     52. A(C   6,N   8,C   9)          118.3403         0.394681   
     53. A(C   9,N   8,H  21)          121.1123         0.338630   
     54. A(C   6,N   8,H  21)          120.5457         0.346282   
     55. A(H  22,C   9,H  23)          107.0733         0.283473   
     56. A(N   8,C   9,C  10)          112.2827         0.385171   
     57. A(C  10,C   9,H  23)          108.8805         0.329364   
     58. A(N   8,C   9,H  23)          109.3773         0.329703   
     59. A(C  10,C   9,H  22)          112.0937         0.328287   
     60. A(N   8,C   9,H  22)          106.9737         0.328625   
     61. A(O  11,C  10,O  12)          121.1281         0.444997   
     62. A(C   9,C  10,O  12)          116.8292         0.398577   
     63. A(C   9,C  10,O  11)          122.0427         0.429101   
     64. D(H  16,C   1,N   0,H  15)    -94.9011         0.021469   
     65. D(C   2,C   1,N   0,H  15)     22.2210         0.021469   
     66. D(H  16,C   1,N   0,H  13)     28.9308         0.021469   
     67. D(H  16,C   1,N   0,H  14)    142.2280         0.021469   
     68. D(C   2,C   1,N   0,H  14)   -100.6500         0.021469   
     69. D(C   2,C   1,N   0,H  13)    146.0528         0.021469   
     70. D(N   4,C   2,C   1,H  16)    -60.3379         0.012459   
     71. D(N   4,C   2,C   1,N   0)   -179.9989         0.012459   
     72. D(O   3,C   2,C   1,H  17)   -124.6087         0.012459   
     73. D(O   3,C   2,C   1,N   0)      0.0015         0.012459   
     74. D(O   3,C   2,C   1,H  16)    119.6626         0.012459   
     75. D(H  18,N   4,C   2,C   1)     -0.2832         0.019604   
     76. D(C   5,N   4,C   2,O   3)     -0.2843         0.019604   
     77. D(H  18,N   4,C   2,O   3)    179.7163         0.019604   
     78. D(C   5,N   4,C   2,C   1)    179.7162         0.019604   
     79. D(H  20,C   5,N   4,C   2)    175.7137         0.020769   
     80. D(H  19,C   5,N   4,H  18)   -118.6926         0.020769   
     81. D(H  19,C   5,N   4,C   2)     61.3080         0.020769   
     82. D(C   6,C   5,N   4,H  18)    118.2138         0.020769   
     83. D(C   6,C   5,N   4,C   2)    -61.7856         0.020769   
     84. D(N   8,C   6,C   5,H  19)   -127.3662         0.016817   
     85. D(N   8,C   6,C   5,N   4)     -1.3614         0.016817   
     86. D(O   7,C   6,C   5,H  20)    -57.5364         0.016817   
     87. D(O   7,C   6,C   5,H  19)     52.7181         0.016817   
     88. D(O   7,C   6,C   5,N   4)    178.7230         0.016817   
     89. D(H  21,N   8,C   6,O   7)    179.3107         0.021952   
     90. D(H  21,N   8,C   6,C   5)     -0.6054         0.021952   
     91. D(C   9,N   8,C   6,O   7)     -0.2178         0.021952   
     92. D(C   9,N   8,C   6,C   5)    179.8661         0.021952   
     93. D(C  10,C   9,N   8,H  21)    120.4725         0.018084   
     94. D(C  10,C   9,N   8,C   6)    -60.0018         0.018084   
     95. D(H  23,C   9,N   8,C   6)    179.0120         0.018084   
     96. D(H  22,C   9,N   8,H  21)   -116.1560         0.018084   
     97. D(H  22,C   9,N   8,C   6)     63.3697         0.018084   
     98. D(O  12,C  10,C   9,H  22)     59.5463         0.014350   
     99. D(O  12,C  10,C   9,N   8)    179.9995         0.014350   
    100. D(O  11,C  10,C   9,H  23)    121.2707         0.014350   
    101. D(O  11,C  10,C   9,H  22)   -120.4542         0.014350   
    102. D(O  11,C  10,C   9,N   8)     -0.0009         0.014350   
    -----------------------------------------------------------------

Number of atoms                         .... 24
Number of degrees of freedom            .... 102


         *************************************************************
         *                GEOMETRY OPTIMIZATION CYCLE   1            *
         *************************************************************
---------------------------------
CARTESIAN COORDINATES (ANGSTROEM)
---------------------------------
  N    -3.287549   -1.095050   -0.753545
  C    -2.789294   -0.184034    0.229338
  C    -1.469193    0.409246   -0.181862
  O    -0.977743    0.057154   -1.284052
  N    -0.848105    1.336736    0.698658
  C     0.404469    1.945456    0.397514
  C     1.549325    1.046103    0.251685
  O     2.668620    1.573728   -0.041764
  N     1.534362   -0.352154    0.406516
  C     2.769156   -1.075407    0.219417
  C     3.327413   -0.892972   -1.144323
  O     2.748079   -0.169076   -2.022229
  O     4.519052   -1.550086   -1.427456
  H    -3.818473   -1.895882   -0.297797
  H    -4.035340   -0.637084   -1.354349
  H    -2.586278   -1.501981   -1.394657
  H    -2.594065   -0.724235    1.187232
  H    -3.523317    0.606428    0.447970
  H    -1.351880    1.569602    1.606084
  H     0.361935    2.562791   -0.541482
  H     0.663277    2.693314    1.187237
  H     0.669908   -0.838151    0.652547
  H     3.473347   -0.727452    1.010869
  H     2.592294   -2.156992    0.393291

----------------------------
CARTESIAN COORDINATES (A.U.)
----------------------------
  NO LB    ZA    FRAG    MASS        X           Y           Z
   0 N   7.0000    0    14.007   -6.212567   -2.069345   -1.423994
   1 C   6.0000    0    12.011   -5.271002   -0.347774    0.433387
   2 C   6.0000    0    12.011   -2.776372    0.773363   -0.343670
   3 O   8.0000    0    15.999   -1.847666    0.108006   -2.426506
   4 N   7.0000    0    14.007   -1.602686    2.526064    1.320273
   5 C   6.0000    0    12.011    0.764335    3.676378    0.751192
   6 C   6.0000    0    12.011    2.927799    1.976847    0.475615
   7 O   8.0000    0    15.999    5.042961    2.973914   -0.078923
   8 N   7.0000    0    14.007    2.899525   -0.665474    0.768203
   9 C   6.0000    0    12.011    5.232946   -2.032225    0.414638
  10 C   6.0000    0    12.011    6.287899   -1.687472   -2.162457
  11 O   8.0000    0    15.999    5.193117   -0.319507   -3.821460
  12 O   8.0000    0    15.999    8.539770   -2.929239   -2.697500
  13 H   1.0000    0     1.008   -7.215868   -3.582698   -0.562754
  14 H   1.0000    0     1.008   -7.625688   -1.203915   -2.559349
  15 H   1.0000    0     1.008   -4.887357   -2.838333   -2.635519
  16 H   1.0000    0     1.008   -4.902072   -1.368606    2.243542
  17 H   1.0000    0     1.008   -6.658105    1.145984    0.846541
  18 H   1.0000    0     1.008   -2.554684    2.966118    3.035060
  19 H   1.0000    0     1.008    0.683957    4.842973   -1.023253
  20 H   1.0000    0     1.008    1.253413    5.089626    2.243552
  21 H   1.0000    0     1.008    1.265943   -1.583875    1.233136
  22 H   1.0000    0     1.008    6.563674   -1.374685    1.910265
  23 H   1.0000    0     1.008    4.898726   -4.076125    0.743213

      -----------------------------------------------------------      
     |                   =====================                   |     
     |                           x T B                           |     
     |                   =====================                   |     
     |                         S. Grimme                         |     
     |          Mulliken Center for Theoretical Chemistry        |     
     |                    University of Bonn                     |     
      -----------------------------------------------------------      

   * xtb version 6.7.1 (edcfbbe) compiled by 'albert@albert-system' on 2024-07-22

   xtb is free software: you can redistribute it and/or modify it under
   the terms of the GNU Lesser General Public License as published by
   the Free Software Foundation, either version 3 of the License, or
   (at your option) any later version.
   
   xtb is distributed in the hope that it will be useful,
   but WITHOUT ANY WARRANTY; without even the implied warranty of
   MERCHANTABILITY or FITNESS FOR A PARTICULAR PURPOSE.  See the
   GNU Lesser General Public License for more details.
   
   Cite this work as:
   * C. Bannwarth, E. Caldeweyher, S. Ehlert, A. Hansen, P. Pracht,
     J. Seibert, S. Spicher, S. Grimme, WIREs Comput. Mol. Sci., 2020, 11,
     e01493. DOI: 10.1002/wcms.1493
   
   for GFN2-xTB:
   * C. Bannwarth, S. Ehlert and S. Grimme., J. Chem. Theory Comput., 2019,
     15, 1652-1671. DOI: 10.1021/acs.jctc.8b01176
   for GFN1-xTB:
   * S. Grimme, C. Bannwarth, P. Shushkov, J. Chem. Theory Comput., 2017,
     13, 1989-2009. DOI: 10.1021/acs.jctc.7b00118
   for GFN0-xTB:
   * P. Pracht, E. Caldeweyher, S. Ehlert, S. Grimme, ChemRxiv, 2019, preprint.
     DOI: 10.26434/chemrxiv.8326202.v1
   for GFN-FF:
   * S. Spicher and S. Grimme, Angew. Chem. Int. Ed., 2020, 59, 15665-15673.
     DOI: 10.1002/anie.202004239
   
   for ALPB and GBSA implicit solvation:
   * S. Ehlert, M. Stahn, S. Spicher, S. Grimme, J. Chem. Theory Comput.,
     2021, 17, 4250-4261. DOI: 10.1021/acs.jctc.1c00471
   
   for ddCOSMO and CPCM-X implicit solvation:
   * M. Stahn, S. Ehlert, S. Grimme, J. Phys. Chem. A,
     2023, XX, XXXX-XXXX. DOI: 10.1021/acs.jpca.3c04382
   
   for DFT-D4:
   * E. Caldeweyher, C. Bannwarth and S. Grimme, J. Chem. Phys., 2017,
     147, 034112. DOI: 10.1063/1.4993215
   * E. Caldeweyher, S. Ehlert, A. Hansen, H. Neugebauer, S. Spicher,
     C. Bannwarth and S. Grimme, J. Chem. Phys., 2019, 150, 154122.
     DOI: 10.1063/1.5090222
   * E. Caldeweyher, J.-M. Mewes, S. Ehlert and S. Grimme, Phys. Chem. Chem. Phys.
     2020, 22, 8499-8512. DOI: 10.1039/D0CP00502A
   
   for sTDA-xTB:
   * S. Grimme and C. Bannwarth, J. Chem. Phys., 2016, 145, 054103.
     DOI: 10.1063/1.4959605
   
   in the mass-spec context:
   * V. Asgeirsson, C. Bauer and S. Grimme, Chem. Sci., 2017, 8, 4879.
     DOI: 10.1039/c7sc00601b
   * J. Koopman and S. Grimme, ACS Omega 2019, 4, 12, 15120-15133.
     DOI: 10.1021/acsomega.9b02011
   
   for metadynamics refer to:
   * S. Grimme, J. Chem. Theory Comput., 2019, 155, 2847-2862
     DOI: 10.1021/acs.jctc.9b00143
   
   for SPH calculations refer to:
   * S. Spicher and S. Grimme, J. Chem. Theory Comput., 2021, 17, 1701-1714
     DOI: 10.1021/acs.jctc.0c01306
   
   for ONIOM refer to:
   * C. Plett, A. Katbashev, S. Ehlert, S. Grimme, M. Bursch,
     Phys. Chem. Chem. Phys., 2023, 25, 17860-17868. DOI: 10.1039/D3CP02178E
   
   for DIPRO refer to:
   * J. Kohn, N. Gildemeister, S. Grimme, D. Fazzi, A. Hansen,
     J. Chem. Phys., 2023, just accepted.
   
   for PTB refer to:
   * S. Grimme, M. Mueller, A. Hansen, J. Chem. Phys., 2023, 158, 124111.
     DOI: 10.1063/5.0137838
   
   with help from (in alphabetical order)
   P. Atkinson, C. Bannwarth, F. Bohle, G. Brandenburg, E. Caldeweyher
   M. Checinski, S. Dohm, S. Ehlert, S. Ehrlich, I. Gerasimov, C. Hölzer
   A. Katbashev, J. Kohn, J. Koopman, C. Lavigne, S. Lehtola, F. März, M. Müller,
   F. Musil, H. Neugebauer, J. Pisarek, C. Plett, P. Pracht, F. Pultar,
   J. Seibert, P. Shushkov, S. Spicher, M. Stahn, M. Steiner, T. Strunk,
   J. Stückrath, T. Rose, and J. Unsleber
   
 * started run on 2026/04/11 at 17:16:35.437     
   ID    Z sym.   atoms
    1    7 N      1, 5, 9
    2    6 C      2, 3, 6, 7, 10, 11
    3    8 O      4, 8, 12, 13
    4    1 H      14-24

           -------------------------------------------------
          |                Calculation Setup                |
           -------------------------------------------------

          program call               : /home/analima/Programs/orca-6.1.0-f.0_linux_x86-64/bin/otool_xtb geo_opt_XTB.xyz --grad -c 0 -u 0 -P 1 --namespace geo_opt --input geo_opt_XTB.input.tmp --alpb WATER --acc 0.200000
          calculation namespace      : geo_opt
          coordinate file            : geo_opt_XTB.xyz
          omp threads                :                     1


           -------------------------------------------------
          |                 G F N 2 - x T B                 |
           -------------------------------------------------

        Reference                      10.1021/acs.jctc.8b01176
      * Hamiltonian:
        H0-scaling (s, p, d)           1.850000    2.230000    2.230000
        zeta-weighting                 0.500000
      * Dispersion:
        s8                             2.700000
        a1                             0.520000
        a2                             5.000000
        s9                             5.000000
      * Repulsion:
        kExp                           1.500000    1.000000
        rExp                           1.000000
      * Coulomb:
        alpha                          2.000000
        third order                    shell-resolved
        anisotropic                    true
        a3                             3.000000
        a5                             4.000000
        cn-shift                       1.200000
        cn-exp                         4.000000
        max-rad                        5.000000

      * Solvation model:               ALPB
        Solvent                        WATER
        Parameter file                 internal GFN2-xTB/ALPB
        Dielectric constant                8.0200E+01
        Reference state                gsolv [1 M gas/solution]
        Free energy shift                  1.0808E-03 Eh       6.7819E-01 kcal/mol
        Temperature                        2.9815E+02 K
        Density                            1.0000E+00 kg/L
        Solvent mass                       1.8000E+01 g/mol
        Interaction kernel             P16
        Born radius scaling (c1)           1.4744E+00
        Born radii integrator          GBOBC
        Born offset                        0.0000E+00 a0       0.0000E+00 AA
        H-bond correction              true
        Ion screening                  false
        Surface tension                    1.0000E-05 Eh       1.5569E+01 dyn/cm
        Grid points                               230 per atom

          ...................................................
          :                      SETUP                      :
          :.................................................:
          :  # basis functions                  63          :
          :  # atomic orbitals                  63          :
          :  # shells                           37          :
          :  # electrons                        74          :
          :  max. iterations                   250          :
          :  Hamiltonian                  GFN2-xTB          :
          :  restarted?                      false          :
          :  GBSA solvation                   true          :
          :  PC potential                    false          :
          :  electronic temp.          300.0000000     K    :
          :  accuracy                    0.2000000          :
          :  -> integral cutoff          0.3198970E+02      :
          :  -> integral neglect         0.2000000E-08      :
          :  -> SCF convergence          0.2000000E-06 Eh   :
          :  -> wf. convergence          0.2000000E-04 e    :
          :  Broyden damping             0.4000000          :
          :  net charge                          0          :
          :  unpaired electrons                  0          :
          ...................................................

 iter      E             dE          RMSdq      gap      omega  full diag
   1    -43.6173008 -0.436173E+02  0.546E+00    2.94       0.0  T
   2    -43.8135323 -0.196232E+00  0.256E+00    3.91       1.0  T
   3    -43.8210861 -0.755379E-02  0.137E+00    3.59       1.0  T
   4    -43.8219043 -0.818234E-03  0.406E-01    2.84       1.0  T
   5    -43.8236856 -0.178130E-02  0.162E-01    2.86       1.0  T
   6    -43.8237491 -0.634777E-04  0.751E-02    2.88       1.0  T
   7    -43.8237571 -0.795722E-05  0.158E-02    2.92       1.3  T
   8    -43.8237575 -0.420830E-06  0.706E-03    2.92       2.9  T
   9    -43.8237575 -0.507700E-07  0.258E-03    2.92       7.9  T
  10    -43.8237576 -0.549549E-07  0.697E-04    2.92      29.3  T
  11    -43.8237576 -0.212177E-08  0.295E-04    2.92      69.2  T
  12    -43.8237576 -0.120380E-09  0.971E-05    2.92     210.1  T
  13    -43.8237576 -0.245635E-10  0.264E-05    2.92     773.8  T

   *** convergence criteria satisfied after 13 iterations ***

         #    Occupation            Energy/Eh            Energy/eV
      -------------------------------------------------------------
         1        2.0000           -0.7264731             -19.7683
       ...           ...                  ...                  ...
        31        2.0000           -0.4247273             -11.5574
        32        2.0000           -0.4242114             -11.5434
        33        2.0000           -0.4087236             -11.1219
        34        2.0000           -0.3937762             -10.7152
        35        2.0000           -0.3779064             -10.2834
        36        2.0000           -0.3709175             -10.0932
        37        2.0000           -0.3589879              -9.7686 (HOMO)
        38                         -0.2515791              -6.8458 (LUMO)
        39                         -0.2294728              -6.2443
        40                         -0.2027746              -5.5178
        41                         -0.0744723              -2.0265
        42                         -0.0411679              -1.1202
       ...                                ...                  ...
        63                          0.4892573              13.3134
      -------------------------------------------------------------
                  HL-Gap            0.1074087 Eh            2.9227 eV
             Fermi-level           -0.3052835 Eh           -8.3072 eV

 SCC (total)                   0 d,  0 h,  0 min,  0.013 sec
 SCC setup                      ...        0 min,  0.000 sec (  2.284%)
 Dispersion                     ...        0 min,  0.000 sec (  0.582%)
 classical contributions        ...        0 min,  0.000 sec (  0.119%)
 integral evaluation            ...        0 min,  0.001 sec (  9.006%)
 iterations                     ...        0 min,  0.008 sec ( 62.048%)
 molecular gradient             ...        0 min,  0.003 sec ( 25.553%)
 printout                       ...        0 min,  0.000 sec (  0.365%)

         :::::::::::::::::::::::::::::::::::::::::::::::::::::
         ::                     SUMMARY                     ::
         :::::::::::::::::::::::::::::::::::::::::::::::::::::
         :: total energy             -43.470363989333 Eh    ::
         :: total w/o Gsasa/hb       -43.455984353833 Eh    ::
         :: gradient norm              0.242262512545 Eh/a0 ::
         :: HOMO-LUMO gap              2.922740597044 eV    ::
         ::.................................................::
         :: SCC energy               -43.823650389909 Eh    ::
         :: -> isotropic ES            0.445006487848 Eh    ::
         :: -> anisotropic ES         -0.016393610407 Eh    ::
         :: -> anisotropic XC          0.013503931117 Eh    ::
         :: -> dispersion             -0.018402138720 Eh    ::
         :: -> Gsolv                  -0.222110323242 Eh    ::
         ::    -> Gelec               -0.207730687741 Eh    ::
         ::    -> Gsasa                0.005602903135 Eh    ::
         ::    -> Ghb                 -0.021063298334 Eh    ::
         ::    -> Gshift               0.001080759698 Eh    ::
         :: repulsion energy           0.353286400576 Eh    ::
         :: add. restraining           0.000000000000 Eh    ::
         :: total charge               0.000000000000 e     ::
         :::::::::::::::::::::::::::::::::::::::::::::::::::::


Property printout bound to 'properties.out'

           -------------------------------------------------
          | TOTAL ENERGY              -43.470363989333 Eh   |
          | GRADIENT NORM               0.242262512545 Eh/α |
          | HOMO-LUMO GAP               2.922740597044 eV   |
           -------------------------------------------------

------------------------------------------------------------------------
 * finished run on 2026/04/11 at 17:16:35.456     
------------------------------------------------------------------------
 total:
 * wall-time:     0 d,  0 h,  0 min,  0.019 sec
 *  cpu-time:     0 d,  0 h,  0 min,  0.018 sec
 * ratio c/w:     0.906 speedup
 SCF:
 * wall-time:     0 d,  0 h,  0 min,  0.013 sec
 *  cpu-time:     0 d,  0 h,  0 min,  0.012 sec
 * ratio c/w:     0.872 speedup


-------------------------   --------------------
FINAL SINGLE POINT ENERGY       -43.470363989330
-------------------------   --------------------


-------------
DIPOLE MOMENT
-------------
                                X             Y             Z
Total Dipole Moment    :    -15.84000      -0.72700       4.84300
                        -----------------------------------------
Magnitude (a.u.)       :     16.57977
Magnitude (Debye)      :     42.14243


------------------
CARTESIAN GRADIENT
------------------

   1   N   :    0.051557142    0.026984051    0.020925652
   2   C   :   -0.006693467   -0.009921667   -0.041186057
   3   C   :   -0.044835171   -0.026225796    0.016394055
   4   O   :    0.013037769   -0.015777964   -0.040716758
   5   N   :    0.055038687    0.037538270    0.006313620
   6   C   :    0.016218222   -0.027014223   -0.003649821
   7   C   :   -0.078240543    0.039008313    0.019003548
   8   O   :    0.038958343    0.012291037   -0.018485608
   9   N   :    0.019707263   -0.048248234   -0.005298147
  10   C   :    0.011990361    0.011017727   -0.029501745
  11   C   :   -0.077340709    0.012279247    0.077455193
  12   O   :   -0.019044289    0.033492465   -0.033229904
  13   O   :    0.087839557   -0.045668859   -0.026161943
  14   H   :   -0.013905587   -0.014185890    0.008250422
  15   H   :   -0.019248746    0.006750583   -0.007507277
  16   H   :   -0.005459202   -0.007506686   -0.004102940
  17   H   :    0.002982415   -0.006149372    0.008856436
  18   H   :   -0.004979653    0.002678442    0.001230412
  19   H   :   -0.018223268    0.007869764    0.031088437
  20   H   :    0.000473961    0.011221848   -0.008002624
  21   H   :    0.003083525    0.011225803    0.007016118
  22   H   :   -0.010966868   -0.005101422    0.005472172
  23   H   :   -0.000798423    0.003310025    0.013135993
  24   H   :   -0.001151320   -0.009867463    0.002700767

Difference to translation invariance:
           :   -0.0000000000   -0.0000000000    0.0000000000

Difference to rotation invariance:
           :   -0.0005259783    0.0003224462   -0.0004683275

Norm of the Cartesian gradient     ...    0.2422625125
RMS gradient                       ...    0.0285509109
MAX gradient                       ...    0.0878395569
------------------------------------------------------------------------------
                         ORCA GEOMETRY RELAXATION STEP
------------------------------------------------------------------------------

Reading the OPT-File                    .... done
Getting information on internals        .... done
Copying old internal coords+grads       .... done
Making the new internal coordinates     .... (2022 redundants) done
Validating the new internal coordinates .... (2022 redundants) done
Calculating the B-matrix                .... done
Calculating the G,G- and P matrices     .... done
Transforming gradient to internals      .... done
Projecting the internal gradient        .... done
Number of atoms                         ....  24
Number of internal coordinates          .... 102
Current Energy                          ....   -43.470363989 Eh
Current gradient norm                   ....     0.242262513 Eh/bohr
Maximum allowed component of the step   ....  0.300
Current trust radius                    ....  0.300
Evaluating the initial hessian          ....  (Almloef) done
Projecting the Hessian                  .... done
Forming the augmented Hessian           .... done
Diagonalizing the augmented Hessian     .... done
Last element of RFO vector              ....  0.929731865
Lowest eigenvalues of augmented Hessian:
 -0.057236748  0.012418537  0.014349771  0.014754750  0.015850413
Length of the computed step             ....  0.396068208
Warning: the length of the step is outside the trust region - taking restricted step instead
The input lambda is                     ....     0.011399
   iter:   5  x=   -0.015183  g=   65.165324 f(x)=     0.731370
   iter:  10  x=   -0.128981  g=    0.519761 f(x)=     0.004324
The output lambda is                    ....    -0.129466 (14 iterations)
The final length of the internal step   ....  0.300000000
Converting the step to Cartesian space:
 Initial RMS(Int)=    0.0297044263
Transforming coordinates:
 Iter   0:  RMS(Cart)=    0.0769402540 RMS(Int)=    0.8782594715
 Iter   5:  RMS(Cart)=    0.0000000780 RMS(Int)=    0.0000000503
done
Storing new coordinates                 .... done

                                .--------------------.
          ----------------------|Geometry convergence|-------------------------
          Item                value                   Tolerance       Converged
          ---------------------------------------------------------------------
          RMS gradient        0.0175048570            0.0001000000      NO
          MAX gradient        0.1022245036            0.0003000000      NO
          RMS step            0.0297044263            0.0020000000      NO
          MAX step            0.1483316070            0.0040000000      NO
          -------------------------------------------------------------------------
          ........................................................
          Max(Bonds)      0.0785      Max(Angles)    2.78
          Max(Dihed)        2.70      Max(Improp)    0.00
          ---------------------------------------------------------------------

The optimization has not yet converged - more geometry cycles are needed


    ---------------------------------------------------------------------------
                         Redundant Internal Coordinates
                            (Angstroem and degrees)

        Definition                    Value    dE/dq     Step     New-Value
    ----------------------------------------------------------------------------
     1. B(C   1,N   0)                1.4298 -0.025136  0.0219    1.4517   
     2. B(C   2,C   1)                1.5046 -0.008007  0.0082    1.5128   
     3. B(O   3,C   2)                1.2571  0.045163 -0.0229    1.2342   
     4. B(N   4,C   2)                1.4217  0.063795 -0.0538    1.3679   
     5. B(C   5,N   4)                1.4248 -0.009120  0.0078    1.4326   
     6. B(C   6,C   5)                1.4631 -0.024795  0.0216    1.4848   
     7. B(O   7,C   6)                1.2717  0.043651 -0.0232    1.2485   
     8. B(N   8,C   6)                1.4069  0.048851 -0.0394    1.3674   
     9. B(C   9,N   8)                1.4432 -0.001584  0.0014    1.4446   
    10. B(C  10,C   9)                1.4848 -0.019783  0.0184    1.5032   
    11. B(O  11,C  10)                1.2769  0.050480 -0.0273    1.2495   
    12. B(O  12,C  10)                1.3900  0.102225 -0.0785    1.3115   
    13. B(H  13,N   0)                1.0634  0.021157 -0.0231    1.0404   
    14. B(H  14,N   0)                1.0630  0.020696 -0.0225    1.0404   
    15. B(H  15,N   0)                1.0336  0.002028 -0.0021    1.0315   
    16. B(H  15,O   3)                2.2429  0.001235 -0.0061    2.2367   
    17. B(H  16,C   1)                1.1169  0.011090 -0.0129    1.1040   
    18. B(H  17,C   1)                1.1006  0.005485 -0.0061    1.0945   
    19. B(H  18,N   4)                1.0637  0.036879 -0.0403    1.0234   
    20. B(H  19,C   5)                1.1246  0.012817 -0.0152    1.1094   
    21. B(H  20,C   5)                1.1180  0.013183 -0.0154    1.1027   
    22. B(H  21,N   8)                1.0218  0.013023 -0.0127    1.0091   
    23. B(H  22,C   9)                1.1151  0.009852 -0.0114    1.1037   
    24. B(H  23,C   9)                1.1097  0.010222 -0.0116    1.0980   
    25. A(H  14,N   0,H  15)          107.24 -0.001682   -0.08    107.15   
    26. A(H  13,N   0,H  15)          107.94 -0.004011    0.38    108.32   
    27. A(C   1,N   0,H  13)          111.05 -0.003136    0.49    111.54   
    28. A(C   1,N   0,H  14)          111.05 -0.002723    0.35    111.40   
    29. A(H  13,N   0,H  14)          102.44 -0.004143    1.02    103.46   
    30. A(C   1,N   0,H  15)          116.16  0.013509   -1.82    114.34   
    31. A(N   0,C   1,H  17)          111.21 -0.003193    0.20    111.41   
    32. A(N   0,C   1,C   2)          111.66  0.008770   -0.89    110.77   
    33. A(C   2,C   1,H  16)          105.77 -0.003321    0.48    106.25   
    34. A(N   0,C   1,H  16)          110.02 -0.003830    0.52    110.54   
    35. A(C   2,C   1,H  17)          110.87  0.001702   -0.33    110.54   
    36. A(H  16,C   1,H  17)          107.07 -0.000602    0.08    107.15   
    37. A(C   1,C   2,N   4)          118.12  0.009841   -1.10    117.02   
    38. A(C   1,C   2,O   3)          118.18 -0.013108    1.43    119.61   
    39. A(O   3,C   2,N   4)          123.71  0.003267   -0.33    123.37   
    40. A(C   2,N   4,H  18)          117.66  0.000825   -0.09    117.58   
    41. A(C   2,N   4,C   5)          122.13 -0.003234    0.37    122.50   
    42. A(C   5,N   4,H  18)          120.21  0.002409   -0.28    119.93   
    43. A(N   4,C   5,H  20)          109.88  0.003546   -0.48    109.39   
    44. A(C   6,C   5,H  19)          106.49  0.002232   -0.21    106.27   
    45. A(N   4,C   5,H  19)          112.19  0.003726   -0.45    111.74   
    46. A(N   4,C   5,C   6)          116.51 -0.008293    0.88    117.39   
    47. A(H  19,C   5,H  20)          103.38 -0.004723    0.78    104.16   
    48. A(C   6,C   5,H  20)          107.48  0.003852   -0.51    106.97   
    49. A(C   5,C   6,O   7)          117.17 -0.006654    0.74    117.91   
    50. A(O   7,C   6,N   8)          116.56 -0.019692    2.04    118.60   
    51. A(C   5,C   6,N   8)          126.27  0.026352   -2.78    123.49   
    52. A(C   6,N   8,C   9)          118.34 -0.012360    1.40    119.74   
    53. A(C   9,N   8,H  21)          121.11  0.007048   -0.81    120.30   
    54. A(C   6,N   8,H  21)          120.55  0.005307   -0.59    119.96   
    55. A(H  22,C   9,H  23)          107.07 -0.000968   -0.05    107.02   
    56. A(N   8,C   9,C  10)          112.28 -0.010707    1.32    113.60   
    57. A(C  10,C   9,H  23)          108.88  0.005582   -0.83    108.05   
    58. A(N   8,C   9,H  23)          109.38  0.001583   -0.17    109.21   
    59. A(C  10,C   9,H  22)          112.09  0.007049   -0.90    111.19   
    60. A(N   8,C   9,H  22)          106.97 -0.002297    0.61    107.58   
    61. A(O  11,C  10,O  12)          121.13 -0.005868    0.61    121.74   
    62. A(C   9,C  10,O  12)          116.83  0.009762   -1.03    115.80   
    63. A(C   9,C  10,O  11)          122.04 -0.003895    0.42    122.47   
    64. D(H  16,C   1,N   0,H  15)    -94.90  0.001355   -0.28    -95.18   
    65. D(C   2,C   1,N   0,H  15)     22.22  0.000193    0.10     22.32   
    66. D(H  16,C   1,N   0,H  13)     28.93  0.003914   -0.79     28.14   
    67. D(H  16,C   1,N   0,H  14)    142.23 -0.004570    0.94    143.17   
    68. D(C   2,C   1,N   0,H  14)   -100.65 -0.005731    1.33    -99.32   
    69. D(C   2,C   1,N   0,H  13)    146.05  0.002752   -0.41    145.65   
    70. D(N   4,C   2,C   1,H  16)    -60.34  0.000244   -0.18    -60.52   
    71. D(N   4,C   2,C   1,N   0)   -180.00  0.002092   -0.62   -180.62   
    72. D(O   3,C   2,C   1,H  17)   -124.61 -0.001422    0.11   -124.50   
    73. D(O   3,C   2,C   1,N   0)      0.00  0.002148   -0.52     -0.52   
    74. D(O   3,C   2,C   1,H  16)    119.66  0.000299   -0.09    119.57   
    75. D(H  18,N   4,C   2,C   1)     -0.28  0.001006   -0.30     -0.59   
    76. D(C   5,N   4,C   2,O   3)     -0.28 -0.000333    0.04     -0.24   
    77. D(H  18,N   4,C   2,O   3)    179.72  0.000947   -0.40    179.31   
    78. D(C   5,N   4,C   2,C   1)    179.72 -0.000274    0.15    179.86   
    79. D(H  20,C   5,N   4,C   2)    175.71  0.000907   -0.51    175.20   
    80. D(H  19,C   5,N   4,H  18)   -118.69  0.001052   -0.45   -119.14   
    81. D(H  19,C   5,N   4,C   2)     61.31  0.002363   -0.91     60.40   
    82. D(C   6,C   5,N   4,H  18)    118.21  0.001495   -0.48    117.74   
    83. D(C   6,C   5,N   4,C   2)    -61.79  0.002806   -0.94    -62.72   
    84. D(N   8,C   6,C   5,H  19)   -127.37  0.002643   -1.14   -128.50   
    85. D(N   8,C   6,C   5,N   4)     -1.36  0.003428   -1.28     -2.64   
    86. D(O   7,C   6,C   5,H  20)    -57.54 -0.000123    0.33    -57.20   
    87. D(O   7,C   6,C   5,H  19)     52.72 -0.002822    0.90     53.62   
    88. D(O   7,C   6,C   5,N   4)    178.72 -0.002037    0.76    179.48   
    89. D(H  21,N   8,C   6,O   7)    179.31  0.006539   -2.43    176.88   
    90. D(H  21,N   8,C   6,C   5)     -0.61  0.001094   -0.40     -1.01   
    91. D(C   9,N   8,C   6,O   7)     -0.22  0.007121   -2.70     -2.92   
    92. D(C   9,N   8,C   6,C   5)    179.87  0.001675   -0.68    179.19   
    93. D(C  10,C   9,N   8,H  21)    120.47  0.005572   -2.28    118.19   
    94. D(C  10,C   9,N   8,C   6)    -60.00  0.004978   -2.01    -62.01   
    95. D(H  23,C   9,N   8,C   6)    179.01  0.003856   -1.71    177.31   
    96. D(H  22,C   9,N   8,H  21)   -116.16  0.006018   -2.16   -118.32   
    97. D(H  22,C   9,N   8,C   6)     63.37  0.005423   -1.88     61.49   
    98. D(O  12,C  10,C   9,H  22)     59.55  0.002151   -0.29     59.26   
    99. D(O  12,C  10,C   9,N   8)    180.00 -0.003409    0.79    180.79   
   100. D(O  11,C  10,C   9,H  23)    121.27  0.001729   -1.32    119.95   
   101. D(O  11,C  10,C   9,H  22)   -120.45  0.008407   -2.47   -122.92   
   102. D(O  11,C  10,C   9,N   8)     -0.00  0.002847   -1.39     -1.39   
    ----------------------------------------------------------------------------

Geometry step timings:
Preparation and reading OPT file:      0.000 s ( 0.661 %)
Internal coordinates            :      0.000 s ( 0.661 %)
B/P matrices and projection     :      0.001 s (29.163 %)
Hessian update/contruction      :      0.000 s ( 9.295 %)
Making the step                 :      0.001 s (48.767 %)
Converting the step to Cartesian:      0.000 s ( 2.599 %)
Storing new data                :      0.000 s ( 0.749 %)
Checking convergence            :      0.000 s ( 0.617 %)
Final printing                  :      0.000 s ( 7.489 %)
Total time                      :      0.002 s

Time for energy+gradient        :      0.022 s
Time for complete geometry iter :      0.025 s

         *************************************************************
         *                GEOMETRY OPTIMIZATION CYCLE   2            *
         *************************************************************
---------------------------------
CARTESIAN COORDINATES (ANGSTROEM)
---------------------------------
  N    -3.277542   -1.090972   -0.771289
  C    -2.770086   -0.194992    0.252054
  C    -1.454767    0.417813   -0.175599
  O    -0.967019    0.114071   -1.267844
  N    -0.867305    1.296653    0.692591
  C     0.379342    1.942550    0.407926
  C     1.575911    1.078026    0.248748
  O     2.665465    1.630254   -0.009414
  N     1.552621   -0.279564    0.410913
  C     2.762675   -1.045021    0.219163
  C     3.316074   -0.956448   -1.175633
  O     2.755039   -0.300637   -2.079226
  O     4.406683   -1.648838   -1.401670
  H    -3.779303   -1.901461   -0.354516
  H    -4.005680   -0.628823   -1.353262
  H    -2.557261   -1.451905   -1.415462
  H    -2.564152   -0.749058    1.184518
  H    -3.496899    0.586549    0.494878
  H    -1.355092    1.492722    1.570672
  H     0.320302    2.563621   -0.509400
  H     0.608539    2.665266    1.208544
  H     0.692821   -0.741864    0.666444
  H     3.499320   -0.696216    0.963327
  H     2.560312   -2.101724    0.438379

----------------------------
CARTESIAN COORDINATES (A.U.)
----------------------------
  NO LB    ZA    FRAG    MASS        X           Y           Z
   0 N   7.0000    0    14.007   -6.193657   -2.061639   -1.457525
   1 C   6.0000    0    12.011   -5.234704   -0.368482    0.476313
   2 C   6.0000    0    12.011   -2.749111    0.789553   -0.331834
   3 O   8.0000    0    15.999   -1.827401    0.215564   -2.395878
   4 N   7.0000    0    14.007   -1.638968    2.450319    1.308806
   5 C   6.0000    0    12.011    0.716853    3.670887    0.770869
   6 C   6.0000    0    12.011    2.978040    2.037174    0.470065
   7 O   8.0000    0    15.999    5.036998    3.080733   -0.017790
   8 N   7.0000    0    14.007    2.934029   -0.528300    0.776513
   9 C   6.0000    0    12.011    5.220699   -1.974803    0.414158
  10 C   6.0000    0    12.011    6.266472   -1.807426   -2.221625
  11 O   8.0000    0    15.999    5.206270   -0.568122   -3.929167
  12 O   8.0000    0    15.999    8.327423   -3.115853   -2.648773
  13 H   1.0000    0     1.008   -7.141848   -3.593241   -0.669938
  14 H   1.0000    0     1.008   -7.569639   -1.188304   -2.557295
  15 H   1.0000    0     1.008   -4.832522   -2.743702   -2.674835
  16 H   1.0000    0     1.008   -4.845545   -1.415515    2.238414
  17 H   1.0000    0     1.008   -6.608181    1.108417    0.935184
  18 H   1.0000    0     1.008   -2.560752    2.820836    2.968140
  19 H   1.0000    0     1.008    0.605284    4.844541   -0.962626
  20 H   1.0000    0     1.008    1.149973    5.036623    2.283818
  21 H   1.0000    0     1.008    1.309242   -1.401920    1.259396
  22 H   1.0000    0     1.008    6.612757   -1.315658    1.820425
  23 H   1.0000    0     1.008    4.838289   -3.971683    0.828416

      -----------------------------------------------------------      
     |                   =====================                   |     
     |                           x T B                           |     
     |                   =====================                   |     
     |                         S. Grimme                         |     
     |          Mulliken Center for Theoretical Chemistry        |     
     |                    University of Bonn                     |     
      -----------------------------------------------------------      

   * xtb version 6.7.1 (edcfbbe) compiled by 'albert@albert-system' on 2024-07-22

   xtb is free software: you can redistribute it and/or modify it under
   the terms of the GNU Lesser General Public License as published by
   the Free Software Foundation, either version 3 of the License, or
   (at your option) any later version.
   
   xtb is distributed in the hope that it will be useful,
   but WITHOUT ANY WARRANTY; without even the implied warranty of
   MERCHANTABILITY or FITNESS FOR A PARTICULAR PURPOSE.  See the
   GNU Lesser General Public License for more details.
   
   Cite this work as:
   * C. Bannwarth, E. Caldeweyher, S. Ehlert, A. Hansen, P. Pracht,
     J. Seibert, S. Spicher, S. Grimme, WIREs Comput. Mol. Sci., 2020, 11,
     e01493. DOI: 10.1002/wcms.1493
   
   for GFN2-xTB:
   * C. Bannwarth, S. Ehlert and S. Grimme., J. Chem. Theory Comput., 2019,
     15, 1652-1671. DOI: 10.1021/acs.jctc.8b01176
   for GFN1-xTB:
   * S. Grimme, C. Bannwarth, P. Shushkov, J. Chem. Theory Comput., 2017,
     13, 1989-2009. DOI: 10.1021/acs.jctc.7b00118
   for GFN0-xTB:
   * P. Pracht, E. Caldeweyher, S. Ehlert, S. Grimme, ChemRxiv, 2019, preprint.
     DOI: 10.26434/chemrxiv.8326202.v1
   for GFN-FF:
   * S. Spicher and S. Grimme, Angew. Chem. Int. Ed., 2020, 59, 15665-15673.
     DOI: 10.1002/anie.202004239
   
   for ALPB and GBSA implicit solvation:
   * S. Ehlert, M. Stahn, S. Spicher, S. Grimme, J. Chem. Theory Comput.,
     2021, 17, 4250-4261. DOI: 10.1021/acs.jctc.1c00471
   
   for ddCOSMO and CPCM-X implicit solvation:
   * M. Stahn, S. Ehlert, S. Grimme, J. Phys. Chem. A,
     2023, XX, XXXX-XXXX. DOI: 10.1021/acs.jpca.3c04382
   
   for DFT-D4:
   * E. Caldeweyher, C. Bannwarth and S. Grimme, J. Chem. Phys., 2017,
     147, 034112. DOI: 10.1063/1.4993215
   * E. Caldeweyher, S. Ehlert, A. Hansen, H. Neugebauer, S. Spicher,
     C. Bannwarth and S. Grimme, J. Chem. Phys., 2019, 150, 154122.
     DOI: 10.1063/1.5090222
   * E. Caldeweyher, J.-M. Mewes, S. Ehlert and S. Grimme, Phys. Chem. Chem. Phys.
     2020, 22, 8499-8512. DOI: 10.1039/D0CP00502A
   
   for sTDA-xTB:
   * S. Grimme and C. Bannwarth, J. Chem. Phys., 2016, 145, 054103.
     DOI: 10.1063/1.4959605
   
   in the mass-spec context:
   * V. Asgeirsson, C. Bauer and S. Grimme, Chem. Sci., 2017, 8, 4879.
     DOI: 10.1039/c7sc00601b
   * J. Koopman and S. Grimme, ACS Omega 2019, 4, 12, 15120-15133.
     DOI: 10.1021/acsomega.9b02011
   
   for metadynamics refer to:
   * S. Grimme, J. Chem. Theory Comput., 2019, 155, 2847-2862
     DOI: 10.1021/acs.jctc.9b00143
   
   for SPH calculations refer to:
   * S. Spicher and S. Grimme, J. Chem. Theory Comput., 2021, 17, 1701-1714
     DOI: 10.1021/acs.jctc.0c01306
   
   for ONIOM refer to:
   * C. Plett, A. Katbashev, S. Ehlert, S. Grimme, M. Bursch,
     Phys. Chem. Chem. Phys., 2023, 25, 17860-17868. DOI: 10.1039/D3CP02178E
   
   for DIPRO refer to:
   * J. Kohn, N. Gildemeister, S. Grimme, D. Fazzi, A. Hansen,
     J. Chem. Phys., 2023, just accepted.
   
   for PTB refer to:
   * S. Grimme, M. Mueller, A. Hansen, J. Chem. Phys., 2023, 158, 124111.
     DOI: 10.1063/5.0137838
   
   with help from (in alphabetical order)
   P. Atkinson, C. Bannwarth, F. Bohle, G. Brandenburg, E. Caldeweyher
   M. Checinski, S. Dohm, S. Ehlert, S. Ehrlich, I. Gerasimov, C. Hölzer
   A. Katbashev, J. Kohn, J. Koopman, C. Lavigne, S. Lehtola, F. März, M. Müller,
   F. Musil, H. Neugebauer, J. Pisarek, C. Plett, P. Pracht, F. Pultar,
   J. Seibert, P. Shushkov, S. Spicher, M. Stahn, M. Steiner, T. Strunk,
   J. Stückrath, T. Rose, and J. Unsleber
   
 * started run on 2026/04/11 at 17:16:35.462     
   ID    Z sym.   atoms
    1    7 N      1, 5, 9
    2    6 C      2, 3, 6, 7, 10, 11
    3    8 O      4, 8, 12, 13
    4    1 H      14-24

           -------------------------------------------------
          |                Calculation Setup                |
           -------------------------------------------------

          program call               : /home/analima/Programs/orca-6.1.0-f.0_linux_x86-64/bin/otool_xtb geo_opt_XTB.xyz --grad -c 0 -u 0 -P 1 --namespace geo_opt --input geo_opt_XTB.input.tmp --alpb WATER --acc 0.200000
          calculation namespace      : geo_opt
          coordinate file            : geo_opt_XTB.xyz
          omp threads                :                     1


           -------------------------------------------------
          |                 G F N 2 - x T B                 |
           -------------------------------------------------

        Reference                      10.1021/acs.jctc.8b01176
      * Hamiltonian:
        H0-scaling (s, p, d)           1.850000    2.230000    2.230000
        zeta-weighting                 0.500000
      * Dispersion:
        s8                             2.700000
        a1                             0.520000
        a2                             5.000000
        s9                             5.000000
      * Repulsion:
        kExp                           1.500000    1.000000
        rExp                           1.000000
      * Coulomb:
        alpha                          2.000000
        third order                    shell-resolved
        anisotropic                    true
        a3                             3.000000
        a5                             4.000000
        cn-shift                       1.200000
        cn-exp                         4.000000
        max-rad                        5.000000

      * Solvation model:               ALPB
        Solvent                        WATER
        Parameter file                 internal GFN2-xTB/ALPB
        Dielectric constant                8.0200E+01
        Reference state                gsolv [1 M gas/solution]
        Free energy shift                  1.0808E-03 Eh       6.7819E-01 kcal/mol
        Temperature                        2.9815E+02 K
        Density                            1.0000E+00 kg/L
        Solvent mass                       1.8000E+01 g/mol
        Interaction kernel             P16
        Born radius scaling (c1)           1.4744E+00
        Born radii integrator          GBOBC
        Born offset                        0.0000E+00 a0       0.0000E+00 AA
        H-bond correction              true
        Ion screening                  false
        Surface tension                    1.0000E-05 Eh       1.5569E+01 dyn/cm
        Grid points                               230 per atom
q/qsh data taken from xtbrestart
CAMM data taken from xtbrestart

          ...................................................
          :                      SETUP                      :
          :.................................................:
          :  # basis functions                  63          :
          :  # atomic orbitals                  63          :
          :  # shells                           37          :
          :  # electrons                        74          :
          :  max. iterations                   250          :
          :  Hamiltonian                  GFN2-xTB          :
          :  restarted?                       true          :
          :  GBSA solvation                   true          :
          :  PC potential                    false          :
          :  electronic temp.          300.0000000     K    :
          :  accuracy                    0.2000000          :
          :  -> integral cutoff          0.3198970E+02      :
          :  -> integral neglect         0.2000000E-08      :
          :  -> SCF convergence          0.2000000E-06 Eh   :
          :  -> wf. convergence          0.2000000E-04 e    :
          :  Broyden damping             0.4000000          :
          :  net charge                          0          :
          :  unpaired electrons                  0          :
          ...................................................

 iter      E             dE          RMSdq      gap      omega  full diag
   1    -43.9052905 -0.439053E+02  0.391E-01    3.22       0.0  T
   2    -43.9064752 -0.118472E-02  0.226E-01    3.28       1.0  T
   3    -43.9065558 -0.805766E-04  0.123E-01    3.33       1.0  T
   4    -43.9065706 -0.147688E-04  0.274E-02    3.34       1.0  T
   5    -43.9065756 -0.502806E-05  0.862E-03    3.34       2.4  T
   6    -43.9065757 -0.122897E-06  0.421E-03    3.34       4.8  T
   7    -43.9065758 -0.279718E-07  0.113E-03    3.34      18.0  T
   8    -43.9065758 -0.252837E-08  0.536E-04    3.34      38.1  T
   9    -43.9065758 -0.114503E-08  0.139E-04    3.34     147.1  T
  10    -43.9065758 -0.658460E-10  0.379E-05    3.34     539.0  T

   *** convergence criteria satisfied after 10 iterations ***

         #    Occupation            Energy/Eh            Energy/eV
      -------------------------------------------------------------
         1        2.0000           -0.7294569             -19.8495
       ...           ...                  ...                  ...
        31        2.0000           -0.4295110             -11.6876
        32        2.0000           -0.4240561             -11.5392
        33        2.0000           -0.4124126             -11.2223
        34        2.0000           -0.3943461             -10.7307
        35        2.0000           -0.3851495             -10.4805
        36        2.0000           -0.3703336             -10.0773
        37        2.0000           -0.3608721              -9.8198 (HOMO)
        38                         -0.2381164              -6.4795 (LUMO)
        39                         -0.2179153              -5.9298
        40                         -0.1822174              -4.9584
        41                         -0.0618482              -1.6830
        42                         -0.0183395              -0.4990
       ...                                ...                  ...
        63                          0.5624046              15.3038
      -------------------------------------------------------------
                  HL-Gap            0.1227557 Eh            3.3404 eV
             Fermi-level           -0.2994943 Eh           -8.1497 eV

 SCC (total)                   0 d,  0 h,  0 min,  0.012 sec
 SCC setup                      ...        0 min,  0.000 sec (  3.943%)
 Dispersion                     ...        0 min,  0.000 sec (  1.057%)
 classical contributions        ...        0 min,  0.000 sec (  0.219%)
 integral evaluation            ...        0 min,  0.002 sec ( 17.970%)
 iterations                     ...        0 min,  0.006 sec ( 47.518%)
 molecular gradient             ...        0 min,  0.004 sec ( 28.848%)
 printout                       ...        0 min,  0.000 sec (  0.357%)

         :::::::::::::::::::::::::::::::::::::::::::::::::::::
         ::                     SUMMARY                     ::
         :::::::::::::::::::::::::::::::::::::::::::::::::::::
         :: total energy             -43.506675035165 Eh    ::
         :: total w/o Gsasa/hb       -43.493029496628 Eh    ::
         :: gradient norm              0.134023975315 Eh/a0 ::
         :: HOMO-LUMO gap              3.340352448649 eV    ::
         ::.................................................::
         :: SCC energy               -43.906464723003 Eh    ::
         :: -> isotropic ES            0.427659040188 Eh    ::
         :: -> anisotropic ES         -0.015610655064 Eh    ::
         :: -> anisotropic XC          0.010341755405 Eh    ::
         :: -> dispersion             -0.018436504536 Eh    ::
         :: -> Gsolv                  -0.210991404860 Eh    ::
         ::    -> Gelec               -0.197345866323 Eh    ::
         ::    -> Gsasa                0.005672397013 Eh    ::
         ::    -> Ghb                 -0.020398695249 Eh    ::
         ::    -> Gshift               0.001080759698 Eh    ::
         :: repulsion energy           0.399789687839 Eh    ::
         :: add. restraining           0.000000000000 Eh    ::
         :: total charge               0.000000000000 e     ::
         :::::::::::::::::::::::::::::::::::::::::::::::::::::


Property printout bound to 'properties.out'

           -------------------------------------------------
          | TOTAL ENERGY              -43.506675035165 Eh   |
          | GRADIENT NORM               0.134023975315 Eh/α |
          | HOMO-LUMO GAP               3.340352448649 eV   |
           -------------------------------------------------

------------------------------------------------------------------------
 * finished run on 2026/04/11 at 17:16:35.480     
------------------------------------------------------------------------
 total:
 * wall-time:     0 d,  0 h,  0 min,  0.018 sec
 *  cpu-time:     0 d,  0 h,  0 min,  0.016 sec
 * ratio c/w:     0.908 speedup
 SCF:
 * wall-time:     0 d,  0 h,  0 min,  0.012 sec
 *  cpu-time:     0 d,  0 h,  0 min,  0.011 sec
 * ratio c/w:     0.886 speedup


-------------------------   --------------------
FINAL SINGLE POINT ENERGY       -43.506675035160
-------------------------   --------------------


-------------
DIPOLE MOMENT
-------------
                                X             Y             Z
Total Dipole Moment    :    -15.35600      -0.62800       4.72000
                        -----------------------------------------
Magnitude (a.u.)       :     16.07730
Magnitude (Debye)      :     40.86524


------------------
CARTESIAN GRADIENT
------------------

   1   N   :    0.030113533    0.013905684    0.009653248
   2   C   :   -0.002927661   -0.002213705   -0.023678019
   3   C   :   -0.022529854   -0.015589258    0.010552949
   4   O   :    0.005871714   -0.002387046   -0.011717353
   5   N   :    0.025732356    0.020179999    0.003865418
   6   C   :    0.011881223   -0.017749966   -0.003569583
   7   C   :   -0.046210864    0.022418036    0.009946128
   8   O   :    0.017114849    0.002735829   -0.007490074
   9   N   :    0.011022550   -0.027130903   -0.003749550
  10   C   :    0.012963323    0.004468840   -0.024727907
  11   C   :   -0.052746784    0.020469902    0.045387695
  12   O   :    0.002077716    0.005795822   -0.014163935
  13   O   :    0.042204482   -0.025339696   -0.016619345
  14   H   :   -0.007206774   -0.004697795    0.001453912
  15   H   :   -0.009489094    0.000159949   -0.001337179
  16   H   :   -0.006448356   -0.005996964   -0.002706757
  17   H   :    0.002226493   -0.001741484    0.004789482
  18   H   :   -0.001881265    0.000959280    0.001895807
  19   H   :   -0.007946987    0.000536107    0.008326865
  20   H   :    0.000552273    0.007432695   -0.002186558
  21   H   :    0.000933084    0.005632376    0.002006400
  22   H   :   -0.002357780    0.000897224    0.003551658
  23   H   :   -0.002903456    0.000811222    0.008475543
  24   H   :   -0.000044723   -0.003556148    0.002041154

Difference to translation invariance:
           :    0.0000000000    0.0000000000   -0.0000000000

Difference to rotation invariance:
           :   -0.0005083167    0.0003189012    0.0000979318

Norm of the Cartesian gradient     ...    0.1340239753
RMS gradient                       ...    0.0157948770
MAX gradient                       ...    0.0527467837
------------------------------------------------------------------------------
                         ORCA GEOMETRY RELAXATION STEP
------------------------------------------------------------------------------

Reading the OPT-File                    .... done
Getting information on internals        .... done
Copying old internal coords+grads       .... done
Making the new internal coordinates     .... (2022 redundants) done
Validating the new internal coordinates .... (2022 redundants) done
Calculating the B-matrix                .... done
Calculating the G,G- and P matrices     .... done
Transforming gradient to internals      .... done
Projecting the internal gradient        .... done
Number of atoms                         ....  24
Number of internal coordinates          .... 102
Current Energy                          ....   -43.506675035 Eh
Current gradient norm                   ....     0.134023975 Eh/bohr
Maximum allowed component of the step   ....  0.300
Current trust radius                    ....  0.300
Updating the Hessian (BFGS)             .... done
Forming the augmented Hessian           .... done
Diagonalizing the augmented Hessian     .... done
Last element of RFO vector              ....  0.943809485
Lowest eigenvalues of augmented Hessian:
 -0.024886101  0.012456310  0.014432536  0.014668850  0.015853312
Length of the computed step             ....  0.350166034
Warning: the length of the step is outside the trust region - taking restricted step instead
The input lambda is                     ....     0.011397
   iter:   5  x=   -0.006292  g=   35.350631 f(x)=     0.283706
   iter:  10  x=   -0.045019  g=    1.094413 f(x)=     0.000108
The output lambda is                    ....    -0.045019 (13 iterations)
The final length of the internal step   ....  0.300000000
Converting the step to Cartesian space:
 Initial RMS(Int)=    0.0297044263
Transforming coordinates:
 Iter   0:  RMS(Cart)=    0.0667615974 RMS(Int)=    0.8779187831
 Iter   5:  RMS(Cart)=    0.0000000382 RMS(Int)=    0.0000000287
done
Storing new coordinates                 .... done
The predicted energy change is          ....    -0.013420908
Previously predicted energy change      ....    -0.030273968
Actually observed energy change         ....    -0.036311046
Ratio of predicted to observed change   ....     1.199414818
New trust radius                        ....     0.450000000

                                .--------------------.
          ----------------------|Geometry convergence|-------------------------
          Item                value                   Tolerance       Converged
          ---------------------------------------------------------------------
          Energy change      -0.0363110458            0.0000050000      NO
          RMS gradient        0.0083379517            0.0001000000      NO
          MAX gradient        0.0513388396            0.0003000000      NO
          RMS step            0.0297044263            0.0020000000      NO
          MAX step            0.1416549366            0.0040000000      NO
          -------------------------------------------------------------------------
          ........................................................
          Max(Bonds)      0.0750      Max(Angles)    3.83
          Max(Dihed)        3.16      Max(Improp)    0.00
          ---------------------------------------------------------------------

The optimization has not yet converged - more geometry cycles are needed


    ---------------------------------------------------------------------------
                         Redundant Internal Coordinates
                            (Angstroem and degrees)

        Definition                    Value    dE/dq     Step     New-Value
    ----------------------------------------------------------------------------
     1. B(C   1,N   0)                1.4517 -0.011289  0.0180    1.4698   
     2. B(C   2,C   1)                1.5128 -0.008983  0.0170    1.5298   
     3. B(O   3,C   2)                1.2342  0.013153 -0.0132    1.2210   
     4. B(N   4,C   2)                1.3679  0.023634 -0.0370    1.3310   
     5. B(C   5,N   4)                1.4326 -0.005996  0.0098    1.4424   
     6. B(C   6,C   5)                1.4848 -0.016413  0.0274    1.5122   
     7. B(O   7,C   6)                1.2485  0.017693 -0.0183    1.2302   
     8. B(N   8,C   6)                1.3674  0.023264 -0.0355    1.3319   
     9. B(C   9,N   8)                1.4446 -0.000158  0.0002    1.4448   
    10. B(C  10,C   9)                1.5032 -0.016609  0.0299    1.5331   
    11. B(O  11,C  10)                1.2495  0.012354 -0.0132    1.2364   
    12. B(O  12,C  10)                1.3115  0.051339 -0.0750    1.2365   
    13. B(H  13,N   0)                1.0404  0.007712 -0.0149    1.0255   
    14. B(H  14,N   0)                1.0404  0.007466 -0.0144    1.0261   
    15. B(H  15,N   0)                1.0315 -0.000189  0.0007    1.0322   
    16. B(H  15,O   3)                2.2367  0.002482 -0.0279    2.2089   
    17. B(H  16,C   1)                1.1040  0.005332 -0.0114    1.0927   
    18. B(H  17,C   1)                1.0945  0.002354 -0.0047    1.0898   
    19. B(H  18,N   4)                1.0234  0.011038 -0.0204    1.0030   
    20. B(H  19,C   5)                1.1094  0.005932 -0.0128    1.0966   
    21. B(H  20,C   5)                1.1027  0.005347 -0.0111    1.0916   
    22. B(H  21,N   8)                1.0091  0.002499 -0.0039    1.0052   
    23. B(H  22,C   9)                1.1037  0.004031 -0.0083    1.0954   
    24. B(H  23,C   9)                1.0980  0.003840 -0.0077    1.0903   
    25. A(H  14,N   0,H  15)          107.15 -0.001939    0.06    107.21   
    26. A(H  13,N   0,H  15)          108.32 -0.003402    0.68    109.00   
    27. A(C   1,N   0,H  13)          111.53 -0.001084    0.43    111.96   
    28. A(C   1,N   0,H  14)          111.39 -0.000474    0.15    111.54   
    29. A(H  13,N   0,H  14)          103.45 -0.004764    2.10    105.55   
    30. A(C   1,N   0,H  15)          114.34  0.010094   -2.84    111.49   
    31. A(N   0,C   1,H  17)          111.40 -0.000521   -0.20    111.21   
    32. A(N   0,C   1,C   2)          110.77  0.003942   -1.02    109.76   
    33. A(C   2,C   1,H  16)          106.25 -0.002791    1.01    107.27   
    34. A(N   0,C   1,H  16)          110.54 -0.000883    0.24    110.78   
    35. A(C   2,C   1,H  17)          110.54  0.001269   -0.42    110.12   
    36. A(H  16,C   1,H  17)          107.15 -0.001303    0.51    107.66   
    37. A(C   1,C   2,N   4)          117.02  0.008722   -1.80    115.22   
    38. A(C   1,C   2,O   3)          119.61 -0.006021    1.14    120.75   
    39. A(O   3,C   2,N   4)          123.37 -0.002701    0.66    124.03   
    40. A(C   2,N   4,H  18)          117.58 -0.002055    0.57    118.15   
    41. A(C   2,N   4,C   5)          122.50 -0.002172    0.47    122.97   
    42. A(C   5,N   4,H  18)          119.92  0.004236   -1.05    118.88   
    43. A(N   4,C   5,H  20)          109.40  0.001584   -0.38    109.01   
    44. A(C   6,C   5,H  19)          106.27  0.000842   -0.20    106.07   
    45. A(N   4,C   5,H  19)          111.74  0.002688   -0.74    111.00   
    46. A(N   4,C   5,C   6)          117.39 -0.004048    0.68    118.07   
    47. A(H  19,C   5,H  20)          104.15 -0.003832    1.45    105.60   
    48. A(C   6,C   5,H  20)          106.98  0.002688   -0.69    106.28   
    49. A(C   5,C   6,O   7)          117.90 -0.003192    0.69    118.59   
    50. A(O   7,C   6,N   8)          118.59 -0.015534    3.10    121.69   
    51. A(C   5,C   6,N   8)          123.48  0.018825   -3.83    119.65   
    52. A(C   6,N   8,C   9)          119.74 -0.005451    1.14    120.87   
    53. A(C   9,N   8,H  21)          120.30  0.004551   -1.02    119.28   
    54. A(C   6,N   8,H  21)          119.96  0.000897   -0.10    119.85   
    55. A(H  22,C   9,H  23)          107.01 -0.001469    0.70    107.71   
    56. A(N   8,C   9,C  10)          113.60 -0.001972    0.24    113.84   
    57. A(C  10,C   9,H  23)          108.05  0.001763   -0.47    107.58   
    58. A(N   8,C   9,H  23)          109.21  0.000273    0.04    109.26   
    59. A(C  10,C   9,H  22)          111.18  0.005484   -1.72    109.46   
    60. A(N   8,C   9,H  22)          107.58 -0.004117    1.26    108.84   
    61. A(O  11,C  10,O  12)          121.72 -0.013647    2.76    124.48   
    62. A(C   9,C  10,O  12)          115.78  0.006007   -1.19    114.59   
    63. A(C   9,C  10,O  11)          122.45  0.007686   -1.59    120.86   
    64. D(H  16,C   1,N   0,H  15)    -95.18  0.001178   -0.47    -95.65   
    65. D(C   2,C   1,N   0,H  15)     22.32 -0.000379    0.30     22.63   
    66. D(H  16,C   1,N   0,H  13)     28.14  0.003516   -1.43     26.72   
    67. D(H  16,C   1,N   0,H  14)    143.17 -0.003349    1.50    144.67   
    68. D(C   2,C   1,N   0,H  14)    -99.32 -0.004906    2.28    -97.05   
    69. D(C   2,C   1,N   0,H  13)    145.64  0.001960   -0.65    144.99   
    70. D(N   4,C   2,C   1,H  16)    -60.52  0.000827   -0.80    -61.33   
    71. D(N   4,C   2,C   1,N   0)    179.38  0.001392   -1.15    178.23   
    72. D(O   3,C   2,C   1,H  17)   -124.50 -0.001645    0.49   -124.01   
    73. D(O   3,C   2,C   1,N   0)     -0.52  0.001376   -0.82     -1.34   
    74. D(O   3,C   2,C   1,H  16)    119.58  0.000811   -0.47    119.11   
    75. D(H  18,N   4,C   2,C   1)     -0.59  0.000940   -0.61     -1.19   
    76. D(C   5,N   4,C   2,O   3)     -0.24 -0.000375    0.11     -0.13   
    77. D(H  18,N   4,C   2,O   3)    179.31  0.000953   -0.96    178.35   
    78. D(C   5,N   4,C   2,C   1)    179.86 -0.000388    0.46    180.32   
    79. D(H  20,C   5,N   4,C   2)    175.20  0.000711   -1.53    173.67   
    80. D(H  19,C   5,N   4,H  18)   -119.14  0.001562   -1.55   -120.69   
    81. D(H  19,C   5,N   4,C   2)     60.40  0.002892   -2.64     57.76   
    82. D(C   6,C   5,N   4,H  18)    117.74  0.001326   -1.18    116.55   
    83. D(C   6,C   5,N   4,C   2)    -62.72  0.002656   -2.28    -65.00   
    84. D(N   8,C   6,C   5,H  19)   -128.50  0.000985   -0.78   -129.28   
    85. D(N   8,C   6,C   5,N   4)     -2.63  0.002340   -1.45     -4.08   
    86. D(O   7,C   6,C   5,H  20)    -57.21  0.000939   -0.66    -57.87   
    87. D(O   7,C   6,C   5,H  19)     53.61 -0.001871    0.59     54.20   
    88. D(O   7,C   6,C   5,N   4)    179.48 -0.000515   -0.07    179.40   
    89. D(H  21,N   8,C   6,O   7)    176.88  0.002984   -0.62    176.26   
    90. D(H  21,N   8,C   6,C   5)     -1.00 -0.000141    0.77     -0.23   
    91. D(C   9,N   8,C   6,O   7)     -2.93  0.004020   -2.27     -5.20   
    92. D(C   9,N   8,C   6,C   5)    179.19  0.000895   -0.88    178.32   
    93. D(C  10,C   9,N   8,H  21)    118.18  0.002550   -2.05    116.13   
    94. D(C  10,C   9,N   8,C   6)    -62.01  0.001503   -0.39    -62.41   
    95. D(H  23,C   9,N   8,C   6)    177.31  0.000366    0.02    177.33   
    96. D(H  22,C   9,N   8,H  21)   -118.31  0.005230   -3.16   -121.47   
    97. D(H  22,C   9,N   8,C   6)     61.49  0.004183   -1.50     59.99   
    98. D(O  12,C  10,C   9,H  22)     59.26  0.002213   -2.11     57.15   
    99. D(O  12,C  10,C   9,N   8)   -179.22 -0.000486   -1.55   -180.76   
   100. D(O  11,C  10,C   9,H  23)    119.94  0.000866    0.20    120.15   
   101. D(O  11,C  10,C   9,H  22)   -122.91  0.003244   -0.24   -123.15   
   102. D(O  11,C  10,C   9,N   8)     -1.39  0.000545    0.33     -1.06   
    ----------------------------------------------------------------------------

Geometry step timings:
Preparation and reading OPT file:      0.000 s ( 0.488 %)
Internal coordinates            :      0.000 s ( 0.542 %)
B/P matrices and projection     :      0.001 s (31.707 %)
Hessian update/contruction      :      0.000 s ( 7.534 %)
Making the step                 :      0.001 s (46.612 %)
Converting the step to Cartesian:      0.000 s ( 2.764 %)
Storing new data                :      0.000 s ( 0.650 %)
Checking convergence            :      0.000 s ( 0.705 %)
Final printing                  :      0.000 s ( 8.997 %)
Total time                      :      0.002 s

Time for energy+gradient        :      0.021 s
Time for complete geometry iter :      0.023 s

         *************************************************************
         *                GEOMETRY OPTIMIZATION CYCLE   3            *
         *************************************************************
---------------------------------
CARTESIAN COORDINATES (ANGSTROEM)
---------------------------------
  N    -3.293811   -1.081652   -0.783931
  C    -2.749575   -0.220763    0.275773
  C    -1.437177    0.410000   -0.193337
  O    -0.978678    0.151169   -1.294952
  N    -0.866915    1.243392    0.673703
  C     0.369156    1.934876    0.400878
  C     1.625337    1.109259    0.236386
  O     2.682706    1.688659   -0.007850
  N     1.577183   -0.208252    0.425686
  C     2.753061   -1.027137    0.240724
  C     3.300653   -1.010798   -1.191115
  O     2.739355   -0.357099   -2.077787
  O     4.316138   -1.695297   -1.361935
  H    -3.765680   -1.907985   -0.401629
  H    -4.004472   -0.591599   -1.338558
  H    -2.555992   -1.388561   -1.437238
  H    -2.526914   -0.803746    1.172713
  H    -3.460089    0.556945    0.555076
  H    -1.333684    1.411430    1.545417
  H     0.286015    2.545292   -0.506317
  H     0.569312    2.638726    1.210854
  H     0.708470   -0.645765    0.679425
  H     3.531871   -0.689788    0.933155
  H     2.513730   -2.061305    0.489703

----------------------------
CARTESIAN COORDINATES (A.U.)
----------------------------
  NO LB    ZA    FRAG    MASS        X           Y           Z
   0 N   7.0000    0    14.007   -6.224400   -2.044025   -1.481415
   1 C   6.0000    0    12.011   -5.195943   -0.417182    0.521135
   2 C   6.0000    0    12.011   -2.715870    0.774787   -0.365354
   3 O   8.0000    0    15.999   -1.849434    0.285668   -2.447104
   4 N   7.0000    0    14.007   -1.638233    2.349669    1.273114
   5 C   6.0000    0    12.011    0.697603    3.656387    0.757550
   6 C   6.0000    0    12.011    3.071442    2.096196    0.446705
   7 O   8.0000    0    15.999    5.069580    3.191102   -0.014834
   8 N   7.0000    0    14.007    2.980444   -0.393539    0.804430
   9 C   6.0000    0    12.011    5.202532   -1.941007    0.454903
  10 C   6.0000    0    12.011    6.237330   -1.910132   -2.250882
  11 O   8.0000    0    15.999    5.176631   -0.674820   -3.926449
  12 O   8.0000    0    15.999    8.156318   -3.203646   -2.573684
  13 H   1.0000    0     1.008   -7.116103   -3.605569   -0.758968
  14 H   1.0000    0     1.008   -7.567356   -1.117960   -2.529508
  15 H   1.0000    0     1.008   -4.830126   -2.624000   -2.715987
  16 H   1.0000    0     1.008   -4.775175   -1.518859    2.216106
  17 H   1.0000    0     1.008   -6.538620    1.052473    1.048942
  18 H   1.0000    0     1.008   -2.520298    2.667216    2.920414
  19 H   1.0000    0     1.008    0.540490    4.809905   -0.956801
  20 H   1.0000    0     1.008    1.075843    4.986469    2.288183
  21 H   1.0000    0     1.008    1.338815   -1.220319    1.283927
  22 H   1.0000    0     1.008    6.674269   -1.303511    1.763408
  23 H   1.0000    0     1.008    4.750262   -3.895303    0.925404

      -----------------------------------------------------------      
     |                   =====================                   |     
     |                           x T B                           |     
     |                   =====================                   |     
     |                         S. Grimme                         |     
     |          Mulliken Center for Theoretical Chemistry        |     
     |                    University of Bonn                     |     
      -----------------------------------------------------------      

   * xtb version 6.7.1 (edcfbbe) compiled by 'albert@albert-system' on 2024-07-22

   xtb is free software: you can redistribute it and/or modify it under
   the terms of the GNU Lesser General Public License as published by
   the Free Software Foundation, either version 3 of the License, or
   (at your option) any later version.
   
   xtb is distributed in the hope that it will be useful,
   but WITHOUT ANY WARRANTY; without even the implied warranty of
   MERCHANTABILITY or FITNESS FOR A PARTICULAR PURPOSE.  See the
   GNU Lesser General Public License for more details.
   
   Cite this work as:
   * C. Bannwarth, E. Caldeweyher, S. Ehlert, A. Hansen, P. Pracht,
     J. Seibert, S. Spicher, S. Grimme, WIREs Comput. Mol. Sci., 2020, 11,
     e01493. DOI: 10.1002/wcms.1493
   
   for GFN2-xTB:
   * C. Bannwarth, S. Ehlert and S. Grimme., J. Chem. Theory Comput., 2019,
     15, 1652-1671. DOI: 10.1021/acs.jctc.8b01176
   for GFN1-xTB:
   * S. Grimme, C. Bannwarth, P. Shushkov, J. Chem. Theory Comput., 2017,
     13, 1989-2009. DOI: 10.1021/acs.jctc.7b00118
   for GFN0-xTB:
   * P. Pracht, E. Caldeweyher, S. Ehlert, S. Grimme, ChemRxiv, 2019, preprint.
     DOI: 10.26434/chemrxiv.8326202.v1
   for GFN-FF:
   * S. Spicher and S. Grimme, Angew. Chem. Int. Ed., 2020, 59, 15665-15673.
     DOI: 10.1002/anie.202004239
   
   for ALPB and GBSA implicit solvation:
   * S. Ehlert, M. Stahn, S. Spicher, S. Grimme, J. Chem. Theory Comput.,
     2021, 17, 4250-4261. DOI: 10.1021/acs.jctc.1c00471
   
   for ddCOSMO and CPCM-X implicit solvation:
   * M. Stahn, S. Ehlert, S. Grimme, J. Phys. Chem. A,
     2023, XX, XXXX-XXXX. DOI: 10.1021/acs.jpca.3c04382
   
   for DFT-D4:
   * E. Caldeweyher, C. Bannwarth and S. Grimme, J. Chem. Phys., 2017,
     147, 034112. DOI: 10.1063/1.4993215
   * E. Caldeweyher, S. Ehlert, A. Hansen, H. Neugebauer, S. Spicher,
     C. Bannwarth and S. Grimme, J. Chem. Phys., 2019, 150, 154122.
     DOI: 10.1063/1.5090222
   * E. Caldeweyher, J.-M. Mewes, S. Ehlert and S. Grimme, Phys. Chem. Chem. Phys.
     2020, 22, 8499-8512. DOI: 10.1039/D0CP00502A
   
   for sTDA-xTB:
   * S. Grimme and C. Bannwarth, J. Chem. Phys., 2016, 145, 054103.
     DOI: 10.1063/1.4959605
   
   in the mass-spec context:
   * V. Asgeirsson, C. Bauer and S. Grimme, Chem. Sci., 2017, 8, 4879.
     DOI: 10.1039/c7sc00601b
   * J. Koopman and S. Grimme, ACS Omega 2019, 4, 12, 15120-15133.
     DOI: 10.1021/acsomega.9b02011
   
   for metadynamics refer to:
   * S. Grimme, J. Chem. Theory Comput., 2019, 155, 2847-2862
     DOI: 10.1021/acs.jctc.9b00143
   
   for SPH calculations refer to:
   * S. Spicher and S. Grimme, J. Chem. Theory Comput., 2021, 17, 1701-1714
     DOI: 10.1021/acs.jctc.0c01306
   
   for ONIOM refer to:
   * C. Plett, A. Katbashev, S. Ehlert, S. Grimme, M. Bursch,
     Phys. Chem. Chem. Phys., 2023, 25, 17860-17868. DOI: 10.1039/D3CP02178E
   
   for DIPRO refer to:
   * J. Kohn, N. Gildemeister, S. Grimme, D. Fazzi, A. Hansen,
     J. Chem. Phys., 2023, just accepted.
   
   for PTB refer to:
   * S. Grimme, M. Mueller, A. Hansen, J. Chem. Phys., 2023, 158, 124111.
     DOI: 10.1063/5.0137838
   
   with help from (in alphabetical order)
   P. Atkinson, C. Bannwarth, F. Bohle, G. Brandenburg, E. Caldeweyher
   M. Checinski, S. Dohm, S. Ehlert, S. Ehrlich, I. Gerasimov, C. Hölzer
   A. Katbashev, J. Kohn, J. Koopman, C. Lavigne, S. Lehtola, F. März, M. Müller,
   F. Musil, H. Neugebauer, J. Pisarek, C. Plett, P. Pracht, F. Pultar,
   J. Seibert, P. Shushkov, S. Spicher, M. Stahn, M. Steiner, T. Strunk,
   J. Stückrath, T. Rose, and J. Unsleber
   
 * started run on 2026/04/11 at 17:16:35.485     
   ID    Z sym.   atoms
    1    7 N      1, 5, 9
    2    6 C      2, 3, 6, 7, 10, 11
    3    8 O      4, 8, 12, 13
    4    1 H      14-24

           -------------------------------------------------
          |                Calculation Setup                |
           -------------------------------------------------

          program call               : /home/analima/Programs/orca-6.1.0-f.0_linux_x86-64/bin/otool_xtb geo_opt_XTB.xyz --grad -c 0 -u 0 -P 1 --namespace geo_opt --input geo_opt_XTB.input.tmp --alpb WATER --acc 0.200000
          calculation namespace      : geo_opt
          coordinate file            : geo_opt_XTB.xyz
          omp threads                :                     1


           -------------------------------------------------
          |                 G F N 2 - x T B                 |
           -------------------------------------------------

        Reference                      10.1021/acs.jctc.8b01176
      * Hamiltonian:
        H0-scaling (s, p, d)           1.850000    2.230000    2.230000
        zeta-weighting                 0.500000
      * Dispersion:
        s8                             2.700000
        a1                             0.520000
        a2                             5.000000
        s9                             5.000000
      * Repulsion:
        kExp                           1.500000    1.000000
        rExp                           1.000000
      * Coulomb:
        alpha                          2.000000
        third order                    shell-resolved
        anisotropic                    true
        a3                             3.000000
        a5                             4.000000
        cn-shift                       1.200000
        cn-exp                         4.000000
        max-rad                        5.000000

      * Solvation model:               ALPB
        Solvent                        WATER
        Parameter file                 internal GFN2-xTB/ALPB
        Dielectric constant                8.0200E+01
        Reference state                gsolv [1 M gas/solution]
        Free energy shift                  1.0808E-03 Eh       6.7819E-01 kcal/mol
        Temperature                        2.9815E+02 K
        Density                            1.0000E+00 kg/L
        Solvent mass                       1.8000E+01 g/mol
        Interaction kernel             P16
        Born radius scaling (c1)           1.4744E+00
        Born radii integrator          GBOBC
        Born offset                        0.0000E+00 a0       0.0000E+00 AA
        H-bond correction              true
        Ion screening                  false
        Surface tension                    1.0000E-05 Eh       1.5569E+01 dyn/cm
        Grid points                               230 per atom
q/qsh data taken from xtbrestart
CAMM data taken from xtbrestart

          ...................................................
          :                      SETUP                      :
          :.................................................:
          :  # basis functions                  63          :
          :  # atomic orbitals                  63          :
          :  # shells                           37          :
          :  # electrons                        74          :
          :  max. iterations                   250          :
          :  Hamiltonian                  GFN2-xTB          :
          :  restarted?                       true          :
          :  GBSA solvation                   true          :
          :  PC potential                    false          :
          :  electronic temp.          300.0000000     K    :
          :  accuracy                    0.2000000          :
          :  -> integral cutoff          0.3198970E+02      :
          :  -> integral neglect         0.2000000E-08      :
          :  -> SCF convergence          0.2000000E-06 Eh   :
          :  -> wf. convergence          0.2000000E-04 e    :
          :  Broyden damping             0.4000000          :
          :  net charge                          0          :
          :  unpaired electrons                  0          :
          ...................................................

 iter      E             dE          RMSdq      gap      omega  full diag
   1    -43.9583208 -0.439583E+02  0.371E-01    3.42       0.0  T
   2    -43.9596674 -0.134661E-02  0.195E-01    3.46       1.0  T
   3    -43.9597256 -0.582433E-04  0.107E-01    3.50       1.0  T
   4    -43.9597307 -0.511199E-05  0.301E-02    3.51       1.0  T
   5    -43.9597350 -0.427235E-05  0.671E-03    3.52       3.0  T
   6    -43.9597351 -0.828395E-07  0.341E-03    3.52       6.0  T
   7    -43.9597351 -0.147103E-07  0.865E-04    3.52      23.6  T
   8    -43.9597351 -0.299175E-08  0.488E-04    3.52      41.8  T
   9    -43.9597351 -0.427050E-09  0.851E-05    3.52     239.9  T
  10    -43.9597351 -0.200018E-10  0.273E-05    3.52     746.4  T

   *** convergence criteria satisfied after 10 iterations ***

         #    Occupation            Energy/Eh            Energy/eV
      -------------------------------------------------------------
         1        2.0000           -0.7317299             -19.9114
       ...           ...                  ...                  ...
        31        2.0000           -0.4340006             -11.8098
        32        2.0000           -0.4239686             -11.5368
        33        2.0000           -0.4159120             -11.3175
        34        2.0000           -0.3939289             -10.7193
        35        2.0000           -0.3917266             -10.6594
        36        2.0000           -0.3740789             -10.1792
        37        2.0000           -0.3581749              -9.7464 (HOMO)
        38                         -0.2288852              -6.2283 (LUMO)
        39                         -0.2060603              -5.6072
        40                         -0.1625297              -4.4227
        41                         -0.0609146              -1.6576
        42                         -0.0097500              -0.2653
       ...                                ...                  ...
        63                          0.6572133              17.8837
      -------------------------------------------------------------
                  HL-Gap            0.1292897 Eh            3.5182 eV
             Fermi-level           -0.2935300 Eh           -7.9874 eV

 SCC (total)                   0 d,  0 h,  0 min,  0.012 sec
 SCC setup                      ...        0 min,  0.000 sec (  3.836%)
 Dispersion                     ...        0 min,  0.000 sec (  1.092%)
 classical contributions        ...        0 min,  0.000 sec (  0.225%)
 integral evaluation            ...        0 min,  0.001 sec ( 10.183%)
 iterations                     ...        0 min,  0.006 sec ( 53.729%)
 molecular gradient             ...        0 min,  0.004 sec ( 30.468%)
 printout                       ...        0 min,  0.000 sec (  0.376%)

         :::::::::::::::::::::::::::::::::::::::::::::::::::::
         ::                     SUMMARY                     ::
         :::::::::::::::::::::::::::::::::::::::::::::::::::::
         :: total energy             -43.518872297259 Eh    ::
         :: total w/o Gsasa/hb       -43.505922999556 Eh    ::
         :: gradient norm              0.047661468034 Eh/a0 ::
         :: HOMO-LUMO gap              3.518152012601 eV    ::
         ::.................................................::
         :: SCC energy               -43.959619862981 Eh    ::
         :: -> isotropic ES            0.409805405119 Eh    ::
         :: -> anisotropic ES         -0.015532877719 Eh    ::
         :: -> anisotropic XC          0.008324295096 Eh    ::
         :: -> dispersion             -0.018497525054 Eh    ::
         :: -> Gsolv                  -0.200329530069 Eh    ::
         ::    -> Gelec               -0.187380232366 Eh    ::
         ::    -> Gsasa                0.005698445707 Eh    ::
         ::    -> Ghb                 -0.019728503108 Eh    ::
         ::    -> Gshift               0.001080759698 Eh    ::
         :: repulsion energy           0.440747565722 Eh    ::
         :: add. restraining           0.000000000000 Eh    ::
         :: total charge              -0.000000000000 e     ::
         :::::::::::::::::::::::::::::::::::::::::::::::::::::


Property printout bound to 'properties.out'

           -------------------------------------------------
          | TOTAL ENERGY              -43.518872297259 Eh   |
          | GRADIENT NORM               0.047661468034 Eh/α |
          | HOMO-LUMO GAP               3.518152012601 eV   |
           -------------------------------------------------

------------------------------------------------------------------------
 * finished run on 2026/04/11 at 17:16:35.505     
------------------------------------------------------------------------
 total:
 * wall-time:     0 d,  0 h,  0 min,  0.019 sec
 *  cpu-time:     0 d,  0 h,  0 min,  0.016 sec
 * ratio c/w:     0.849 speedup
 SCF:
 * wall-time:     0 d,  0 h,  0 min,  0.012 sec
 *  cpu-time:     0 d,  0 h,  0 min,  0.011 sec
 * ratio c/w:     0.873 speedup


-------------------------   --------------------
FINAL SINGLE POINT ENERGY       -43.518872297260
-------------------------   --------------------


-------------
DIPOLE MOMENT
-------------
                                X             Y             Z
Total Dipole Moment    :    -14.85100      -0.71600       4.55700
                        -----------------------------------------
Magnitude (a.u.)       :     15.55092
Magnitude (Debye)      :     39.52730


------------------
CARTESIAN GRADIENT
------------------

   1   N   :    0.010672061    0.003678203    0.001200962
   2   C   :   -0.001803637    0.001154162   -0.006220362
   3   C   :   -0.000008199   -0.001708070    0.008311886
   4   O   :    0.002029736    0.005247652    0.005906478
   5   N   :   -0.001339956    0.001366558   -0.002596270
   6   C   :    0.007073379   -0.008818555   -0.002954284
   7   C   :   -0.012753751    0.002043854    0.003939827
   8   O   :   -0.000665608   -0.005279424   -0.001479834
   9   N   :    0.003517337    0.000150382   -0.005541373
  10   C   :    0.013542095    0.000902928   -0.015755249
  11   C   :   -0.003937407   -0.005673181    0.010152107
  12   O   :    0.013159217   -0.006436391    0.002277103
  13   O   :   -0.018683114    0.014431064   -0.001139264
  14   H   :   -0.001871959    0.002167267   -0.001922189
  15   H   :   -0.001965125   -0.003339859    0.002382876
  16   H   :   -0.005172300   -0.004198674   -0.001425862
  17   H   :    0.000567315    0.001364967    0.000997698
  18   H   :    0.000035506   -0.000604806    0.001492671
  19   H   :   -0.000665200   -0.002568371   -0.006315952
  20   H   :    0.000327106    0.003143654    0.002291249
  21   H   :   -0.000096820    0.000857796   -0.001338984
  22   H   :    0.000986614    0.002628789    0.002642196
  23   H   :   -0.003311185   -0.000919410    0.004419993
  24   H   :    0.000363894    0.000409464    0.000674579

Difference to translation invariance:
           :    0.0000000000    0.0000000000   -0.0000000000

Difference to rotation invariance:
           :   -0.0002699595    0.0000998156    0.0004029199

Norm of the Cartesian gradient     ...    0.0476614680
RMS gradient                       ...    0.0056169579
MAX gradient                       ...    0.0186831135
------------------------------------------------------------------------------
                         ORCA GEOMETRY RELAXATION STEP
------------------------------------------------------------------------------

Reading the OPT-File                    .... done
Getting information on internals        .... done
Copying old internal coords+grads       .... done
Making the new internal coordinates     .... (2022 redundants) done
Validating the new internal coordinates .... (2022 redundants) done
Calculating the B-matrix                .... done
Calculating the G,G- and P matrices     .... done
Transforming gradient to internals      .... done
Projecting the internal gradient        .... done
Number of atoms                         ....  24
Number of internal coordinates          .... 102
Current Energy                          ....   -43.518872297 Eh
Current gradient norm                   ....     0.047661468 Eh/bohr
Maximum allowed component of the step   ....  0.300
Current trust radius                    ....  0.450
Updating the Hessian (BFGS)             .... done
Forming the augmented Hessian           .... done
Diagonalizing the augmented Hessian     .... done
Last element of RFO vector              ....  0.925852818
Lowest eigenvalues of augmented Hessian:
 -0.007276701  0.012475170  0.014415094  0.015128646  0.015852437
Length of the computed step             ....  0.408147292
The final length of the internal step   ....  0.408147292
Converting the step to Cartesian space:
 Initial RMS(Int)=    0.0404126038
Transforming coordinates:
 Iter   0:  RMS(Cart)=    0.1603787265 RMS(Int)=    0.6205377017
 Iter   5:  RMS(Cart)=    0.0000186604 RMS(Int)=    0.0000126012
done
Storing new coordinates                 .... done
The predicted energy change is          ....    -0.004244442
Previously predicted energy change      ....    -0.013420908
Actually observed energy change         ....    -0.012197262
Ratio of predicted to observed change   ....     0.908825380
New trust radius                        ....     0.675000000

                                .--------------------.
          ----------------------|Geometry convergence|-------------------------
          Item                value                   Tolerance       Converged
          ---------------------------------------------------------------------
          Energy change      -0.0121972621            0.0000050000      NO
          RMS gradient        0.0042410689            0.0001000000      NO
          MAX gradient        0.0231747937            0.0003000000      NO
          RMS step            0.0404126038            0.0020000000      NO
          MAX step            0.1401129576            0.0040000000      NO
          -------------------------------------------------------------------------
          ........................................................
          Max(Bonds)      0.0583      Max(Angles)    1.95
          Max(Dihed)        8.03      Max(Improp)    0.00
          ---------------------------------------------------------------------

The optimization has not yet converged - more geometry cycles are needed


    ---------------------------------------------------------------------------
                         Redundant Internal Coordinates
                            (Angstroem and degrees)

        Definition                    Value    dE/dq     Step     New-Value
    ----------------------------------------------------------------------------
     1. B(C   1,N   0)                1.4698 -0.002258  0.0043    1.4741   
     2. B(C   2,C   1)                1.5298 -0.004588  0.0069    1.5367   
     3. B(O   3,C   2)                1.2210 -0.005893  0.0013    1.2223   
     4. B(N   4,C   2)                1.3310 -0.010411  0.0047    1.3357   
     5. B(C   5,N   4)                1.4424 -0.001310  0.0030    1.4454   
     6. B(C   6,C   5)                1.5122 -0.007708  0.0130    1.5252   
     7. B(O   7,C   6)                1.2302 -0.002766 -0.0013    1.2289   
     8. B(N   8,C   6)                1.3319 -0.005941 -0.0000    1.3319   
     9. B(C   9,N   8)                1.4448 -0.000692  0.0008    1.4456   
    10. B(C  10,C   9)                1.5331 -0.013897  0.0215    1.5545   
    11. B(O  11,C  10)                1.2364 -0.011010  0.0048    1.2411   
    12. B(O  12,C  10)                1.2365 -0.023175  0.0093    1.2458   
    13. B(H  13,N   0)                1.0255 -0.001607 -0.0003    1.0252   
    14. B(H  14,N   0)                1.0261 -0.001517 -0.0003    1.0257   
    15. B(H  15,N   0)                1.0322 -0.000647  0.0013    1.0335   
    16. B(H  15,O   3)                2.2088  0.003426 -0.0583    2.1505   
    17. B(H  16,C   1)                1.0927  0.000204 -0.0023    1.0904   
    18. B(H  17,C   1)                1.0898 -0.000071 -0.0007    1.0891   
    19. B(H  18,N   4)                1.0030 -0.005609  0.0045    1.0075   
    20. B(H  19,C   5)                1.0966 -0.000175 -0.0020    1.0946   
    21. B(H  20,C   5)                1.0916 -0.000456 -0.0012    1.0903   
    22. B(H  21,N   8)                1.0052 -0.001328  0.0010    1.0062   
    23. B(H  22,C   9)                1.0954  0.000154 -0.0017    1.0936   
    24. B(H  23,C   9)                1.0903 -0.000311 -0.0009    1.0894   
    25. A(H  14,N   0,H  15)          107.16 -0.001064   -0.11    107.05   
    26. A(H  13,N   0,H  15)          108.98 -0.001714    0.43    109.42   
    27. A(C   1,N   0,H  13)          111.94  0.000083    0.31    112.25   
    28. A(C   1,N   0,H  14)          111.50  0.000670   -0.00    111.50   
    29. A(H  13,N   0,H  14)          105.53 -0.003667    1.71    107.23   
    30. A(C   1,N   0,H  15)          111.46  0.005128   -1.95    109.51   
    31. A(N   0,C   1,H  17)          111.18  0.000758   -0.22    110.96   
    32. A(N   0,C   1,C   2)          109.76 -0.000229   -0.85    108.91   
    33. A(C   2,C   1,H  16)          107.27 -0.001236    0.73    108.00   
    34. A(N   0,C   1,H  16)          110.78  0.000806    0.11    110.89   
    35. A(C   2,C   1,H  17)          110.10  0.001283   -0.25    109.85   
    36. A(H  16,C   1,H  17)          107.65 -0.001453    0.58    108.23   
    37. A(C   1,C   2,N   4)          115.21  0.004270   -0.73    114.49   
    38. A(C   1,C   2,O   3)          120.76  0.000675   -0.19    120.57   
    39. A(O   3,C   2,N   4)          124.03 -0.004945    0.92    124.94   
    40. A(C   2,N   4,H  18)          118.14 -0.003040    0.61    118.76   
    41. A(C   2,N   4,C   5)          122.97 -0.001034    0.24    123.20   
    42. A(C   5,N   4,H  18)          118.87  0.004098   -0.85    118.02   
    43. A(N   4,C   5,H  20)          109.02  0.000154   -0.10    108.92   
    44. A(C   6,C   5,H  19)          106.08 -0.000273   -0.06    106.01   
    45. A(N   4,C   5,H  19)          111.00  0.001209   -0.45    110.55   
    46. A(N   4,C   5,C   6)          118.08 -0.000078   -0.02    118.06   
    47. A(H  19,C   5,H  20)          105.60 -0.002341    1.09    106.69   
    48. A(C   6,C   5,H  20)          106.29  0.001012   -0.32    105.97   
    49. A(C   5,C   6,O   7)          118.58  0.001107    0.01    118.59   
    50. A(O   7,C   6,N   8)          121.68 -0.008691    1.67    123.35   
    51. A(C   5,C   6,N   8)          119.64  0.007686   -1.69    117.95   
    52. A(C   6,N   8,C   9)          120.87 -0.002885    0.64    121.50   
    53. A(C   9,N   8,H  21)          119.27  0.003296   -0.69    118.58   
    54. A(C   6,N   8,H  21)          119.85 -0.000384    0.07    119.92   
    55. A(H  22,C   9,H  23)          107.69 -0.000787    0.36    108.05   
    56. A(N   8,C   9,C  10)          113.84 -0.001078    0.19    114.03   
    57. A(C  10,C   9,H  23)          107.57  0.001045   -0.28    107.29   
    58. A(N   8,C   9,H  23)          109.25 -0.000624    0.25    109.51   
    59. A(C  10,C   9,H  22)          109.46  0.003605   -1.16    108.30   
    60. A(N   8,C   9,H  22)          108.86 -0.002130    0.68    109.53   
    61. A(O  11,C  10,O  12)          124.50 -0.010993    1.88    126.38   
    62. A(C   9,C  10,O  12)          114.61 -0.000204   -0.15    114.46   
    63. A(C   9,C  10,O  11)          120.88  0.011211   -1.72    119.17   
    64. D(H  16,C   1,N   0,H  15)    -95.64  0.000624   -0.25    -95.89   
    65. D(C   2,C   1,N   0,H  15)     22.64 -0.000548    0.21     22.85   
    66. D(H  16,C   1,N   0,H  13)     26.71  0.002183   -0.92     25.79   
    67. D(H  16,C   1,N   0,H  14)    144.66 -0.001952    1.37    146.03   
    68. D(C   2,C   1,N   0,H  14)    -97.06 -0.003125    1.83    -95.23   
    69. D(C   2,C   1,N   0,H  13)    144.99  0.001010   -0.46    144.53   
    70. D(N   4,C   2,C   1,H  16)    -61.33  0.000799   -1.99    -63.32   
    71. D(N   4,C   2,C   1,N   0)    178.24  0.000698   -2.11    176.13   
    72. D(O   3,C   2,C   1,H  17)   -124.03 -0.000932   -0.63   -124.65   
    73. D(O   3,C   2,C   1,N   0)     -1.32  0.000715   -1.71     -3.03   
    74. D(O   3,C   2,C   1,H  16)    119.11  0.000816   -1.59    117.52   
    75. D(H  18,N   4,C   2,C   1)     -1.20  0.000685   -1.02     -2.22   
    76. D(C   5,N   4,C   2,O   3)     -0.13 -0.000429    0.38      0.26   
    77. D(H  18,N   4,C   2,O   3)    178.35  0.000698   -1.44    176.90   
    78. D(C   5,N   4,C   2,C   1)   -179.67 -0.000441    0.80   -178.87   
    79. D(H  20,C   5,N   4,C   2)    173.67  0.000812   -4.04    169.63   
    80. D(H  19,C   5,N   4,H  18)   -120.70  0.001841   -3.20   -123.90   
    81. D(H  19,C   5,N   4,C   2)     57.76  0.002871   -5.06     52.70   
    82. D(C   6,C   5,N   4,H  18)    116.55  0.001217   -2.70    113.84   
    83. D(C   6,C   5,N   4,C   2)    -64.99  0.002247   -4.57    -69.56   
    84. D(N   8,C   6,C   5,H  19)   -129.26  0.000371   -2.96   -132.22   
    85. D(N   8,C   6,C   5,N   4)     -4.06  0.001710   -3.62     -7.68   
    86. D(O   7,C   6,C   5,H  20)    -57.88  0.001121   -0.04    -57.92   
    87. D(O   7,C   6,C   5,H  19)     54.19 -0.001200    1.03     55.22   
    88. D(O   7,C   6,C   5,N   4)    179.39  0.000139    0.37    179.76   
    89. D(H  21,N   8,C   6,O   7)    176.24  0.001588   -3.34    172.90   
    90. D(H  21,N   8,C   6,C   5)     -0.20 -0.000404    0.65      0.45   
    91. D(C   9,N   8,C   6,O   7)     -5.22  0.002881   -6.54    -11.77   
    92. D(C   9,N   8,C   6,C   5)    178.33  0.000889   -2.55    175.78   
    93. D(C  10,C   9,N   8,H  21)    116.13  0.001971   -7.16    108.98   
    94. D(C  10,C   9,N   8,C   6)    -62.41  0.000738   -3.94    -66.35   
    95. D(H  23,C   9,N   8,C   6)    177.33  0.000563   -3.89    173.44   
    96. D(H  22,C   9,N   8,H  21)   -121.47  0.004307   -8.03   -129.49   
    97. D(H  22,C   9,N   8,C   6)     59.99  0.003075   -4.81     55.18   
    98. D(O  12,C  10,C   9,H  22)     57.16 -0.000118    1.54     58.70   
    99. D(O  12,C  10,C   9,N   8)    179.23 -0.000945    1.70    180.93   
   100. D(O  11,C  10,C   9,H  23)    120.13  0.001168   -5.69    114.44   
   101. D(O  11,C  10,C   9,H  22)   -123.13  0.002733   -6.11   -129.25   
   102. D(O  11,C  10,C   9,N   8)     -1.07  0.001905   -5.95     -7.02   
    ----------------------------------------------------------------------------

Geometry step timings:
Preparation and reading OPT file:      0.000 s ( 0.624 %)
Internal coordinates            :      0.000 s ( 0.624 %)
B/P matrices and projection     :      0.001 s (40.846 %)
Hessian update/contruction      :      0.000 s ( 9.223 %)
Making the step                 :      0.000 s (30.028 %)
Converting the step to Cartesian:      0.000 s ( 4.022 %)
Storing new data                :      0.000 s ( 0.763 %)
Checking convergence            :      0.000 s ( 0.971 %)
Final printing                  :      0.000 s (12.899 %)
Total time                      :      0.001 s

Time for energy+gradient        :      0.022 s
Time for complete geometry iter :      0.024 s

         *************************************************************
         *                GEOMETRY OPTIMIZATION CYCLE   4            *
         *************************************************************
---------------------------------
CARTESIAN COORDINATES (ANGSTROEM)
---------------------------------
  N    -3.312949   -1.040191   -0.849730
  C    -2.724489   -0.276806    0.265488
  C    -1.435551    0.402916   -0.222436
  O    -1.026976    0.216988   -1.359288
  N    -0.850574    1.193902    0.681059
  C     0.356309    1.942899    0.413401
  C     1.659547    1.168326    0.246321
  O     2.689365    1.797060    0.012979
  N     1.644995   -0.137501    0.508185
  C     2.811462   -0.963329    0.290899
  C     3.214563   -1.109178   -1.203372
  O     2.465392   -0.643587   -2.076528
  O     4.208557   -1.834643   -1.397287
  H    -3.756652   -1.908678   -0.533575
  H    -4.029690   -0.494654   -1.340479
  H    -2.577236   -1.262412   -1.540720
  H    -2.465099   -0.936152    1.094285
  H    -3.421797    0.474484    0.633488
  H    -1.294415    1.316502    1.577224
  H     0.242926    2.542514   -0.495362
  H     0.526620    2.643621    1.231216
  H     0.789419   -0.580912    0.797665
  H     3.662155   -0.545623    0.836707
  H     2.624116   -1.965548    0.674701

----------------------------
CARTESIAN COORDINATES (A.U.)
----------------------------
  NO LB    ZA    FRAG    MASS        X           Y           Z
   0 N   7.0000    0    14.007   -6.260566   -1.965676   -1.605757
   1 C   6.0000    0    12.011   -5.148538   -0.523087    0.501700
   2 C   6.0000    0    12.011   -2.712799    0.761400   -0.420344
   3 O   8.0000    0    15.999   -1.940703    0.410048   -2.568681
   4 N   7.0000    0    14.007   -1.607352    2.256149    1.287016
   5 C   6.0000    0    12.011    0.673326    3.671547    0.781215
   6 C   6.0000    0    12.011    3.136089    2.207817    0.465479
   7 O   8.0000    0    15.999    5.082163    3.395951    0.024527
   8 N   7.0000    0    14.007    3.108589   -0.259840    0.960330
   9 C   6.0000    0    12.011    5.312894   -1.820427    0.549720
  10 C   6.0000    0    12.011    6.074644   -2.096042   -2.274044
  11 O   8.0000    0    15.999    4.658916   -1.216202   -3.924070
  12 O   8.0000    0    15.999    7.953020   -3.466973   -2.640490
  13 H   1.0000    0     1.008   -7.099044   -3.606878   -1.008310
  14 H   1.0000    0     1.008   -7.615010   -0.934761   -2.533138
  15 H   1.0000    0     1.008   -4.870269   -2.385613   -2.911540
  16 H   1.0000    0     1.008   -4.658361   -1.769071    2.067898
  17 H   1.0000    0     1.008   -6.466259    0.896646    1.197120
  18 H   1.0000    0     1.008   -2.446089    2.487829    2.980522
  19 H   1.0000    0     1.008    0.459064    4.804655   -0.936099
  20 H   1.0000    0     1.008    0.995168    4.995720    2.326661
  21 H   1.0000    0     1.008    1.491786   -1.097765    1.507369
  22 H   1.0000    0     1.008    6.920471   -1.031078    1.581146
  23 H   1.0000    0     1.008    4.958861   -3.714347    1.275000

      -----------------------------------------------------------      
     |                   =====================                   |     
     |                           x T B                           |     
     |                   =====================                   |     
     |                         S. Grimme                         |     
     |          Mulliken Center for Theoretical Chemistry        |     
     |                    University of Bonn                     |     
      -----------------------------------------------------------      

   * xtb version 6.7.1 (edcfbbe) compiled by 'albert@albert-system' on 2024-07-22

   xtb is free software: you can redistribute it and/or modify it under
   the terms of the GNU Lesser General Public License as published by
   the Free Software Foundation, either version 3 of the License, or
   (at your option) any later version.
   
   xtb is distributed in the hope that it will be useful,
   but WITHOUT ANY WARRANTY; without even the implied warranty of
   MERCHANTABILITY or FITNESS FOR A PARTICULAR PURPOSE.  See the
   GNU Lesser General Public License for more details.
   
   Cite this work as:
   * C. Bannwarth, E. Caldeweyher, S. Ehlert, A. Hansen, P. Pracht,
     J. Seibert, S. Spicher, S. Grimme, WIREs Comput. Mol. Sci., 2020, 11,
     e01493. DOI: 10.1002/wcms.1493
   
   for GFN2-xTB:
   * C. Bannwarth, S. Ehlert and S. Grimme., J. Chem. Theory Comput., 2019,
     15, 1652-1671. DOI: 10.1021/acs.jctc.8b01176
   for GFN1-xTB:
   * S. Grimme, C. Bannwarth, P. Shushkov, J. Chem. Theory Comput., 2017,
     13, 1989-2009. DOI: 10.1021/acs.jctc.7b00118
   for GFN0-xTB:
   * P. Pracht, E. Caldeweyher, S. Ehlert, S. Grimme, ChemRxiv, 2019, preprint.
     DOI: 10.26434/chemrxiv.8326202.v1
   for GFN-FF:
   * S. Spicher and S. Grimme, Angew. Chem. Int. Ed., 2020, 59, 15665-15673.
     DOI: 10.1002/anie.202004239
   
   for ALPB and GBSA implicit solvation:
   * S. Ehlert, M. Stahn, S. Spicher, S. Grimme, J. Chem. Theory Comput.,
     2021, 17, 4250-4261. DOI: 10.1021/acs.jctc.1c00471
   
   for ddCOSMO and CPCM-X implicit solvation:
   * M. Stahn, S. Ehlert, S. Grimme, J. Phys. Chem. A,
     2023, XX, XXXX-XXXX. DOI: 10.1021/acs.jpca.3c04382
   
   for DFT-D4:
   * E. Caldeweyher, C. Bannwarth and S. Grimme, J. Chem. Phys., 2017,
     147, 034112. DOI: 10.1063/1.4993215
   * E. Caldeweyher, S. Ehlert, A. Hansen, H. Neugebauer, S. Spicher,
     C. Bannwarth and S. Grimme, J. Chem. Phys., 2019, 150, 154122.
     DOI: 10.1063/1.5090222
   * E. Caldeweyher, J.-M. Mewes, S. Ehlert and S. Grimme, Phys. Chem. Chem. Phys.
     2020, 22, 8499-8512. DOI: 10.1039/D0CP00502A
   
   for sTDA-xTB:
   * S. Grimme and C. Bannwarth, J. Chem. Phys., 2016, 145, 054103.
     DOI: 10.1063/1.4959605
   
   in the mass-spec context:
   * V. Asgeirsson, C. Bauer and S. Grimme, Chem. Sci., 2017, 8, 4879.
     DOI: 10.1039/c7sc00601b
   * J. Koopman and S. Grimme, ACS Omega 2019, 4, 12, 15120-15133.
     DOI: 10.1021/acsomega.9b02011
   
   for metadynamics refer to:
   * S. Grimme, J. Chem. Theory Comput., 2019, 155, 2847-2862
     DOI: 10.1021/acs.jctc.9b00143
   
   for SPH calculations refer to:
   * S. Spicher and S. Grimme, J. Chem. Theory Comput., 2021, 17, 1701-1714
     DOI: 10.1021/acs.jctc.0c01306
   
   for ONIOM refer to:
   * C. Plett, A. Katbashev, S. Ehlert, S. Grimme, M. Bursch,
     Phys. Chem. Chem. Phys., 2023, 25, 17860-17868. DOI: 10.1039/D3CP02178E
   
   for DIPRO refer to:
   * J. Kohn, N. Gildemeister, S. Grimme, D. Fazzi, A. Hansen,
     J. Chem. Phys., 2023, just accepted.
   
   for PTB refer to:
   * S. Grimme, M. Mueller, A. Hansen, J. Chem. Phys., 2023, 158, 124111.
     DOI: 10.1063/5.0137838
   
   with help from (in alphabetical order)
   P. Atkinson, C. Bannwarth, F. Bohle, G. Brandenburg, E. Caldeweyher
   M. Checinski, S. Dohm, S. Ehlert, S. Ehrlich, I. Gerasimov, C. Hölzer
   A. Katbashev, J. Kohn, J. Koopman, C. Lavigne, S. Lehtola, F. März, M. Müller,
   F. Musil, H. Neugebauer, J. Pisarek, C. Plett, P. Pracht, F. Pultar,
   J. Seibert, P. Shushkov, S. Spicher, M. Stahn, M. Steiner, T. Strunk,
   J. Stückrath, T. Rose, and J. Unsleber
   
 * started run on 2026/04/11 at 17:16:35.510     
   ID    Z sym.   atoms
    1    7 N      1, 5, 9
    2    6 C      2, 3, 6, 7, 10, 11
    3    8 O      4, 8, 12, 13
    4    1 H      14-24

           -------------------------------------------------
          |                Calculation Setup                |
           -------------------------------------------------

          program call               : /home/analima/Programs/orca-6.1.0-f.0_linux_x86-64/bin/otool_xtb geo_opt_XTB.xyz --grad -c 0 -u 0 -P 1 --namespace geo_opt --input geo_opt_XTB.input.tmp --alpb WATER --acc 0.200000
          calculation namespace      : geo_opt
          coordinate file            : geo_opt_XTB.xyz
          omp threads                :                     1


           -------------------------------------------------
          |                 G F N 2 - x T B                 |
           -------------------------------------------------

        Reference                      10.1021/acs.jctc.8b01176
      * Hamiltonian:
        H0-scaling (s, p, d)           1.850000    2.230000    2.230000
        zeta-weighting                 0.500000
      * Dispersion:
        s8                             2.700000
        a1                             0.520000
        a2                             5.000000
        s9                             5.000000
      * Repulsion:
        kExp                           1.500000    1.000000
        rExp                           1.000000
      * Coulomb:
        alpha                          2.000000
        third order                    shell-resolved
        anisotropic                    true
        a3                             3.000000
        a5                             4.000000
        cn-shift                       1.200000
        cn-exp                         4.000000
        max-rad                        5.000000

      * Solvation model:               ALPB
        Solvent                        WATER
        Parameter file                 internal GFN2-xTB/ALPB
        Dielectric constant                8.0200E+01
        Reference state                gsolv [1 M gas/solution]
        Free energy shift                  1.0808E-03 Eh       6.7819E-01 kcal/mol
        Temperature                        2.9815E+02 K
        Density                            1.0000E+00 kg/L
        Solvent mass                       1.8000E+01 g/mol
        Interaction kernel             P16
        Born radius scaling (c1)           1.4744E+00
        Born radii integrator          GBOBC
        Born offset                        0.0000E+00 a0       0.0000E+00 AA
        H-bond correction              true
        Ion screening                  false
        Surface tension                    1.0000E-05 Eh       1.5569E+01 dyn/cm
        Grid points                               230 per atom
q/qsh data taken from xtbrestart
CAMM data taken from xtbrestart

          ...................................................
          :                      SETUP                      :
          :.................................................:
          :  # basis functions                  63          :
          :  # atomic orbitals                  63          :
          :  # shells                           37          :
          :  # electrons                        74          :
          :  max. iterations                   250          :
          :  Hamiltonian                  GFN2-xTB          :
          :  restarted?                       true          :
          :  GBSA solvation                   true          :
          :  PC potential                    false          :
          :  electronic temp.          300.0000000     K    :
          :  accuracy                    0.2000000          :
          :  -> integral cutoff          0.3198970E+02      :
          :  -> integral neglect         0.2000000E-08      :
          :  -> SCF convergence          0.2000000E-06 Eh   :
          :  -> wf. convergence          0.2000000E-04 e    :
          :  Broyden damping             0.4000000          :
          :  net charge                          0          :
          :  unpaired electrons                  0          :
          ...................................................

 iter      E             dE          RMSdq      gap      omega  full diag
   1    -43.9553346 -0.439553E+02  0.495E-01    3.50       0.0  T
   2    -43.9554168 -0.822576E-04  0.291E-01    3.50       1.0  T
   3    -43.9554195 -0.265776E-05  0.340E-02    3.50       1.0  T
   4    -43.9554321 -0.126078E-04  0.117E-02    3.50       1.7  T
   5    -43.9554324 -0.268216E-06  0.598E-03    3.50       3.4  T
   6    -43.9554324 -0.591542E-07  0.115E-03    3.50      17.7  T
   7    -43.9554324 -0.236761E-08  0.458E-04    3.50      44.6  T
   8    -43.9554324 -0.401670E-09  0.172E-04    3.50     118.5  T
   9    -43.9554324 -0.108223E-09  0.510E-05    3.50     400.1  T

   *** convergence criteria satisfied after 9 iterations ***

         #    Occupation            Energy/Eh            Energy/eV
      -------------------------------------------------------------
         1        2.0000           -0.7311776             -19.8964
       ...           ...                  ...                  ...
        31        2.0000           -0.4361428             -11.8680
        32        2.0000           -0.4248130             -11.5598
        33        2.0000           -0.4192253             -11.4077
        34        2.0000           -0.3963703             -10.7858
        35        2.0000           -0.3943244             -10.7301
        36        2.0000           -0.3797075             -10.3324
        37        2.0000           -0.3586816              -9.7602 (HOMO)
        38                         -0.2299657              -6.2577 (LUMO)
        39                         -0.2080956              -5.6626
        40                         -0.1696107              -4.6153
        41                         -0.0615105              -1.6738
        42                         -0.0127640              -0.3473
       ...                                ...                  ...
        63                          0.6435734              17.5125
      -------------------------------------------------------------
                  HL-Gap            0.1287159 Eh            3.5025 eV
             Fermi-level           -0.2943236 Eh           -8.0090 eV

 SCC (total)                   0 d,  0 h,  0 min,  0.012 sec
 SCC setup                      ...        0 min,  0.000 sec (  3.091%)
 Dispersion                     ...        0 min,  0.000 sec (  0.633%)
 classical contributions        ...        0 min,  0.000 sec (  0.123%)
 integral evaluation            ...        0 min,  0.001 sec ( 10.992%)
 iterations                     ...        0 min,  0.007 sec ( 56.126%)
 molecular gradient             ...        0 min,  0.003 sec ( 28.595%)
 printout                       ...        0 min,  0.000 sec (  0.360%)

         :::::::::::::::::::::::::::::::::::::::::::::::::::::
         ::                     SUMMARY                     ::
         :::::::::::::::::::::::::::::::::::::::::::::::::::::
         :: total energy             -43.522939087748 Eh    ::
         :: total w/o Gsasa/hb       -43.510212397126 Eh    ::
         :: gradient norm              0.027434745752 Eh/a0 ::
         :: HOMO-LUMO gap              3.502537358204 eV    ::
         ::.................................................::
         :: SCC energy               -43.955302747779 Eh    ::
         :: -> isotropic ES            0.397364570723 Eh    ::
         :: -> anisotropic ES         -0.015833174549 Eh    ::
         :: -> anisotropic XC          0.008949244428 Eh    ::
         :: -> dispersion             -0.018345597405 Eh    ::
         :: -> Gsolv                  -0.192177679120 Eh    ::
         ::    -> Gelec               -0.179450988498 Eh    ::
         ::    -> Gsasa                0.005794261947 Eh    ::
         ::    -> Ghb                 -0.019601712267 Eh    ::
         ::    -> Gshift               0.001080759698 Eh    ::
         :: repulsion energy           0.432363660031 Eh    ::
         :: add. restraining           0.000000000000 Eh    ::
         :: total charge               0.000000000000 e     ::
         :::::::::::::::::::::::::::::::::::::::::::::::::::::


Property printout bound to 'properties.out'

           -------------------------------------------------
          | TOTAL ENERGY              -43.522939087748 Eh   |
          | GRADIENT NORM               0.027434745752 Eh/α |
          | HOMO-LUMO GAP               3.502537358204 eV   |
           -------------------------------------------------

------------------------------------------------------------------------
 * finished run on 2026/04/11 at 17:16:35.528     
------------------------------------------------------------------------
 total:
 * wall-time:     0 d,  0 h,  0 min,  0.018 sec
 *  cpu-time:     0 d,  0 h,  0 min,  0.016 sec
 * ratio c/w:     0.916 speedup
 SCF:
 * wall-time:     0 d,  0 h,  0 min,  0.012 sec
 *  cpu-time:     0 d,  0 h,  0 min,  0.011 sec
 * ratio c/w:     0.883 speedup


-------------------------   --------------------
FINAL SINGLE POINT ENERGY       -43.522939087750
-------------------------   --------------------


-------------
DIPOLE MOMENT
-------------
                                X             Y             Z
Total Dipole Moment    :    -14.25300      -0.33300       4.49800
                        -----------------------------------------
Magnitude (a.u.)       :     14.94961
Magnitude (Debye)      :     37.99889


------------------
CARTESIAN GRADIENT
------------------

   1   N   :    0.006097822    0.001802933   -0.000738507
   2   C   :   -0.001642165    0.000510633   -0.001056866
   3   C   :    0.000442785   -0.002410498    0.004599563
   4   O   :    0.002495023    0.002767099    0.000939132
   5   N   :   -0.001838715    0.001711573   -0.000903308
   6   C   :    0.004634050   -0.004360009   -0.001239572
   7   C   :   -0.003744203   -0.000746198   -0.004957052
   8   O   :   -0.000725941   -0.001052028    0.003966069
   9   N   :   -0.001688787    0.001443871   -0.002235069
  10   C   :    0.004613622   -0.003364926   -0.009370633
  11   C   :    0.006142870    0.012443485    0.006645780
  12   O   :    0.000558111   -0.006309751   -0.002212298
  13   O   :   -0.007363355   -0.001838509   -0.000434403
  14   H   :   -0.001066032    0.001491738   -0.000866842
  15   H   :   -0.000952367   -0.002205415    0.001313756
  16   H   :   -0.004172178   -0.002754518   -0.000666562
  17   H   :    0.000025909    0.001370693    0.000558129
  18   H   :    0.000120552   -0.000643606    0.000589695
  19   H   :   -0.001640864   -0.000397302   -0.002503565
  20   H   :   -0.000073070    0.001855656    0.002178061
  21   H   :   -0.000021070   -0.000124438   -0.000858240
  22   H   :    0.001187997    0.001721504    0.004005754
  23   H   :   -0.001759068   -0.001285473    0.002440355
  24   H   :    0.000369073    0.000373486    0.000806624

Difference to translation invariance:
           :    0.0000000000   -0.0000000000   -0.0000000000

Difference to rotation invariance:
           :    0.0002637097   -0.0000626909    0.0009497352

Norm of the Cartesian gradient     ...    0.0274347458
RMS gradient                       ...    0.0032332158
MAX gradient                       ...    0.0124434852
------------------------------------------------------------------------------
                         ORCA GEOMETRY RELAXATION STEP
------------------------------------------------------------------------------

Reading the OPT-File                    .... done
Getting information on internals        .... done
Copying old internal coords+grads       .... done
Making the new internal coordinates     .... (2022 redundants) done
Validating the new internal coordinates .... (2022 redundants) done
Calculating the B-matrix                .... done
Calculating the G,G- and P matrices     .... done
Transforming gradient to internals      .... done
Projecting the internal gradient        .... done
Number of atoms                         ....  24
Number of internal coordinates          .... 102
Current Energy                          ....   -43.522939088 Eh
Current gradient norm                   ....     0.027434746 Eh/bohr
Maximum allowed component of the step   ....  0.300
Current trust radius                    ....  0.675
Updating the Hessian (BFGS)             .... done
Forming the augmented Hessian           .... done
Diagonalizing the augmented Hessian     .... done
Last element of RFO vector              ....  0.853279562
Lowest eigenvalues of augmented Hessian:
 -0.008203441  0.012216881  0.013665771  0.015340494  0.015852907
Length of the computed step             ....  0.611117096
The final length of the internal step   ....  0.611117096
Converting the step to Cartesian space:
 Initial RMS(Int)=    0.0605096091
Transforming coordinates:
 Iter   0:  RMS(Cart)=    0.1618789115 RMS(Int)=    0.6016028594
 Iter   5:  RMS(Cart)=    0.0000811762 RMS(Int)=    0.0000491896
 Iter  10:  RMS(Cart)=    0.0000001640 RMS(Int)=    0.0000000993
done
Storing new coordinates                 .... done
The predicted energy change is          ....    -0.005633566
Previously predicted energy change      ....    -0.004244442
Actually observed energy change         ....    -0.004066790
Ratio of predicted to observed change   ....     0.958144850
New trust radius                        ....     0.700000000

                                .--------------------.
          ----------------------|Geometry convergence|-------------------------
          Item                value                   Tolerance       Converged
          ---------------------------------------------------------------------
          Energy change      -0.0040667905            0.0000050000      NO
          RMS gradient        0.0019793812            0.0001000000      NO
          MAX gradient        0.0063557786            0.0003000000      NO
          RMS step            0.0605096091            0.0020000000      NO
          MAX step            0.2419128033            0.0040000000      NO
          -------------------------------------------------------------------------
          ........................................................
          Max(Bonds)      0.0961      Max(Angles)    3.08
          Max(Dihed)       13.86      Max(Improp)    0.00
          ---------------------------------------------------------------------

The optimization has not yet converged - more geometry cycles are needed


    ---------------------------------------------------------------------------
                         Redundant Internal Coordinates
                            (Angstroem and degrees)

        Definition                    Value    dE/dq     Step     New-Value
    ----------------------------------------------------------------------------
     1. B(C   1,N   0)                1.4740 -0.000487  0.0058    1.4798   
     2. B(C   2,C   1)                1.5367 -0.001372  0.0079    1.5446   
     3. B(O   3,C   2)                1.2223 -0.000631  0.0003    1.2225   
     4. B(N   4,C   2)                1.3357 -0.003744  0.0064    1.3422   
     5. B(C   5,N   4)                1.4454  0.001340  0.0020    1.4474   
     6. B(C   6,C   5)                1.5252 -0.002593  0.0179    1.5432   
     7. B(O   7,C   6)                1.2289 -0.001898 -0.0014    1.2276   
     8. B(N   8,C   6)                1.3319 -0.003155  0.0020    1.3339   
     9. B(C   9,N   8)                1.4456  0.002389 -0.0015    1.4441   
    10. B(C  10,C   9)                1.5545 -0.004425  0.0295    1.5841   
    11. B(O  11,C  10)                1.2411 -0.001151  0.0042    1.2453   
    12. B(O  12,C  10)                1.2458 -0.004733  0.0138    1.2595   
    13. B(H  13,N   0)                1.0252 -0.001074 -0.0003    1.0249   
    14. B(H  14,N   0)                1.0257 -0.001132 -0.0002    1.0255   
    15. B(H  15,N   0)                1.0335 -0.001023  0.0027    1.0362   
    16. B(H  15,O   3)                2.1505  0.002959 -0.0961    2.0544   
    17. B(H  16,C   1)                1.0904 -0.000403 -0.0025    1.0878   
    18. B(H  17,C   1)                1.0891 -0.000316 -0.0007    1.0884   
    19. B(H  18,N   4)                1.0075 -0.001555  0.0042    1.0118   
    20. B(H  19,C   5)                1.0946 -0.000781 -0.0016    1.0930   
    21. B(H  20,C   5)                1.0903 -0.000729 -0.0012    1.0892   
    22. B(H  21,N   8)                1.0062 -0.000615  0.0005    1.0067   
    23. B(H  22,C   9)                1.0936 -0.000645 -0.0016    1.0920   
    24. B(H  23,C   9)                1.0894 -0.000116 -0.0016    1.0878   
    25. A(H  14,N   0,H  15)          106.97 -0.000636   -0.25    106.73   
    26. A(H  13,N   0,H  15)          109.40 -0.000847    0.62    110.02   
    27. A(C   1,N   0,H  13)          112.22 -0.000090    0.50    112.72   
    28. A(C   1,N   0,H  14)          111.44  0.000494   -0.05    111.38   
    29. A(H  13,N   0,H  14)          107.20 -0.002093    2.57    109.77   
    30. A(C   1,N   0,H  15)          109.45  0.003020   -3.08    106.37   
    31. A(N   0,C   1,H  17)          110.93  0.000340   -0.25    110.68   
    32. A(N   0,C   1,C   2)          108.89 -0.000648   -1.34    107.55   
    33. A(C   2,C   1,H  16)          108.02 -0.000555    1.05    109.07   
    34. A(N   0,C   1,H  16)          110.91  0.000945    0.10    111.01   
    35. A(C   2,C   1,H  17)          109.83  0.000794   -0.38    109.45   
    36. A(H  16,C   1,H  17)          108.22 -0.000884    0.91    109.12   
    37. A(C   1,C   2,N   4)          114.49  0.000504   -0.76    113.73   
    38. A(C   1,C   2,O   3)          120.56  0.000722   -0.45    120.11   
    39. A(O   3,C   2,N   4)          124.95 -0.001228    1.20    126.15   
    40. A(C   2,N   4,H  18)          118.74 -0.002525    1.02    119.76   
    41. A(C   2,N   4,C   5)          123.18  0.001175    0.07    123.25   
    42. A(C   5,N   4,H  18)          118.00  0.001371   -1.17    116.83   
    43. A(N   4,C   5,H  20)          108.94 -0.001280    0.16    109.10   
    44. A(C   6,C   5,H  19)          106.01 -0.001053   -0.04    105.97   
    45. A(N   4,C   5,H  19)          110.55  0.000094   -0.65    109.90   
    46. A(N   4,C   5,C   6)          118.07  0.002916   -0.50    117.57   
    47. A(H  19,C   5,H  20)          106.67 -0.000775    1.60    108.27   
    48. A(C   6,C   5,H  20)          105.97 -0.000221   -0.30    105.67   
    49. A(C   5,C   6,O   7)          118.49 -0.000805    0.02    118.51   
    50. A(O   7,C   6,N   8)          123.24 -0.002390    2.05    125.29   
    51. A(C   5,C   6,N   8)          117.84  0.003043   -2.47    115.38   
    52. A(C   6,N   8,C   9)          121.45 -0.000833    0.88    122.33   
    53. A(C   9,N   8,H  21)          118.53  0.001311   -1.07    117.46   
    54. A(C   6,N   8,H  21)          119.86 -0.000394    0.02    119.89   
    55. A(H  22,C   9,H  23)          108.02 -0.002147    1.15    109.17   
    56. A(N   8,C   9,C  10)          114.04  0.003237   -0.28    113.76   
    57. A(C  10,C   9,H  23)          107.27 -0.000587   -0.37    106.90   
    58. A(N   8,C   9,H  23)          109.50  0.000296    0.14    109.64   
    59. A(C  10,C   9,H  22)          108.29  0.000459   -1.51    106.78   
    60. A(N   8,C   9,H  22)          109.54 -0.001514    0.92    110.46   
    61. A(O  11,C  10,O  12)          126.20 -0.004082    2.19    128.38   
    62. A(C   9,C  10,O  12)          114.28 -0.002427   -0.12    114.16   
    63. A(C   9,C  10,O  11)          118.98  0.005138   -2.72    116.26   
    64. D(H  16,C   1,N   0,H  15)    -95.86  0.000196   -0.25    -96.11   
    65. D(C   2,C   1,N   0,H  15)     22.86 -0.000322    0.28     23.14   
    66. D(H  16,C   1,N   0,H  13)     25.79  0.001167   -1.32     24.47   
    67. D(H  16,C   1,N   0,H  14)    146.02 -0.001235    2.21    148.23   
    68. D(C   2,C   1,N   0,H  14)    -95.25 -0.001753    2.73    -92.52   
    69. D(C   2,C   1,N   0,H  13)    144.51  0.000649   -0.80    143.72   
    70. D(N   4,C   2,C   1,H  16)    -63.33  0.000560   -2.42    -65.75   
    71. D(N   4,C   2,C   1,N   0)    176.14  0.000124   -2.41    173.74   
    72. D(O   3,C   2,C   1,H  17)   -124.67 -0.000229   -0.94   -125.61   
    73. D(O   3,C   2,C   1,N   0)     -3.02  0.000274   -2.40     -5.42   
    74. D(O   3,C   2,C   1,H  16)    117.51  0.000710   -2.41    115.10   
    75. D(H  18,N   4,C   2,C   1)     -2.23  0.000587   -1.85     -4.08   
    76. D(C   5,N   4,C   2,O   3)      0.27 -0.000014    0.14      0.41   
    77. D(H  18,N   4,C   2,O   3)    176.88  0.000449   -1.86    175.02   
    78. D(C   5,N   4,C   2,C   1)   -178.85  0.000123    0.15   -178.70   
    79. D(H  20,C   5,N   4,C   2)    169.63  0.000896   -6.52    163.11   
    80. D(H  19,C   5,N   4,H  18)   -123.92  0.002207   -6.23   -130.15   
    81. D(H  19,C   5,N   4,C   2)     52.72  0.002543   -8.19     44.53   
    82. D(C   6,C   5,N   4,H  18)    113.83  0.001299   -5.21    108.62   
    83. D(C   6,C   5,N   4,C   2)    -69.54  0.001635   -7.16    -76.70   
    84. D(N   8,C   6,C   5,H  19)   -132.15 -0.001093   -1.53   -133.68   
    85. D(N   8,C   6,C   5,N   4)     -7.61  0.000230   -2.80    -10.41   
    86. D(O   7,C   6,C   5,H  20)    -57.94  0.001786   -2.82    -60.77   
    87. D(O   7,C   6,C   5,H  19)     55.16  0.000360   -1.16     54.00   
    88. D(O   7,C   6,C   5,N   4)    179.70  0.001682   -2.43    177.27   
    89. D(H  21,N   8,C   6,O   7)    172.85 -0.002273    1.47    174.32   
    90. D(H  21,N   8,C   6,C   5)      0.53 -0.000898    2.17      2.71   
    91. D(C   9,N   8,C   6,O   7)    -11.85 -0.000992   -4.37    -16.22   
    92. D(C   9,N   8,C   6,C   5)    175.83  0.000383   -3.67    172.17   
    93. D(C  10,C   9,N   8,H  21)    108.99  0.001196   -9.83     99.16   
    94. D(C  10,C   9,N   8,C   6)    -66.37  0.000007   -4.04    -70.41   
    95. D(H  23,C   9,N   8,C   6)    173.44 -0.001619   -3.49    169.96   
    96. D(H  22,C   9,N   8,H  21)   -129.48  0.002902  -11.27   -140.75   
    97. D(H  22,C   9,N   8,C   6)     55.16  0.001713   -5.48     49.68   
    98. D(O  12,C  10,C   9,H  22)     58.70  0.005789  -13.73     44.97   
    99. D(O  12,C  10,C   9,N   8)   -179.08  0.006356  -13.86   -192.94   
   100. D(O  11,C  10,C   9,H  23)    114.42 -0.001933    3.47    117.88   
   101. D(O  11,C  10,C   9,H  22)   -129.23 -0.004518    3.86   -125.37   
   102. D(O  11,C  10,C   9,N   8)     -7.01 -0.003951    3.73     -3.28   
    ----------------------------------------------------------------------------

Geometry step timings:
Preparation and reading OPT file:      0.000 s ( 0.785 %)
Internal coordinates            :      0.000 s ( 0.845 %)
B/P matrices and projection     :      0.001 s (45.142 %)
Hessian update/contruction      :      0.000 s ( 9.173 %)
Making the step                 :      0.000 s (28.002 %)
Converting the step to Cartesian:      0.000 s ( 4.104 %)
Storing new data                :      0.000 s ( 0.845 %)
Checking convergence            :      0.000 s ( 0.845 %)
Final printing                  :      0.000 s (10.199 %)
Total time                      :      0.002 s

Time for energy+gradient        :      0.021 s
Time for complete geometry iter :      0.023 s

         *************************************************************
         *                GEOMETRY OPTIMIZATION CYCLE   5            *
         *************************************************************
---------------------------------
CARTESIAN COORDINATES (ANGSTROEM)
---------------------------------
  N    -3.347802   -0.983439   -0.901286
  C    -2.684635   -0.351479    0.260812
  C    -1.442213    0.400395   -0.265112
  O    -1.121434    0.307233   -1.441121
  N    -0.817601    1.132585    0.670380
  C     0.351381    1.940706    0.395578
  C     1.703734    1.212615    0.246087
  O     2.698877    1.873290   -0.037035
  N     1.704960   -0.073840    0.598594
  C     2.840114   -0.934650    0.362327
  C     3.072397   -1.279280   -1.166237
  O     2.231205   -0.832042   -1.968218
  O     4.188622   -1.807538   -1.414092
  H    -3.750295   -1.898977   -0.677018
  H    -4.072806   -0.373492   -1.293695
  H    -2.619517   -1.085819   -1.631292
  H    -2.367651   -1.099838    0.983928
  H    -3.354969    0.353831    0.748476
  H    -1.210706    1.199996    1.600201
  H     0.207075    2.500047   -0.532300
  H     0.489628    2.654324    1.206709
  H     0.847992   -0.510771    0.895501
  H     3.757299   -0.463978    0.722498
  H     2.696345   -1.879880    0.881155

----------------------------
CARTESIAN COORDINATES (A.U.)
----------------------------
  NO LB    ZA    FRAG    MASS        X           Y           Z
   0 N   7.0000    0    14.007   -6.326429   -1.858431   -1.703183
   1 C   6.0000    0    12.011   -5.073226   -0.664199    0.492864
   2 C   6.0000    0    12.011   -2.725387    0.756637   -0.500989
   3 O   8.0000    0    15.999   -2.119203    0.580587   -2.723324
   4 N   7.0000    0    14.007   -1.545041    2.140276    1.266834
   5 C   6.0000    0    12.011    0.664014    3.667402    0.747534
   6 C   6.0000    0    12.011    3.219591    2.291510    0.465036
   7 O   8.0000    0    15.999    5.100139    3.540005   -0.069987
   8 N   7.0000    0    14.007    3.221908   -0.139538    1.131179
   9 C   6.0000    0    12.011    5.367038   -1.766233    0.684700
  10 C   6.0000    0    12.011    5.805990   -2.417490   -2.203869
  11 O   8.0000    0    15.999    4.216366   -1.572331   -3.719393
  12 O   8.0000    0    15.999    7.915348   -3.415752   -2.672246
  13 H   1.0000    0     1.008   -7.087030   -3.588546   -1.279378
  14 H   1.0000    0     1.008   -7.696489   -0.705797   -2.444729
  15 H   1.0000    0     1.008   -4.950170   -2.051900   -3.082695
  16 H   1.0000    0     1.008   -4.474213   -2.078393    1.859355
  17 H   1.0000    0     1.008   -6.339973    0.668645    1.414416
  18 H   1.0000    0     1.008   -2.287903    2.267663    3.023942
  19 H   1.0000    0     1.008    0.391315    4.724403   -1.005901
  20 H   1.0000    0     1.008    0.925263    5.015946    2.280349
  21 H   1.0000    0     1.008    1.602473   -0.965217    1.692252
  22 H   1.0000    0     1.008    7.100266   -0.876791    1.365324
  23 H   1.0000    0     1.008    5.095353   -3.552459    1.665141

      -----------------------------------------------------------      
     |                   =====================                   |     
     |                           x T B                           |     
     |                   =====================                   |     
     |                         S. Grimme                         |     
     |          Mulliken Center for Theoretical Chemistry        |     
     |                    University of Bonn                     |     
      -----------------------------------------------------------      

   * xtb version 6.7.1 (edcfbbe) compiled by 'albert@albert-system' on 2024-07-22

   xtb is free software: you can redistribute it and/or modify it under
   the terms of the GNU Lesser General Public License as published by
   the Free Software Foundation, either version 3 of the License, or
   (at your option) any later version.
   
   xtb is distributed in the hope that it will be useful,
   but WITHOUT ANY WARRANTY; without even the implied warranty of
   MERCHANTABILITY or FITNESS FOR A PARTICULAR PURPOSE.  See the
   GNU Lesser General Public License for more details.
   
   Cite this work as:
   * C. Bannwarth, E. Caldeweyher, S. Ehlert, A. Hansen, P. Pracht,
     J. Seibert, S. Spicher, S. Grimme, WIREs Comput. Mol. Sci., 2020, 11,
     e01493. DOI: 10.1002/wcms.1493
   
   for GFN2-xTB:
   * C. Bannwarth, S. Ehlert and S. Grimme., J. Chem. Theory Comput., 2019,
     15, 1652-1671. DOI: 10.1021/acs.jctc.8b01176
   for GFN1-xTB:
   * S. Grimme, C. Bannwarth, P. Shushkov, J. Chem. Theory Comput., 2017,
     13, 1989-2009. DOI: 10.1021/acs.jctc.7b00118
   for GFN0-xTB:
   * P. Pracht, E. Caldeweyher, S. Ehlert, S. Grimme, ChemRxiv, 2019, preprint.
     DOI: 10.26434/chemrxiv.8326202.v1
   for GFN-FF:
   * S. Spicher and S. Grimme, Angew. Chem. Int. Ed., 2020, 59, 15665-15673.
     DOI: 10.1002/anie.202004239
   
   for ALPB and GBSA implicit solvation:
   * S. Ehlert, M. Stahn, S. Spicher, S. Grimme, J. Chem. Theory Comput.,
     2021, 17, 4250-4261. DOI: 10.1021/acs.jctc.1c00471
   
   for ddCOSMO and CPCM-X implicit solvation:
   * M. Stahn, S. Ehlert, S. Grimme, J. Phys. Chem. A,
     2023, XX, XXXX-XXXX. DOI: 10.1021/acs.jpca.3c04382
   
   for DFT-D4:
   * E. Caldeweyher, C. Bannwarth and S. Grimme, J. Chem. Phys., 2017,
     147, 034112. DOI: 10.1063/1.4993215
   * E. Caldeweyher, S. Ehlert, A. Hansen, H. Neugebauer, S. Spicher,
     C. Bannwarth and S. Grimme, J. Chem. Phys., 2019, 150, 154122.
     DOI: 10.1063/1.5090222
   * E. Caldeweyher, J.-M. Mewes, S. Ehlert and S. Grimme, Phys. Chem. Chem. Phys.
     2020, 22, 8499-8512. DOI: 10.1039/D0CP00502A
   
   for sTDA-xTB:
   * S. Grimme and C. Bannwarth, J. Chem. Phys., 2016, 145, 054103.
     DOI: 10.1063/1.4959605
   
   in the mass-spec context:
   * V. Asgeirsson, C. Bauer and S. Grimme, Chem. Sci., 2017, 8, 4879.
     DOI: 10.1039/c7sc00601b
   * J. Koopman and S. Grimme, ACS Omega 2019, 4, 12, 15120-15133.
     DOI: 10.1021/acsomega.9b02011
   
   for metadynamics refer to:
   * S. Grimme, J. Chem. Theory Comput., 2019, 155, 2847-2862
     DOI: 10.1021/acs.jctc.9b00143
   
   for SPH calculations refer to:
   * S. Spicher and S. Grimme, J. Chem. Theory Comput., 2021, 17, 1701-1714
     DOI: 10.1021/acs.jctc.0c01306
   
   for ONIOM refer to:
   * C. Plett, A. Katbashev, S. Ehlert, S. Grimme, M. Bursch,
     Phys. Chem. Chem. Phys., 2023, 25, 17860-17868. DOI: 10.1039/D3CP02178E
   
   for DIPRO refer to:
   * J. Kohn, N. Gildemeister, S. Grimme, D. Fazzi, A. Hansen,
     J. Chem. Phys., 2023, just accepted.
   
   for PTB refer to:
   * S. Grimme, M. Mueller, A. Hansen, J. Chem. Phys., 2023, 158, 124111.
     DOI: 10.1063/5.0137838
   
   with help from (in alphabetical order)
   P. Atkinson, C. Bannwarth, F. Bohle, G. Brandenburg, E. Caldeweyher
   M. Checinski, S. Dohm, S. Ehlert, S. Ehrlich, I. Gerasimov, C. Hölzer
   A. Katbashev, J. Kohn, J. Koopman, C. Lavigne, S. Lehtola, F. März, M. Müller,
   F. Musil, H. Neugebauer, J. Pisarek, C. Plett, P. Pracht, F. Pultar,
   J. Seibert, P. Shushkov, S. Spicher, M. Stahn, M. Steiner, T. Strunk,
   J. Stückrath, T. Rose, and J. Unsleber
   
 * started run on 2026/04/11 at 17:16:35.533     
   ID    Z sym.   atoms
    1    7 N      1, 5, 9
    2    6 C      2, 3, 6, 7, 10, 11
    3    8 O      4, 8, 12, 13
    4    1 H      14-24

           -------------------------------------------------
          |                Calculation Setup                |
           -------------------------------------------------

          program call               : /home/analima/Programs/orca-6.1.0-f.0_linux_x86-64/bin/otool_xtb geo_opt_XTB.xyz --grad -c 0 -u 0 -P 1 --namespace geo_opt --input geo_opt_XTB.input.tmp --alpb WATER --acc 0.200000
          calculation namespace      : geo_opt
          coordinate file            : geo_opt_XTB.xyz
          omp threads                :                     1


           -------------------------------------------------
          |                 G F N 2 - x T B                 |
           -------------------------------------------------

        Reference                      10.1021/acs.jctc.8b01176
      * Hamiltonian:
        H0-scaling (s, p, d)           1.850000    2.230000    2.230000
        zeta-weighting                 0.500000
      * Dispersion:
        s8                             2.700000
        a1                             0.520000
        a2                             5.000000
        s9                             5.000000
      * Repulsion:
        kExp                           1.500000    1.000000
        rExp                           1.000000
      * Coulomb:
        alpha                          2.000000
        third order                    shell-resolved
        anisotropic                    true
        a3                             3.000000
        a5                             4.000000
        cn-shift                       1.200000
        cn-exp                         4.000000
        max-rad                        5.000000

      * Solvation model:               ALPB
        Solvent                        WATER
        Parameter file                 internal GFN2-xTB/ALPB
        Dielectric constant                8.0200E+01
        Reference state                gsolv [1 M gas/solution]
        Free energy shift                  1.0808E-03 Eh       6.7819E-01 kcal/mol
        Temperature                        2.9815E+02 K
        Density                            1.0000E+00 kg/L
        Solvent mass                       1.8000E+01 g/mol
        Interaction kernel             P16
        Born radius scaling (c1)           1.4744E+00
        Born radii integrator          GBOBC
        Born offset                        0.0000E+00 a0       0.0000E+00 AA
        H-bond correction              true
        Ion screening                  false
        Surface tension                    1.0000E-05 Eh       1.5569E+01 dyn/cm
        Grid points                               230 per atom
q/qsh data taken from xtbrestart
CAMM data taken from xtbrestart

          ...................................................
          :                      SETUP                      :
          :.................................................:
          :  # basis functions                  63          :
          :  # atomic orbitals                  63          :
          :  # shells                           37          :
          :  # electrons                        74          :
          :  max. iterations                   250          :
          :  Hamiltonian                  GFN2-xTB          :
          :  restarted?                       true          :
          :  GBSA solvation                   true          :
          :  PC potential                    false          :
          :  electronic temp.          300.0000000     K    :
          :  accuracy                    0.2000000          :
          :  -> integral cutoff          0.3198970E+02      :
          :  -> integral neglect         0.2000000E-08      :
          :  -> SCF convergence          0.2000000E-06 Eh   :
          :  -> wf. convergence          0.2000000E-04 e    :
          :  Broyden damping             0.4000000          :
          :  net charge                          0          :
          :  unpaired electrons                  0          :
          ...................................................

 iter      E             dE          RMSdq      gap      omega  full diag
   1    -43.9467171 -0.439467E+02  0.517E-01    3.44       0.0  T
   2    -43.9469139 -0.196785E-03  0.303E-01    3.43       1.0  T
   3    -43.9469077  0.610528E-05  0.619E-02    3.43       1.0  T
   4    -43.9469425 -0.347991E-04  0.159E-02    3.43       1.3  T
   5    -43.9469433 -0.749465E-06  0.878E-03    3.43       2.3  T
   6    -43.9469434 -0.907275E-07  0.171E-03    3.43      11.9  T
   7    -43.9469434 -0.488465E-08  0.649E-04    3.43      31.4  T
   8    -43.9469434 -0.458243E-09  0.175E-04    3.43     116.9  T
   9    -43.9469434 -0.519975E-10  0.480E-05    3.43     424.8  T

   *** convergence criteria satisfied after 9 iterations ***

         #    Occupation            Energy/Eh            Energy/eV
      -------------------------------------------------------------
         1        2.0000           -0.7319240             -19.9167
       ...           ...                  ...                  ...
        31        2.0000           -0.4393989             -11.9567
        32        2.0000           -0.4272038             -11.6248
        33        2.0000           -0.4223764             -11.4934
        34        2.0000           -0.3989695             -10.8565
        35        2.0000           -0.3939811             -10.7208
        36        2.0000           -0.3854517             -10.4887
        37        2.0000           -0.3580303              -9.7425 (HOMO)
        38                         -0.2320582              -6.3146 (LUMO)
        39                         -0.2099764              -5.7137
        40                         -0.1779538              -4.8424
        41                         -0.0622662              -1.6943
        42                         -0.0156554              -0.4260
       ...                                ...                  ...
        63                          0.6302487              17.1499
      -------------------------------------------------------------
                  HL-Gap            0.1259721 Eh            3.4279 eV
             Fermi-level           -0.2950442 Eh           -8.0286 eV

 SCC (total)                   0 d,  0 h,  0 min,  0.016 sec
 SCC setup                      ...        0 min,  0.000 sec (  2.878%)
 Dispersion                     ...        0 min,  0.000 sec (  0.779%)
 classical contributions        ...        0 min,  0.000 sec (  0.167%)
 integral evaluation            ...        0 min,  0.002 sec ( 13.915%)
 iterations                     ...        0 min,  0.007 sec ( 45.985%)
 molecular gradient             ...        0 min,  0.006 sec ( 35.666%)
 printout                       ...        0 min,  0.000 sec (  0.525%)

         :::::::::::::::::::::::::::::::::::::::::::::::::::::
         ::                     SUMMARY                     ::
         :::::::::::::::::::::::::::::::::::::::::::::::::::::
         :: total energy             -43.524198313730 Eh    ::
         :: total w/o Gsasa/hb       -43.511732869414 Eh    ::
         :: gradient norm              0.041913519139 Eh/a0 ::
         :: HOMO-LUMO gap              3.427875806561 eV    ::
         ::.................................................::
         :: SCC energy               -43.946802074693 Eh    ::
         :: -> isotropic ES            0.385933215459 Eh    ::
         :: -> anisotropic ES         -0.016675128132 Eh    ::
         :: -> anisotropic XC          0.009972653324 Eh    ::
         :: -> dispersion             -0.018281780437 Eh    ::
         :: -> Gsolv                  -0.185580713929 Eh    ::
         ::    -> Gelec               -0.173115269613 Eh    ::
         ::    -> Gsasa                0.005772272060 Eh    ::
         ::    -> Ghb                 -0.019318476075 Eh    ::
         ::    -> Gshift               0.001080759698 Eh    ::
         :: repulsion energy           0.422603760962 Eh    ::
         :: add. restraining           0.000000000000 Eh    ::
         :: total charge               0.000000000000 e     ::
         :::::::::::::::::::::::::::::::::::::::::::::::::::::


Property printout bound to 'properties.out'

           -------------------------------------------------
          | TOTAL ENERGY              -43.524198313730 Eh   |
          | GRADIENT NORM               0.041913519139 Eh/α |
          | HOMO-LUMO GAP               3.427875806561 eV   |
           -------------------------------------------------

------------------------------------------------------------------------
 * finished run on 2026/04/11 at 17:16:35.556     
------------------------------------------------------------------------
 total:
 * wall-time:     0 d,  0 h,  0 min,  0.023 sec
 *  cpu-time:     0 d,  0 h,  0 min,  0.021 sec
 * ratio c/w:     0.935 speedup
 SCF:
 * wall-time:     0 d,  0 h,  0 min,  0.016 sec
 *  cpu-time:     0 d,  0 h,  0 min,  0.015 sec
 * ratio c/w:     0.917 speedup


-------------------------   --------------------
FINAL SINGLE POINT ENERGY       -43.524198313730
-------------------------   --------------------


-------------
DIPOLE MOMENT
-------------
                                X             Y             Z
Total Dipole Moment    :    -13.84600      -0.34200       4.38000
                        -----------------------------------------
Magnitude (a.u.)       :     14.52629
Magnitude (Debye)      :     36.92289


------------------
CARTESIAN GRADIENT
------------------

   1   N   :   -0.000649534   -0.000277659   -0.003310177
   2   C   :    0.000385144   -0.001912680    0.004946683
   3   C   :    0.000453861   -0.002488766   -0.003458379
   4   O   :    0.001522129    0.000581374   -0.002933127
   5   N   :   -0.001456743    0.001693294    0.002468584
   6   C   :    0.000300563    0.000304652    0.000250947
   7   C   :    0.006499806   -0.003236545   -0.006529578
   8   O   :    0.000491780    0.003676414    0.003365841
   9   N   :   -0.007994422    0.001711272    0.000605348
  10   C   :    0.003367633    0.007452074   -0.000016984
  11   C   :   -0.018544900   -0.020647299    0.001998727
  12   O   :   -0.002881340    0.011705245   -0.003014358
  13   O   :    0.020801951   -0.000060012   -0.001803303
  14   H   :    0.000108680   -0.000039587    0.000239084
  15   H   :    0.000458797    0.000153022    0.000020585
  16   H   :   -0.002252287   -0.000889218    0.001259277
  17   H   :   -0.000681568    0.001255088    0.000106583
  18   H   :    0.000130085   -0.000174959   -0.000788194
  19   H   :   -0.001701882    0.001989945    0.001491704
  20   H   :   -0.000849258    0.000406990    0.001373980
  21   H   :    0.000459341   -0.001406539    0.000091575
  22   H   :    0.001990221    0.000479522    0.004122864
  23   H   :    0.000198401   -0.000826285    0.001998342
  24   H   :   -0.000156456    0.000550656   -0.002486024

Difference to translation invariance:
           :   -0.0000000000    0.0000000000   -0.0000000000

Difference to rotation invariance:
           :    0.0004686333    0.0000502491   -0.0001312418

Norm of the Cartesian gradient     ...    0.0419135191
RMS gradient                       ...    0.0049395556
MAX gradient                       ...    0.0208019508
------------------------------------------------------------------------------
                         ORCA GEOMETRY RELAXATION STEP
------------------------------------------------------------------------------

Reading the OPT-File                    .... done
Getting information on internals        .... done
Copying old internal coords+grads       .... done
Making the new internal coordinates     .... (2022 redundants) done
Validating the new internal coordinates .... (2022 redundants) done
Calculating the B-matrix                .... done
Calculating the G,G- and P matrices     .... done
Transforming gradient to internals      .... done
Projecting the internal gradient        .... done
Number of atoms                         ....  24
Number of internal coordinates          .... 102
Current Energy                          ....   -43.524198314 Eh
Current gradient norm                   ....     0.041913519 Eh/bohr
Maximum allowed component of the step   ....  0.300
Current trust radius                    ....  0.700
Updating the Hessian (BFGS)             .... done
Forming the augmented Hessian           .... done
Diagonalizing the augmented Hessian     .... done
Last element of RFO vector              ....  0.947474709
Lowest eigenvalues of augmented Hessian:
 -0.005863531  0.010045347  0.012861009  0.014714914  0.015871983
Length of the computed step             ....  0.337561199
The final length of the internal step   ....  0.337561199
Converting the step to Cartesian space:
 Initial RMS(Int)=    0.0334235391
Transforming coordinates:
 Iter   0:  RMS(Cart)=    0.0716377450 RMS(Int)=    0.6105309215
 Iter   5:  RMS(Cart)=    0.0000000859 RMS(Int)=    0.0000000570
done
Storing new coordinates                 .... done
The predicted energy change is          ....    -0.003265833
Previously predicted energy change      ....    -0.005633566
Actually observed energy change         ....    -0.001259226
Ratio of predicted to observed change   ....     0.223522013
New trust radius                        ....     0.466666667

                                .--------------------.
          ----------------------|Geometry convergence|-------------------------
          Item                value                   Tolerance       Converged
          ---------------------------------------------------------------------
          Energy change      -0.0012592260            0.0000050000      NO
          RMS gradient        0.0032600394            0.0001000000      NO
          MAX gradient        0.0188157944            0.0003000000      NO
          RMS step            0.0334235391            0.0020000000      NO
          MAX step            0.1233878547            0.0040000000      NO
          -------------------------------------------------------------------------
          ........................................................
          Max(Bonds)      0.0420      Max(Angles)    0.68
          Max(Dihed)        7.07      Max(Improp)    0.00
          ---------------------------------------------------------------------

The optimization has not yet converged - more geometry cycles are needed


    ---------------------------------------------------------------------------
                         Redundant Internal Coordinates
                            (Angstroem and degrees)

        Definition                    Value    dE/dq     Step     New-Value
    ----------------------------------------------------------------------------
     1. B(C   1,N   0)                1.4797  0.001687 -0.0011    1.4787   
     2. B(C   2,C   1)                1.5445  0.002226 -0.0015    1.5430   
     3. B(O   3,C   2)                1.2225  0.003089 -0.0015    1.2210   
     4. B(N   4,C   2)                1.3422  0.005044 -0.0026    1.3396   
     5. B(C   5,N   4)                1.4474  0.003051 -0.0023    1.4452   
     6. B(C   6,C   5)                1.5432  0.003093  0.0006    1.5437   
     7. B(O   7,C   6)                1.2276  0.001603 -0.0008    1.2268   
     8. B(N   8,C   6)                1.3339  0.000021  0.0001    1.3340   
     9. B(C   9,N   8)                1.4441  0.003820 -0.0040    1.4401   
    10. B(C  10,C   9)                1.5841  0.004575  0.0007    1.5847   
    11. B(O  11,C  10)                1.2453  0.008087 -0.0032    1.2421   
    12. B(O  12,C  10)                1.2595  0.018816 -0.0114    1.2482   
    13. B(H  13,N   0)                1.0249  0.000049  0.0003    1.0252   
    14. B(H  14,N   0)                1.0255 -0.000245  0.0006    1.0261   
    15. B(H  15,N   0)                1.0362 -0.001715  0.0024    1.0386   
    16. B(H  15,O   3)                2.0545  0.001759 -0.0420    2.0125   
    17. B(H  16,C   1)                1.0878 -0.000991  0.0009    1.0887   
    18. B(H  17,C   1)                1.0884 -0.000546  0.0006    1.0890   
    19. B(H  18,N   4)                1.0118  0.002161 -0.0014    1.0103   
    20. B(H  19,C   5)                1.0930 -0.000839  0.0011    1.0941   
    21. B(H  20,C   5)                1.0892 -0.000799  0.0010    1.0902   
    22. B(H  21,N   8)                1.0067 -0.000687  0.0008    1.0075   
    23. B(H  22,C   9)                1.0920  0.000472 -0.0001    1.0919   
    24. B(H  23,C   9)                1.0878 -0.001644  0.0013    1.0891   
    25. A(H  14,N   0,H  15)          106.62  0.000137   -0.01    106.62   
    26. A(H  13,N   0,H  15)          109.99  0.000266    0.17    110.16   
    27. A(C   1,N   0,H  13)          112.68 -0.000173    0.16    112.85   
    28. A(C   1,N   0,H  14)          111.31 -0.000135    0.01    111.32   
    29. A(H  13,N   0,H  14)          109.72  0.000370    0.43    110.15   
    30. A(C   1,N   0,H  15)          106.29 -0.000467   -0.67    105.62   
    31. A(N   0,C   1,H  17)          110.65 -0.000281    0.16    110.81   
    32. A(N   0,C   1,C   2)          107.52 -0.001128   -0.45    107.07   
    33. A(C   2,C   1,H  16)          109.08  0.000606    0.06    109.14   
    34. A(N   0,C   1,H  16)          111.03  0.000956   -0.14    110.89   
    35. A(C   2,C   1,H  17)          109.42 -0.000302    0.11    109.53   
    36. A(H  16,C   1,H  17)          109.11  0.000135    0.27    109.39   
    37. A(C   1,C   2,N   4)          113.74 -0.003708    0.34    114.08   
    38. A(C   1,C   2,O   3)          120.10  0.001042   -0.35    119.75   
    39. A(O   3,C   2,N   4)          126.15  0.002665    0.01    126.17   
    40. A(C   2,N   4,H  18)          119.74 -0.000839    0.31    120.05   
    41. A(C   2,N   4,C   5)          123.24  0.002620   -0.31    122.92   
    42. A(C   5,N   4,H  18)          116.81 -0.001801   -0.00    116.81   
    43. A(N   4,C   5,H  20)          109.08 -0.001740    0.38    109.46   
    44. A(C   6,C   5,H  19)          105.96 -0.001205    0.04    106.00   
    45. A(N   4,C   5,H  19)          109.89 -0.001003   -0.09    109.80   
    46. A(N   4,C   5,C   6)          117.56  0.004485   -0.67    116.89   
    47. A(H  19,C   5,H  20)          108.28  0.000760    0.25    108.53   
    48. A(C   6,C   5,H  20)          105.67 -0.001432    0.20    105.87   
    49. A(C   5,C   6,O   7)          118.61 -0.001331    0.16    118.77   
    50. A(O   7,C   6,N   8)          125.40  0.004178   -0.06    125.34   
    51. A(C   5,C   6,N   8)          115.48 -0.003043   -0.15    115.33   
    52. A(C   6,N   8,C   9)          122.17 -0.000418    0.16    122.32   
    53. A(C   9,N   8,H  21)          117.30 -0.000444   -0.08    117.22   
    54. A(C   6,N   8,H  21)          119.72  0.001115   -0.05    119.67   
    55. A(H  22,C   9,H  23)          109.16  0.002687    0.18    109.34   
    56. A(N   8,C   9,C  10)          113.76  0.003741   -0.68    113.07   
    57. A(C  10,C   9,H  23)          106.89 -0.002823    0.50    107.39   
    58. A(N   8,C   9,H  23)          109.64 -0.002950    0.46    110.10   
    59. A(C  10,C   9,H  22)          106.79  0.000645   -0.50    106.30   
    60. A(N   8,C   9,H  22)          110.45 -0.001189    0.08    110.53   
    61. A(O  11,C  10,O  12)          128.50  0.004791   -0.12    128.38   
    62. A(C   9,C  10,O  12)          114.27 -0.002968    0.23    114.50   
    63. A(C   9,C  10,O  11)          116.38 -0.004901   -0.19    116.19   
    64. D(H  16,C   1,N   0,H  15)    -96.08 -0.000229   -0.17    -96.25   
    65. D(C   2,C   1,N   0,H  15)     23.16  0.000363   -0.46     22.70   
    66. D(H  16,C   1,N   0,H  13)     24.46 -0.000309   -0.32     24.15   
    67. D(H  16,C   1,N   0,H  14)    148.21 -0.000055    0.32    148.53   
    68. D(C   2,C   1,N   0,H  14)    -92.55  0.000537    0.03    -92.52   
    69. D(C   2,C   1,N   0,H  13)    143.71  0.000283   -0.61    143.10   
    70. D(N   4,C   2,C   1,H  16)    -65.76  0.000481   -0.95    -66.70   
    71. D(N   4,C   2,C   1,N   0)    173.76 -0.000350   -0.56    173.20   
    72. D(O   3,C   2,C   1,H  17)   -125.62  0.000819   -1.05   -126.67   
    73. D(O   3,C   2,C   1,N   0)     -5.40 -0.000359   -1.08     -6.48   
    74. D(O   3,C   2,C   1,H  16)    115.08  0.000472   -1.46    113.62   
    75. D(H  18,N   4,C   2,C   1)     -4.10  0.000203   -0.92     -5.02   
    76. D(C   5,N   4,C   2,O   3)      0.43  0.000547   -0.72     -0.30   
    77. D(H  18,N   4,C   2,O   3)    175.00  0.000191   -0.38    174.62   
    78. D(C   5,N   4,C   2,C   1)   -178.67  0.000559   -1.27   -179.94   
    79. D(H  20,C   5,N   4,C   2)    163.12  0.001326   -3.62    159.49   
    80. D(H  19,C   5,N   4,H  18)   -130.17  0.002345   -4.47   -134.64   
    81. D(H  19,C   5,N   4,C   2)     44.55  0.002038   -4.11     40.44   
    82. D(C   6,C   5,N   4,H  18)    108.59  0.001484   -3.90    104.69   
    83. D(C   6,C   5,N   4,C   2)    -76.69  0.001178   -3.55    -80.24   
    84. D(N   8,C   6,C   5,H  19)   -133.71 -0.000369    1.10   -132.61   
    85. D(N   8,C   6,C   5,N   4)    -10.45  0.000398    0.53     -9.92   
    86. D(O   7,C   6,C   5,H  20)    -60.75  0.001071   -3.57    -64.32   
    87. D(O   7,C   6,C   5,H  19)     54.03  0.000762   -3.18     50.85   
    88. D(O   7,C   6,C   5,N   4)    177.29  0.001529   -3.76    173.53   
    89. D(H  21,N   8,C   6,O   7)    174.38 -0.003184    7.07    181.45   
    90. D(H  21,N   8,C   6,C   5)      2.71 -0.001422    2.85      5.56   
    91. D(C   9,N   8,C   6,O   7)    -16.22 -0.001586    3.47    -12.76   
    92. D(C   9,N   8,C   6,C   5)    172.11  0.000175   -0.75    171.36   
    93. D(C  10,C   9,N   8,H  21)     99.21  0.000165   -3.45     95.77   
    94. D(C  10,C   9,N   8,C   6)    -70.43 -0.001553    0.18    -70.26   
    95. D(H  23,C   9,N   8,C   6)    169.96  0.001673   -0.33    169.63   
    96. D(H  22,C   9,N   8,H  21)   -140.72  0.002700   -4.44   -145.17   
    97. D(H  22,C   9,N   8,C   6)     49.63  0.000982   -0.82     48.81   
    98. D(O  12,C  10,C   9,H  22)     44.97 -0.010257    6.17     51.14   
    99. D(O  12,C  10,C   9,N   8)    167.08 -0.008935    5.43    172.50   
   100. D(O  11,C  10,C   9,H  23)    117.88  0.004454   -4.04    113.84   
   101. D(O  11,C  10,C   9,H  22)   -125.38  0.006488   -3.78   -129.16   
   102. D(O  11,C  10,C   9,N   8)     -3.28  0.007810   -4.52     -7.80   
    ----------------------------------------------------------------------------

Geometry step timings:
Preparation and reading OPT file:      0.000 s ( 0.812 %)
Internal coordinates            :      0.000 s ( 0.928 %)
B/P matrices and projection     :      0.001 s (39.014 %)
Hessian update/contruction      :      0.000 s (10.783 %)
Making the step                 :      0.000 s (27.478 %)
Converting the step to Cartesian:      0.000 s ( 3.884 %)
Storing new data                :      0.000 s ( 0.928 %)
Checking convergence            :      0.000 s ( 0.928 %)
Final printing                  :      0.000 s (15.246 %)
Total time                      :      0.002 s

Time for energy+gradient        :      0.026 s
Time for complete geometry iter :      0.028 s

         *************************************************************
         *                GEOMETRY OPTIMIZATION CYCLE   6            *
         *************************************************************
---------------------------------
CARTESIAN COORDINATES (ANGSTROEM)
---------------------------------
  N    -3.340802   -0.961128   -0.917170
  C    -2.652921   -0.386996    0.259082
  C    -1.449464    0.420538   -0.270419
  O    -1.169125    0.381227   -1.458153
  N    -0.805770    1.123130    0.671098
  C     0.346723    1.947155    0.386106
  C     1.705388    1.225754    0.256824
  O     2.686791    1.869304   -0.100582
  N     1.712030   -0.056035    0.626326
  C     2.845357   -0.913514    0.393830
  C     3.055433   -1.263157   -1.137489
  O     2.160852   -0.896579   -1.917307
  O     4.109002   -1.881370   -1.393809
  H    -3.708284   -1.902227   -0.742996
  H    -4.091508   -0.344507   -1.247419
  H    -2.627298   -0.989396   -1.671404
  H    -2.292091   -1.173254    0.920076
  H    -3.318976    0.273096    0.812714
  H    -1.165608    1.153282    1.614707
  H     0.197103    2.479524   -0.557898
  H     0.473562    2.681123    1.182137
  H     0.845562   -0.502317    0.881462
  H     3.765639   -0.429580    0.727088
  H     2.718405   -1.854073    0.928037

----------------------------
CARTESIAN COORDINATES (A.U.)
----------------------------
  NO LB    ZA    FRAG    MASS        X           Y           Z
   0 N   7.0000    0    14.007   -6.313200   -1.816268   -1.733200
   1 C   6.0000    0    12.011   -5.013293   -0.731316    0.489594
   2 C   6.0000    0    12.011   -2.739090    0.794701   -0.511018
   3 O   8.0000    0    15.999   -2.209327    0.720416   -2.755511
   4 N   7.0000    0    14.007   -1.522685    2.122408    1.268191
   5 C   6.0000    0    12.011    0.655211    3.679589    0.729635
   6 C   6.0000    0    12.011    3.222717    2.316339    0.485327
   7 O   8.0000    0    15.999    5.077299    3.532472   -0.190072
   8 N   7.0000    0    14.007    3.235268   -0.105890    1.183584
   9 C   6.0000    0    12.011    5.376945   -1.726291    0.744231
  10 C   6.0000    0    12.011    5.773931   -2.387022   -2.149543
  11 O   8.0000    0    15.999    4.083418   -1.694289   -3.623185
  12 O   8.0000    0    15.999    7.764889   -3.555273   -2.633918
  13 H   1.0000    0     1.008   -7.007641   -3.594688   -1.404059
  14 H   1.0000    0     1.008   -7.731830   -0.651025   -2.357280
  15 H   1.0000    0     1.008   -4.964874   -1.869688   -3.158495
  16 H   1.0000    0     1.008   -4.331424   -2.217128    1.738691
  17 H   1.0000    0     1.008   -6.271956    0.516076    1.535807
  18 H   1.0000    0     1.008   -2.202680    2.179387    3.051355
  19 H   1.0000    0     1.008    0.372470    4.685622   -1.054274
  20 H   1.0000    0     1.008    0.894902    5.066589    2.233916
  21 H   1.0000    0     1.008    1.597881   -0.949242    1.665723
  22 H   1.0000    0     1.008    7.116027   -0.811789    1.373997
  23 H   1.0000    0     1.008    5.137042   -3.503691    1.753736

      -----------------------------------------------------------      
     |                   =====================                   |     
     |                           x T B                           |     
     |                   =====================                   |     
     |                         S. Grimme                         |     
     |          Mulliken Center for Theoretical Chemistry        |     
     |                    University of Bonn                     |     
      -----------------------------------------------------------      

   * xtb version 6.7.1 (edcfbbe) compiled by 'albert@albert-system' on 2024-07-22

   xtb is free software: you can redistribute it and/or modify it under
   the terms of the GNU Lesser General Public License as published by
   the Free Software Foundation, either version 3 of the License, or
   (at your option) any later version.
   
   xtb is distributed in the hope that it will be useful,
   but WITHOUT ANY WARRANTY; without even the implied warranty of
   MERCHANTABILITY or FITNESS FOR A PARTICULAR PURPOSE.  See the
   GNU Lesser General Public License for more details.
   
   Cite this work as:
   * C. Bannwarth, E. Caldeweyher, S. Ehlert, A. Hansen, P. Pracht,
     J. Seibert, S. Spicher, S. Grimme, WIREs Comput. Mol. Sci., 2020, 11,
     e01493. DOI: 10.1002/wcms.1493
   
   for GFN2-xTB:
   * C. Bannwarth, S. Ehlert and S. Grimme., J. Chem. Theory Comput., 2019,
     15, 1652-1671. DOI: 10.1021/acs.jctc.8b01176
   for GFN1-xTB:
   * S. Grimme, C. Bannwarth, P. Shushkov, J. Chem. Theory Comput., 2017,
     13, 1989-2009. DOI: 10.1021/acs.jctc.7b00118
   for GFN0-xTB:
   * P. Pracht, E. Caldeweyher, S. Ehlert, S. Grimme, ChemRxiv, 2019, preprint.
     DOI: 10.26434/chemrxiv.8326202.v1
   for GFN-FF:
   * S. Spicher and S. Grimme, Angew. Chem. Int. Ed., 2020, 59, 15665-15673.
     DOI: 10.1002/anie.202004239
   
   for ALPB and GBSA implicit solvation:
   * S. Ehlert, M. Stahn, S. Spicher, S. Grimme, J. Chem. Theory Comput.,
     2021, 17, 4250-4261. DOI: 10.1021/acs.jctc.1c00471
   
   for ddCOSMO and CPCM-X implicit solvation:
   * M. Stahn, S. Ehlert, S. Grimme, J. Phys. Chem. A,
     2023, XX, XXXX-XXXX. DOI: 10.1021/acs.jpca.3c04382
   
   for DFT-D4:
   * E. Caldeweyher, C. Bannwarth and S. Grimme, J. Chem. Phys., 2017,
     147, 034112. DOI: 10.1063/1.4993215
   * E. Caldeweyher, S. Ehlert, A. Hansen, H. Neugebauer, S. Spicher,
     C. Bannwarth and S. Grimme, J. Chem. Phys., 2019, 150, 154122.
     DOI: 10.1063/1.5090222
   * E. Caldeweyher, J.-M. Mewes, S. Ehlert and S. Grimme, Phys. Chem. Chem. Phys.
     2020, 22, 8499-8512. DOI: 10.1039/D0CP00502A
   
   for sTDA-xTB:
   * S. Grimme and C. Bannwarth, J. Chem. Phys., 2016, 145, 054103.
     DOI: 10.1063/1.4959605
   
   in the mass-spec context:
   * V. Asgeirsson, C. Bauer and S. Grimme, Chem. Sci., 2017, 8, 4879.
     DOI: 10.1039/c7sc00601b
   * J. Koopman and S. Grimme, ACS Omega 2019, 4, 12, 15120-15133.
     DOI: 10.1021/acsomega.9b02011
   
   for metadynamics refer to:
   * S. Grimme, J. Chem. Theory Comput., 2019, 155, 2847-2862
     DOI: 10.1021/acs.jctc.9b00143
   
   for SPH calculations refer to:
   * S. Spicher and S. Grimme, J. Chem. Theory Comput., 2021, 17, 1701-1714
     DOI: 10.1021/acs.jctc.0c01306
   
   for ONIOM refer to:
   * C. Plett, A. Katbashev, S. Ehlert, S. Grimme, M. Bursch,
     Phys. Chem. Chem. Phys., 2023, 25, 17860-17868. DOI: 10.1039/D3CP02178E
   
   for DIPRO refer to:
   * J. Kohn, N. Gildemeister, S. Grimme, D. Fazzi, A. Hansen,
     J. Chem. Phys., 2023, just accepted.
   
   for PTB refer to:
   * S. Grimme, M. Mueller, A. Hansen, J. Chem. Phys., 2023, 158, 124111.
     DOI: 10.1063/5.0137838
   
   with help from (in alphabetical order)
   P. Atkinson, C. Bannwarth, F. Bohle, G. Brandenburg, E. Caldeweyher
   M. Checinski, S. Dohm, S. Ehlert, S. Ehrlich, I. Gerasimov, C. Hölzer
   A. Katbashev, J. Kohn, J. Koopman, C. Lavigne, S. Lehtola, F. März, M. Müller,
   F. Musil, H. Neugebauer, J. Pisarek, C. Plett, P. Pracht, F. Pultar,
   J. Seibert, P. Shushkov, S. Spicher, M. Stahn, M. Steiner, T. Strunk,
   J. Stückrath, T. Rose, and J. Unsleber
   
 * started run on 2026/04/11 at 17:16:35.561     
   ID    Z sym.   atoms
    1    7 N      1, 5, 9
    2    6 C      2, 3, 6, 7, 10, 11
    3    8 O      4, 8, 12, 13
    4    1 H      14-24

           -------------------------------------------------
          |                Calculation Setup                |
           -------------------------------------------------

          program call               : /home/analima/Programs/orca-6.1.0-f.0_linux_x86-64/bin/otool_xtb geo_opt_XTB.xyz --grad -c 0 -u 0 -P 1 --namespace geo_opt --input geo_opt_XTB.input.tmp --alpb WATER --acc 0.200000
          calculation namespace      : geo_opt
          coordinate file            : geo_opt_XTB.xyz
          omp threads                :                     1


           -------------------------------------------------
          |                 G F N 2 - x T B                 |
           -------------------------------------------------

        Reference                      10.1021/acs.jctc.8b01176
      * Hamiltonian:
        H0-scaling (s, p, d)           1.850000    2.230000    2.230000
        zeta-weighting                 0.500000
      * Dispersion:
        s8                             2.700000
        a1                             0.520000
        a2                             5.000000
        s9                             5.000000
      * Repulsion:
        kExp                           1.500000    1.000000
        rExp                           1.000000
      * Coulomb:
        alpha                          2.000000
        third order                    shell-resolved
        anisotropic                    true
        a3                             3.000000
        a5                             4.000000
        cn-shift                       1.200000
        cn-exp                         4.000000
        max-rad                        5.000000

      * Solvation model:               ALPB
        Solvent                        WATER
        Parameter file                 internal GFN2-xTB/ALPB
        Dielectric constant                8.0200E+01
        Reference state                gsolv [1 M gas/solution]
        Free energy shift                  1.0808E-03 Eh       6.7819E-01 kcal/mol
        Temperature                        2.9815E+02 K
        Density                            1.0000E+00 kg/L
        Solvent mass                       1.8000E+01 g/mol
        Interaction kernel             P16
        Born radius scaling (c1)           1.4744E+00
        Born radii integrator          GBOBC
        Born offset                        0.0000E+00 a0       0.0000E+00 AA
        H-bond correction              true
        Ion screening                  false
        Surface tension                    1.0000E-05 Eh       1.5569E+01 dyn/cm
        Grid points                               230 per atom
q/qsh data taken from xtbrestart
CAMM data taken from xtbrestart

          ...................................................
          :                      SETUP                      :
          :.................................................:
          :  # basis functions                  63          :
          :  # atomic orbitals                  63          :
          :  # shells                           37          :
          :  # electrons                        74          :
          :  max. iterations                   250          :
          :  Hamiltonian                  GFN2-xTB          :
          :  restarted?                       true          :
          :  GBSA solvation                   true          :
          :  PC potential                    false          :
          :  electronic temp.          300.0000000     K    :
          :  accuracy                    0.2000000          :
          :  -> integral cutoff          0.3198970E+02      :
          :  -> integral neglect         0.2000000E-08      :
          :  -> SCF convergence          0.2000000E-06 Eh   :
          :  -> wf. convergence          0.2000000E-04 e    :
          :  Broyden damping             0.4000000          :
          :  net charge                          0          :
          :  unpaired electrons                  0          :
          ...................................................

 iter      E             dE          RMSdq      gap      omega  full diag
   1    -43.9544556 -0.439545E+02  0.256E-01    3.42       0.0  T
   2    -43.9545013 -0.457041E-04  0.150E-01    3.42       1.0  T
   3    -43.9544955  0.577199E-05  0.352E-02    3.42       1.0  T
   4    -43.9545079 -0.123504E-04  0.577E-03    3.42       3.5  T
   5    -43.9545080 -0.973072E-07  0.297E-03    3.42       6.9  T
   6    -43.9545080 -0.828511E-08  0.765E-04    3.42      26.7  T
   7    -43.9545080 -0.275932E-08  0.323E-04    3.42      63.2  T
   8    -43.9545080 -0.215749E-09  0.138E-04    3.42     148.2  T
   9    -43.9545080 -0.543778E-10  0.320E-05    3.42     638.7  T

   *** convergence criteria satisfied after 9 iterations ***

         #    Occupation            Energy/Eh            Energy/eV
      -------------------------------------------------------------
         1        2.0000           -0.7328198             -19.9410
       ...           ...                  ...                  ...
        31        2.0000           -0.4411509             -12.0043
        32        2.0000           -0.4281719             -11.6511
        33        2.0000           -0.4240628             -11.5393
        34        2.0000           -0.4000559             -10.8861
        35        2.0000           -0.3940676             -10.7231
        36        2.0000           -0.3857214             -10.4960
        37        2.0000           -0.3572823              -9.7221 (HOMO)
        38                         -0.2316015              -6.3022 (LUMO)
        39                         -0.2097374              -5.7072
        40                         -0.1722792              -4.6880
        41                         -0.0603739              -1.6429
        42                         -0.0137421              -0.3739
       ...                                ...                  ...
        63                          0.6513087              17.7230
      -------------------------------------------------------------
                  HL-Gap            0.1256808 Eh            3.4199 eV
             Fermi-level           -0.2944419 Eh           -8.0122 eV

 SCC (total)                   0 d,  0 h,  0 min,  0.014 sec
 SCC setup                      ...        0 min,  0.000 sec (  3.198%)
 Dispersion                     ...        0 min,  0.000 sec (  0.859%)
 classical contributions        ...        0 min,  0.000 sec (  0.188%)
 integral evaluation            ...        0 min,  0.001 sec (  8.833%)
 iterations                     ...        0 min,  0.007 sec ( 47.560%)
 molecular gradient             ...        0 min,  0.006 sec ( 38.740%)
 printout                       ...        0 min,  0.000 sec (  0.524%)

         :::::::::::::::::::::::::::::::::::::::::::::::::::::
         ::                     SUMMARY                     ::
         :::::::::::::::::::::::::::::::::::::::::::::::::::::
         :: total energy             -43.527933711665 Eh    ::
         :: total w/o Gsasa/hb       -43.515589987148 Eh    ::
         :: gradient norm              0.017505119336 Eh/a0 ::
         :: HOMO-LUMO gap              3.419948796489 eV    ::
         ::.................................................::
         :: SCC energy               -43.954359321392 Eh    ::
         :: -> isotropic ES            0.381454594538 Eh    ::
         :: -> anisotropic ES         -0.017248084455 Eh    ::
         :: -> anisotropic XC          0.009857778875 Eh    ::
         :: -> dispersion             -0.018323979237 Eh    ::
         :: -> Gsolv                  -0.182058230976 Eh    ::
         ::    -> Gelec               -0.169714506459 Eh    ::
         ::    -> Gsasa                0.005718144989 Eh    ::
         ::    -> Ghb                 -0.019142629204 Eh    ::
         ::    -> Gshift               0.001080759698 Eh    ::
         :: repulsion energy           0.426425609728 Eh    ::
         :: add. restraining           0.000000000000 Eh    ::
         :: total charge               0.000000000000 e     ::
         :::::::::::::::::::::::::::::::::::::::::::::::::::::


Property printout bound to 'properties.out'

           -------------------------------------------------
          | TOTAL ENERGY              -43.527933711665 Eh   |
          | GRADIENT NORM               0.017505119336 Eh/α |
          | HOMO-LUMO GAP               3.419948796489 eV   |
           -------------------------------------------------

------------------------------------------------------------------------
 * finished run on 2026/04/11 at 17:16:35.581     
------------------------------------------------------------------------
 total:
 * wall-time:     0 d,  0 h,  0 min,  0.020 sec
 *  cpu-time:     0 d,  0 h,  0 min,  0.019 sec
 * ratio c/w:     0.922 speedup
 SCF:
 * wall-time:     0 d,  0 h,  0 min,  0.014 sec
 *  cpu-time:     0 d,  0 h,  0 min,  0.013 sec
 * ratio c/w:     0.904 speedup


-------------------------   --------------------
FINAL SINGLE POINT ENERGY       -43.527933711660
-------------------------   --------------------


-------------
DIPOLE MOMENT
-------------
                                X             Y             Z
Total Dipole Moment    :    -13.51900      -0.16900       4.35000
                        -----------------------------------------
Magnitude (a.u.)       :     14.20262
Magnitude (Debye)      :     36.10019


------------------
CARTESIAN GRADIENT
------------------

   1   N   :   -0.000760080   -0.000136255   -0.002680627
   2   C   :    0.001461937   -0.002174814    0.003943766
   3   C   :    0.000614061   -0.000518522   -0.004885524
   4   O   :    0.000372759    0.000135256    0.000056682
   5   N   :   -0.001425216   -0.000033622    0.001742247
   6   C   :   -0.001305685   -0.000216339   -0.000813107
   7   C   :    0.008581230   -0.001411048    0.001619161
   8   O   :   -0.001130565    0.002364123   -0.000587992
   9   N   :   -0.005585859    0.000031928   -0.002535747
  10   C   :   -0.001339741    0.002907783    0.002353547
  11   C   :   -0.001220583   -0.002078216   -0.003106484
  12   O   :   -0.002856234    0.002712824   -0.000427770
  13   O   :    0.006136191   -0.002522585    0.000273273
  14   H   :    0.000169601   -0.000673506    0.000511196
  15   H   :    0.000443843    0.000948179   -0.000176021
  16   H   :   -0.001476704   -0.000624083    0.001211791
  17   H   :   -0.000513156    0.000486490    0.000195353
  18   H   :   -0.000065783    0.000422819   -0.000841234
  19   H   :   -0.001095162    0.002220539    0.000543225
  20   H   :   -0.001045168    0.000701422    0.000440110
  21   H   :    0.000883024   -0.001223421    0.000633906
  22   H   :    0.001178824   -0.000059686    0.002924565
  23   H   :    0.000195099   -0.000845488    0.000403123
  24   H   :   -0.000216633   -0.000413778   -0.000797439

Difference to translation invariance:
           :   -0.0000000000   -0.0000000000   -0.0000000000

Difference to rotation invariance:
           :    0.0004822280   -0.0000332183   -0.0003563434

Norm of the Cartesian gradient     ...    0.0175051193
RMS gradient                       ...    0.0020629981
MAX gradient                       ...    0.0085812303
------------------------------------------------------------------------------
                         ORCA GEOMETRY RELAXATION STEP
------------------------------------------------------------------------------

Reading the OPT-File                    .... done
Getting information on internals        .... done
Copying old internal coords+grads       .... done
Making the new internal coordinates     .... (2022 redundants) done
Validating the new internal coordinates .... (2022 redundants) done
Calculating the B-matrix                .... done
Calculating the G,G- and P matrices     .... done
Transforming gradient to internals      .... done
Projecting the internal gradient        .... done
Number of atoms                         ....  24
Number of internal coordinates          .... 102
Current Energy                          ....   -43.527933712 Eh
Current gradient norm                   ....     0.017505119 Eh/bohr
Maximum allowed component of the step   ....  0.300
Current trust radius                    ....  0.467
Updating the Hessian (BFGS)             .... done
Forming the augmented Hessian           .... done
Diagonalizing the augmented Hessian     .... done
Last element of RFO vector              ....  0.920934803
Lowest eigenvalues of augmented Hessian:
 -0.002911538  0.009179013  0.012771968  0.014601769  0.015883049
Length of the computed step             ....  0.423175101
The final length of the internal step   ....  0.423175101
Converting the step to Cartesian space:
 Initial RMS(Int)=    0.0419005786
Transforming coordinates:
 Iter   0:  RMS(Cart)=    0.1816611057 RMS(Int)=    0.6209311985
 Iter   5:  RMS(Cart)=    0.0000112993 RMS(Int)=    0.0000065857
done
Storing new coordinates                 .... done
The predicted energy change is          ....    -0.001716464
Previously predicted energy change      ....    -0.003265833
Actually observed energy change         ....    -0.003735398
Ratio of predicted to observed change   ....     1.143781085
New trust radius                        ....     0.700000000

                                .--------------------.
          ----------------------|Geometry convergence|-------------------------
          Item                value                   Tolerance       Converged
          ---------------------------------------------------------------------
          Energy change      -0.0037353979            0.0000050000      NO
          RMS gradient        0.0015418089            0.0001000000      NO
          MAX gradient        0.0063734481            0.0003000000      NO
          RMS step            0.0419005786            0.0020000000      NO
          MAX step            0.1423786221            0.0040000000      NO
          -------------------------------------------------------------------------
          ........................................................
          Max(Bonds)      0.0511      Max(Angles)    1.03
          Max(Dihed)        8.16      Max(Improp)    0.00
          ---------------------------------------------------------------------

The optimization has not yet converged - more geometry cycles are needed


    ---------------------------------------------------------------------------
                         Redundant Internal Coordinates
                            (Angstroem and degrees)

        Definition                    Value    dE/dq     Step     New-Value
    ----------------------------------------------------------------------------
     1. B(C   1,N   0)                1.4786  0.001111 -0.0027    1.4760   
     2. B(C   2,C   1)                1.5430  0.001313 -0.0027    1.5403   
     3. B(O   3,C   2)                1.2210 -0.000017  0.0005    1.2215   
     4. B(N   4,C   2)                1.3396  0.002876 -0.0015    1.3380   
     5. B(C   5,N   4)                1.4452  0.001726 -0.0033    1.4418   
     6. B(C   6,C   5)                1.5437  0.002955 -0.0025    1.5413   
     7. B(O   7,C   6)                1.2268  0.000509  0.0002    1.2270   
     8. B(N   8,C   6)                1.3340 -0.000024  0.0021    1.3361   
     9. B(C   9,N   8)                1.4401  0.000898 -0.0032    1.4369   
    10. B(C  10,C   9)                1.5847  0.003829 -0.0024    1.5823   
    11. B(O  11,C  10)                1.2421  0.003123 -0.0019    1.2402   
    12. B(O  12,C  10)                1.2482  0.006373 -0.0068    1.2414   
    13. B(H  13,N   0)                1.0252  0.000650 -0.0001    1.0251   
    14. B(H  14,N   0)                1.0261  0.000296  0.0007    1.0268   
    15. B(H  15,N   0)                1.0386 -0.001452  0.0040    1.0427   
    16. B(H  15,O   3)                2.0125  0.001065 -0.0511    1.9615   
    17. B(H  16,C   1)                1.0887 -0.000401  0.0014    1.0901   
    18. B(H  17,C   1)                1.0890 -0.000131  0.0007    1.0896   
    19. B(H  18,N   4)                1.0103  0.000960  0.0002    1.0105   
    20. B(H  19,C   5)                1.0941  0.000112  0.0007    1.0947   
    21. B(H  20,C   5)                1.0902 -0.000262  0.0015    1.0917   
    22. B(H  21,N   8)                1.0075 -0.000249  0.0014    1.0089   
    23. B(H  22,C   9)                1.0919 -0.000084  0.0005    1.0924   
    24. B(H  23,C   9)                1.0891 -0.000011  0.0008    1.0899   
    25. A(H  14,N   0,H  15)          106.57  0.000180   -0.05    106.52   
    26. A(H  13,N   0,H  15)          110.16  0.000305    0.15    110.30   
    27. A(C   1,N   0,H  13)          112.83 -0.000357    0.19    113.02   
    28. A(C   1,N   0,H  14)          111.29 -0.000526    0.07    111.36   
    29. A(H  13,N   0,H  14)          110.13  0.000893    0.15    110.27   
    30. A(C   1,N   0,H  15)          105.58 -0.000516   -0.62    104.96   
    31. A(N   0,C   1,H  17)          110.81 -0.000321    0.36    111.16   
    32. A(N   0,C   1,C   2)          107.04 -0.000911   -0.43    106.61   
    33. A(C   2,C   1,H  16)          109.14  0.000813   -0.24    108.90   
    34. A(N   0,C   1,H  16)          110.90  0.000597   -0.27    110.63   
    35. A(C   2,C   1,H  17)          109.53 -0.000776    0.37    109.90   
    36. A(H  16,C   1,H  17)          109.38  0.000568    0.17    109.55   
    37. A(C   1,C   2,N   4)          114.08 -0.003610    0.80    114.89   
    38. A(C   1,C   2,O   3)          119.74  0.001011   -0.59    119.14   
    39. A(O   3,C   2,N   4)          126.18  0.002600   -0.20    125.97   
    40. A(C   2,N   4,H  18)          120.06 -0.000513    0.35    120.42   
    41. A(C   2,N   4,C   5)          122.93  0.002540   -0.62    122.31   
    42. A(C   5,N   4,H  18)          116.82 -0.002054    0.27    117.09   
    43. A(N   4,C   5,H  20)          109.43 -0.000832    0.46    109.89   
    44. A(C   6,C   5,H  19)          105.99 -0.000838    0.05    106.04   
    45. A(N   4,C   5,H  19)          109.79 -0.000647   -0.12    109.67   
    46. A(N   4,C   5,C   6)          116.87  0.003214   -1.03    115.84   
    47. A(H  19,C   5,H  20)          108.56  0.000558    0.25    108.81   
    48. A(C   6,C   5,H  20)          105.87 -0.001560    0.51    106.38   
    49. A(C   5,C   6,O   7)          118.90 -0.001464    0.36    119.27   
    50. A(O   7,C   6,N   8)          125.50  0.004672   -0.50    125.00   
    51. A(C   5,C   6,N   8)          115.48 -0.003121    0.39    115.87   
    52. A(C   6,N   8,C   9)          122.10 -0.000282    0.01    122.11   
    53. A(C   9,N   8,H  21)          117.00 -0.000430   -0.19    116.81   
    54. A(C   6,N   8,H  21)          119.44  0.000922   -0.33    119.11   
    55. A(H  22,C   9,H  23)          109.35  0.000522    0.22    109.57   
    56. A(N   8,C   9,C  10)          113.06  0.002677   -0.95    112.11   
    57. A(C  10,C   9,H  23)          107.39 -0.001292    0.55    107.94   
    58. A(N   8,C   9,H  23)          110.08 -0.000778    0.39    110.47   
    59. A(C  10,C   9,H  22)          106.32 -0.001295   -0.10    106.22   
    60. A(N   8,C   9,H  22)          110.50  0.000100   -0.08    110.41   
    61. A(O  11,C  10,O  12)          128.70  0.003078   -0.05    128.65   
    62. A(C   9,C  10,O  12)          114.81 -0.001013    0.51    115.32   
    63. A(C   9,C  10,O  11)          116.49 -0.002059    0.07    116.57   
    64. D(H  16,C   1,N   0,H  15)    -96.23 -0.000231   -0.51    -96.74   
    65. D(C   2,C   1,N   0,H  15)     22.72  0.000535   -1.24     21.48   
    66. D(H  16,C   1,N   0,H  13)     24.14 -0.000397   -0.60     23.54   
    67. D(H  16,C   1,N   0,H  14)    148.52  0.000105   -0.19    148.33   
    68. D(C   2,C   1,N   0,H  14)    -92.53  0.000871   -0.92    -93.45   
    69. D(C   2,C   1,N   0,H  13)    143.09  0.000369   -1.33    141.76   
    70. D(N   4,C   2,C   1,H  16)    -66.71  0.000539   -2.25    -68.96   
    71. D(N   4,C   2,C   1,N   0)    173.20 -0.000099   -1.51    171.69   
    72. D(O   3,C   2,C   1,H  17)   -126.67  0.000867   -1.33   -128.00   
    73. D(O   3,C   2,C   1,N   0)     -6.47 -0.000490   -0.86     -7.33   
    74. D(O   3,C   2,C   1,H  16)    113.62  0.000148   -1.60    112.02   
    75. D(H  18,N   4,C   2,C   1)     -5.03 -0.000216   -0.14     -5.16   
    76. D(C   5,N   4,C   2,O   3)     -0.30  0.000683   -2.03     -2.33   
    77. D(H  18,N   4,C   2,O   3)    174.62  0.000196   -0.83    173.79   
    78. D(C   5,N   4,C   2,C   1)   -179.94  0.000271   -1.34   -181.28   
    79. D(H  20,C   5,N   4,C   2)    159.50  0.001566   -6.40    153.11   
    80. D(H  19,C   5,N   4,H  18)   -134.63  0.002189   -8.16   -142.78   
    81. D(H  19,C   5,N   4,C   2)     40.44  0.001781   -6.90     33.54   
    82. D(C   6,C   5,N   4,H  18)    104.68  0.001513   -7.34     97.34   
    83. D(C   6,C   5,N   4,C   2)    -80.25  0.001104   -6.09    -86.34   
    84. D(N   8,C   6,C   5,H  19)   -132.72  0.001285   -5.05   -137.77   
    85. D(N   8,C   6,C   5,N   4)    -10.04  0.001921   -5.88    -15.92   
    86. D(O   7,C   6,C   5,H  20)    -64.26  0.000138   -1.83    -66.10   
    87. D(O   7,C   6,C   5,H  19)     50.93 -0.000308   -1.31     49.62   
    88. D(O   7,C   6,C   5,N   4)    173.62  0.000329   -2.14    171.47   
    89. D(H  21,N   8,C   6,O   7)   -178.44 -0.000260    3.20   -175.24   
    90. D(H  21,N   8,C   6,C   5)      5.48 -0.001689    6.71     12.19   
    91. D(C   9,N   8,C   6,O   7)    -12.68  0.000686   -1.76    -14.44   
    92. D(C   9,N   8,C   6,C   5)    171.25 -0.000742    1.75    173.00   
    93. D(C  10,C   9,N   8,H  21)     95.82  0.001480   -6.96     88.87   
    94. D(C  10,C   9,N   8,C   6)    -70.27  0.000374   -2.06    -72.34   
    95. D(H  23,C   9,N   8,C   6)    169.63  0.000778   -2.40    167.23   
    96. D(H  22,C   9,N   8,H  21)   -145.15  0.001677   -7.78   -152.93   
    97. D(H  22,C   9,N   8,C   6)     48.75  0.000570   -2.89     45.87   
    98. D(O  12,C  10,C   9,H  22)     51.09 -0.001173    1.68     52.77   
    99. D(O  12,C  10,C   9,N   8)    172.50 -0.000312    0.87    173.37   
   100. D(O  11,C  10,C   9,H  23)    113.87  0.000902   -2.46    111.40   
   101. D(O  11,C  10,C   9,H  22)   -129.17  0.000227   -1.92   -131.09   
   102. D(O  11,C  10,C   9,N   8)     -7.76  0.001088   -2.72    -10.48   
    ----------------------------------------------------------------------------

Geometry step timings:
Preparation and reading OPT file:      0.000 s ( 0.590 %)
Internal coordinates            :      0.000 s ( 0.695 %)
B/P matrices and projection     :      0.001 s (41.924 %)
Hessian update/contruction      :      0.000 s ( 8.753 %)
Making the step                 :      0.001 s (30.636 %)
Converting the step to Cartesian:      0.000 s ( 4.550 %)
Storing new data                :      0.000 s ( 0.868 %)
Checking convergence            :      0.000 s ( 0.903 %)
Final printing                  :      0.000 s (11.080 %)
Total time                      :      0.003 s

Time for energy+gradient        :      0.024 s
Time for complete geometry iter :      0.027 s

         *************************************************************
         *                GEOMETRY OPTIMIZATION CYCLE   7            *
         *************************************************************
---------------------------------
CARTESIAN COORDINATES (ANGSTROEM)
---------------------------------
  N    -3.405001   -0.873884   -0.954425
  C    -2.625720   -0.455506    0.227162
  C    -1.491341    0.448587   -0.290894
  O    -1.323163    0.560765   -1.495537
  N    -0.782551    1.064544    0.662272
  C     0.333044    1.926048    0.358648
  C     1.696931    1.226803    0.196123
  O     2.653528    1.874197   -0.217677
  N     1.767390   -0.021397    0.667427
  C     2.924101   -0.847598    0.457488
  C     3.039997   -1.339531   -1.041960
  O     2.054424   -1.134325   -1.766219
  O     4.085367   -1.950162   -1.316481
  H    -3.725134   -1.846238   -0.899993
  H    -4.200550   -0.246027   -1.119382
  H    -2.757130   -0.750716   -1.762035
  H    -2.187697   -1.321183    0.724285
  H    -3.246197    0.095389    0.933440
  H    -1.051849    0.984573    1.632973
  H     0.147909    2.449630   -0.584728
  H     0.458923    2.665147    1.152140
  H     0.913436   -0.496017    0.919139
  H     3.836755   -0.284436    0.665219
  H     2.884527   -1.728661    1.097857

----------------------------
CARTESIAN COORDINATES (A.U.)
----------------------------
  NO LB    ZA    FRAG    MASS        X           Y           Z
   0 N   7.0000    0    14.007   -6.434519   -1.651402   -1.803602
   1 C   6.0000    0    12.011   -4.961892   -0.860782    0.429273
   2 C   6.0000    0    12.011   -2.818226    0.847707   -0.549710
   3 O   8.0000    0    15.999   -2.500417    1.059691   -2.826155
   4 N   7.0000    0    14.007   -1.478807    2.011696    1.251514
   5 C   6.0000    0    12.011    0.629362    3.639703    0.677747
   6 C   6.0000    0    12.011    3.206735    2.318322    0.370619
   7 O   8.0000    0    15.999    5.014441    3.541719   -0.411351
   8 N   7.0000    0    14.007    3.339883   -0.040434    1.261254
   9 C   6.0000    0    12.011    5.525750   -1.601728    0.864528
  10 C   6.0000    0    12.011    5.744763   -2.531347   -1.969019
  11 O   8.0000    0    15.999    3.882298   -2.143564   -3.337669
  12 O   8.0000    0    15.999    7.720225   -3.685273   -2.487788
  13 H   1.0000    0     1.008   -7.039484   -3.488884   -1.700740
  14 H   1.0000    0     1.008   -7.937889   -0.464924   -2.115326
  15 H   1.0000    0     1.008   -5.210221   -1.418648   -3.329764
  16 H   1.0000    0     1.008   -4.134148   -2.496675    1.368700
  17 H   1.0000    0     1.008   -6.134424    0.180260    1.763946
  18 H   1.0000    0     1.008   -1.987707    1.860573    3.085871
  19 H   1.0000    0     1.008    0.279508    4.629129   -1.104976
  20 H   1.0000    0     1.008    0.867238    5.036399    2.177228
  21 H   1.0000    0     1.008    1.726145   -0.937336    1.736921
  22 H   1.0000    0     1.008    7.250417   -0.537507    1.257081
  23 H   1.0000    0     1.008    5.450967   -3.266697    2.074649

      -----------------------------------------------------------      
     |                   =====================                   |     
     |                           x T B                           |     
     |                   =====================                   |     
     |                         S. Grimme                         |     
     |          Mulliken Center for Theoretical Chemistry        |     
     |                    University of Bonn                     |     
      -----------------------------------------------------------      

   * xtb version 6.7.1 (edcfbbe) compiled by 'albert@albert-system' on 2024-07-22

   xtb is free software: you can redistribute it and/or modify it under
   the terms of the GNU Lesser General Public License as published by
   the Free Software Foundation, either version 3 of the License, or
   (at your option) any later version.
   
   xtb is distributed in the hope that it will be useful,
   but WITHOUT ANY WARRANTY; without even the implied warranty of
   MERCHANTABILITY or FITNESS FOR A PARTICULAR PURPOSE.  See the
   GNU Lesser General Public License for more details.
   
   Cite this work as:
   * C. Bannwarth, E. Caldeweyher, S. Ehlert, A. Hansen, P. Pracht,
     J. Seibert, S. Spicher, S. Grimme, WIREs Comput. Mol. Sci., 2020, 11,
     e01493. DOI: 10.1002/wcms.1493
   
   for GFN2-xTB:
   * C. Bannwarth, S. Ehlert and S. Grimme., J. Chem. Theory Comput., 2019,
     15, 1652-1671. DOI: 10.1021/acs.jctc.8b01176
   for GFN1-xTB:
   * S. Grimme, C. Bannwarth, P. Shushkov, J. Chem. Theory Comput., 2017,
     13, 1989-2009. DOI: 10.1021/acs.jctc.7b00118
   for GFN0-xTB:
   * P. Pracht, E. Caldeweyher, S. Ehlert, S. Grimme, ChemRxiv, 2019, preprint.
     DOI: 10.26434/chemrxiv.8326202.v1
   for GFN-FF:
   * S. Spicher and S. Grimme, Angew. Chem. Int. Ed., 2020, 59, 15665-15673.
     DOI: 10.1002/anie.202004239
   
   for ALPB and GBSA implicit solvation:
   * S. Ehlert, M. Stahn, S. Spicher, S. Grimme, J. Chem. Theory Comput.,
     2021, 17, 4250-4261. DOI: 10.1021/acs.jctc.1c00471
   
   for ddCOSMO and CPCM-X implicit solvation:
   * M. Stahn, S. Ehlert, S. Grimme, J. Phys. Chem. A,
     2023, XX, XXXX-XXXX. DOI: 10.1021/acs.jpca.3c04382
   
   for DFT-D4:
   * E. Caldeweyher, C. Bannwarth and S. Grimme, J. Chem. Phys., 2017,
     147, 034112. DOI: 10.1063/1.4993215
   * E. Caldeweyher, S. Ehlert, A. Hansen, H. Neugebauer, S. Spicher,
     C. Bannwarth and S. Grimme, J. Chem. Phys., 2019, 150, 154122.
     DOI: 10.1063/1.5090222
   * E. Caldeweyher, J.-M. Mewes, S. Ehlert and S. Grimme, Phys. Chem. Chem. Phys.
     2020, 22, 8499-8512. DOI: 10.1039/D0CP00502A
   
   for sTDA-xTB:
   * S. Grimme and C. Bannwarth, J. Chem. Phys., 2016, 145, 054103.
     DOI: 10.1063/1.4959605
   
   in the mass-spec context:
   * V. Asgeirsson, C. Bauer and S. Grimme, Chem. Sci., 2017, 8, 4879.
     DOI: 10.1039/c7sc00601b
   * J. Koopman and S. Grimme, ACS Omega 2019, 4, 12, 15120-15133.
     DOI: 10.1021/acsomega.9b02011
   
   for metadynamics refer to:
   * S. Grimme, J. Chem. Theory Comput., 2019, 155, 2847-2862
     DOI: 10.1021/acs.jctc.9b00143
   
   for SPH calculations refer to:
   * S. Spicher and S. Grimme, J. Chem. Theory Comput., 2021, 17, 1701-1714
     DOI: 10.1021/acs.jctc.0c01306
   
   for ONIOM refer to:
   * C. Plett, A. Katbashev, S. Ehlert, S. Grimme, M. Bursch,
     Phys. Chem. Chem. Phys., 2023, 25, 17860-17868. DOI: 10.1039/D3CP02178E
   
   for DIPRO refer to:
   * J. Kohn, N. Gildemeister, S. Grimme, D. Fazzi, A. Hansen,
     J. Chem. Phys., 2023, just accepted.
   
   for PTB refer to:
   * S. Grimme, M. Mueller, A. Hansen, J. Chem. Phys., 2023, 158, 124111.
     DOI: 10.1063/5.0137838
   
   with help from (in alphabetical order)
   P. Atkinson, C. Bannwarth, F. Bohle, G. Brandenburg, E. Caldeweyher
   M. Checinski, S. Dohm, S. Ehlert, S. Ehrlich, I. Gerasimov, C. Hölzer
   A. Katbashev, J. Kohn, J. Koopman, C. Lavigne, S. Lehtola, F. März, M. Müller,
   F. Musil, H. Neugebauer, J. Pisarek, C. Plett, P. Pracht, F. Pultar,
   J. Seibert, P. Shushkov, S. Spicher, M. Stahn, M. Steiner, T. Strunk,
   J. Stückrath, T. Rose, and J. Unsleber
   
 * started run on 2026/04/11 at 17:16:35.589     
   ID    Z sym.   atoms
    1    7 N      1, 5, 9
    2    6 C      2, 3, 6, 7, 10, 11
    3    8 O      4, 8, 12, 13
    4    1 H      14-24

           -------------------------------------------------
          |                Calculation Setup                |
           -------------------------------------------------

          program call               : /home/analima/Programs/orca-6.1.0-f.0_linux_x86-64/bin/otool_xtb geo_opt_XTB.xyz --grad -c 0 -u 0 -P 1 --namespace geo_opt --input geo_opt_XTB.input.tmp --alpb WATER --acc 0.200000
          calculation namespace      : geo_opt
          coordinate file            : geo_opt_XTB.xyz
          omp threads                :                     1


           -------------------------------------------------
          |                 G F N 2 - x T B                 |
           -------------------------------------------------

        Reference                      10.1021/acs.jctc.8b01176
      * Hamiltonian:
        H0-scaling (s, p, d)           1.850000    2.230000    2.230000
        zeta-weighting                 0.500000
      * Dispersion:
        s8                             2.700000
        a1                             0.520000
        a2                             5.000000
        s9                             5.000000
      * Repulsion:
        kExp                           1.500000    1.000000
        rExp                           1.000000
      * Coulomb:
        alpha                          2.000000
        third order                    shell-resolved
        anisotropic                    true
        a3                             3.000000
        a5                             4.000000
        cn-shift                       1.200000
        cn-exp                         4.000000
        max-rad                        5.000000

      * Solvation model:               ALPB
        Solvent                        WATER
        Parameter file                 internal GFN2-xTB/ALPB
        Dielectric constant                8.0200E+01
        Reference state                gsolv [1 M gas/solution]
        Free energy shift                  1.0808E-03 Eh       6.7819E-01 kcal/mol
        Temperature                        2.9815E+02 K
        Density                            1.0000E+00 kg/L
        Solvent mass                       1.8000E+01 g/mol
        Interaction kernel             P16
        Born radius scaling (c1)           1.4744E+00
        Born radii integrator          GBOBC
        Born offset                        0.0000E+00 a0       0.0000E+00 AA
        H-bond correction              true
        Ion screening                  false
        Surface tension                    1.0000E-05 Eh       1.5569E+01 dyn/cm
        Grid points                               230 per atom
q/qsh data taken from xtbrestart
CAMM data taken from xtbrestart

          ...................................................
          :                      SETUP                      :
          :.................................................:
          :  # basis functions                  63          :
          :  # atomic orbitals                  63          :
          :  # shells                           37          :
          :  # electrons                        74          :
          :  max. iterations                   250          :
          :  Hamiltonian                  GFN2-xTB          :
          :  restarted?                       true          :
          :  GBSA solvation                   true          :
          :  PC potential                    false          :
          :  electronic temp.          300.0000000     K    :
          :  accuracy                    0.2000000          :
          :  -> integral cutoff          0.3198970E+02      :
          :  -> integral neglect         0.2000000E-08      :
          :  -> SCF convergence          0.2000000E-06 Eh   :
          :  -> wf. convergence          0.2000000E-04 e    :
          :  Broyden damping             0.4000000          :
          :  net charge                          0          :
          :  unpaired electrons                  0          :
          ...................................................

 iter      E             dE          RMSdq      gap      omega  full diag
   1    -43.9580314 -0.439580E+02  0.522E-01    3.41       0.0  T
   2    -43.9580885 -0.571008E-04  0.304E-01    3.41       1.0  T
   3    -43.9580956 -0.712543E-05  0.296E-02    3.42       1.0  T
   4    -43.9581057 -0.100324E-04  0.117E-02    3.42       1.7  T
   5    -43.9581059 -0.257890E-06  0.560E-03    3.42       3.6  T
   6    -43.9581060 -0.534595E-07  0.123E-03    3.42      16.5  T
   7    -43.9581060 -0.372751E-08  0.636E-04    3.42      32.1  T
   8    -43.9581060 -0.684096E-09  0.198E-04    3.42     103.2  T
   9    -43.9581060 -0.222400E-09  0.506E-05    3.42     403.4  T

   *** convergence criteria satisfied after 9 iterations ***

         #    Occupation            Energy/Eh            Energy/eV
      -------------------------------------------------------------
         1        2.0000           -0.7332074             -19.9516
       ...           ...                  ...                  ...
        31        2.0000           -0.4435045             -12.0684
        32        2.0000           -0.4300013             -11.7009
        33        2.0000           -0.4258094             -11.5869
        34        2.0000           -0.4014646             -10.9244
        35        2.0000           -0.3945527             -10.7363
        36        2.0000           -0.3865076             -10.5174
        37        2.0000           -0.3574656              -9.7271 (HOMO)
        38                         -0.2319029              -6.3104 (LUMO)
        39                         -0.2116057              -5.7581
        40                         -0.1710881              -4.6555
        41                         -0.0576354              -1.5683
        42                         -0.0119741              -0.3258
       ...                                ...                  ...
        63                          0.6609603              17.9856
      -------------------------------------------------------------
                  HL-Gap            0.1255627 Eh            3.4167 eV
             Fermi-level           -0.2946843 Eh           -8.0188 eV

 SCC (total)                   0 d,  0 h,  0 min,  0.014 sec
 SCC setup                      ...        0 min,  0.000 sec (  3.084%)
 Dispersion                     ...        0 min,  0.000 sec (  0.852%)
 classical contributions        ...        0 min,  0.000 sec (  0.181%)
 integral evaluation            ...        0 min,  0.002 sec ( 15.612%)
 iterations                     ...        0 min,  0.008 sec ( 52.990%)
 molecular gradient             ...        0 min,  0.004 sec ( 26.802%)
 printout                       ...        0 min,  0.000 sec (  0.384%)

         :::::::::::::::::::::::::::::::::::::::::::::::::::::
         ::                     SUMMARY                     ::
         :::::::::::::::::::::::::::::::::::::::::::::::::::::
         :: total energy             -43.530124614698 Eh    ::
         :: total w/o Gsasa/hb       -43.517974653015 Eh    ::
         :: gradient norm              0.016175113096 Eh/a0 ::
         :: HOMO-LUMO gap              3.416735680785 eV    ::
         ::.................................................::
         :: SCC energy               -43.957957266315 Eh    ::
         :: -> isotropic ES            0.375341792654 Eh    ::
         :: -> anisotropic ES         -0.018734573222 Eh    ::
         :: -> anisotropic XC          0.009690374380 Eh    ::
         :: -> dispersion             -0.018212272932 Eh    ::
         :: -> Gsolv                  -0.176616215721 Eh    ::
         ::    -> Gelec               -0.164466254039 Eh    ::
         ::    -> Gsasa                0.005801774397 Eh    ::
         ::    -> Ghb                 -0.019032495778 Eh    ::
         ::    -> Gshift               0.001080759698 Eh    ::
         :: repulsion energy           0.427832651618 Eh    ::
         :: add. restraining           0.000000000000 Eh    ::
         :: total charge               0.000000000000 e     ::
         :::::::::::::::::::::::::::::::::::::::::::::::::::::


Property printout bound to 'properties.out'

           -------------------------------------------------
          | TOTAL ENERGY              -43.530124614698 Eh   |
          | GRADIENT NORM               0.016175113096 Eh/α |
          | HOMO-LUMO GAP               3.416735680785 eV   |
           -------------------------------------------------

------------------------------------------------------------------------
 * finished run on 2026/04/11 at 17:16:35.609     
------------------------------------------------------------------------
 total:
 * wall-time:     0 d,  0 h,  0 min,  0.020 sec
 *  cpu-time:     0 d,  0 h,  0 min,  0.018 sec
 * ratio c/w:     0.919 speedup
 SCF:
 * wall-time:     0 d,  0 h,  0 min,  0.014 sec
 *  cpu-time:     0 d,  0 h,  0 min,  0.013 sec
 * ratio c/w:     0.895 speedup


-------------------------   --------------------
FINAL SINGLE POINT ENERGY       -43.530124614700
-------------------------   --------------------


-------------
DIPOLE MOMENT
-------------
                                X             Y             Z
Total Dipole Moment    :    -13.19400       0.08600       4.19000
                        -----------------------------------------
Magnitude (a.u.)       :     13.84360
Magnitude (Debye)      :     35.18762


------------------
CARTESIAN GRADIENT
------------------

   1   N   :   -0.000017188   -0.000168560   -0.000780952
   2   C   :    0.001230144   -0.001594642    0.001567220
   3   C   :    0.000535202   -0.000265160   -0.004875135
   4   O   :   -0.001175369   -0.000056702    0.001176517
   5   N   :    0.000894574   -0.000268817    0.001491585
   6   C   :   -0.001850550    0.000520060    0.001380337
   7   C   :    0.004355253   -0.002777050   -0.004043442
   8   O   :   -0.001209406    0.001664466    0.001492322
   9   N   :   -0.001244095   -0.001219227   -0.002977414
  10   C   :   -0.003157698    0.000826056    0.003770264
  11   C   :    0.004199943    0.003974025   -0.007349795
  12   O   :    0.000370657   -0.001549055    0.002406876
  13   O   :   -0.002566701   -0.000617021    0.002567217
  14   H   :    0.000084569   -0.000980668    0.000549269
  15   H   :    0.000180780    0.001522826   -0.000179233
  16   H   :   -0.000426034   -0.000391947    0.000221070
  17   H   :   -0.000287390   -0.000430450    0.000052238
  18   H   :   -0.000354466    0.000872982   -0.000388157
  19   H   :   -0.000984708    0.002223839    0.000964169
  20   H   :   -0.000361216    0.000468510   -0.000376019
  21   H   :    0.000540796   -0.000267721    0.001147185
  22   H   :    0.000504178    0.000159554    0.002538430
  23   H   :    0.000784258   -0.000622066   -0.000393689
  24   H   :   -0.000045532   -0.001023234    0.000039139

Difference to translation invariance:
           :   -0.0000000000   -0.0000000000   -0.0000000000

Difference to rotation invariance:
           :    0.0001242363   -0.0000177622   -0.0000045581

Norm of the Cartesian gradient     ...    0.0161751131
RMS gradient                       ...    0.0019062554
MAX gradient                       ...    0.0073497948
------------------------------------------------------------------------------
                         ORCA GEOMETRY RELAXATION STEP
------------------------------------------------------------------------------

Reading the OPT-File                    .... done
Getting information on internals        .... done
Copying old internal coords+grads       .... done
Making the new internal coordinates     .... (2022 redundants) done
Validating the new internal coordinates .... (2022 redundants) done
Calculating the B-matrix                .... done
Calculating the G,G- and P matrices     .... done
Transforming gradient to internals      .... done
Projecting the internal gradient        .... done
Number of atoms                         ....  24
Number of internal coordinates          .... 102
Current Energy                          ....   -43.530124615 Eh
Current gradient norm                   ....     0.016175113 Eh/bohr
Maximum allowed component of the step   ....  0.300
Current trust radius                    ....  0.700
Updating the Hessian (BFGS)             .... done
Forming the augmented Hessian           .... done
Diagonalizing the augmented Hessian     .... done
Last element of RFO vector              ....  0.840815893
Lowest eigenvalues of augmented Hessian:
 -0.003258343  0.005730745  0.012580774  0.014470328  0.015929899
Length of the computed step             ....  0.643804664
The final length of the internal step   ....  0.643804664
Converting the step to Cartesian space:
 Initial RMS(Int)=    0.0637461606
Transforming coordinates:
 Iter   0:  RMS(Cart)=    0.2526432599 RMS(Int)=    0.0652166313
 Iter   5:  RMS(Cart)=    0.0000839512 RMS(Int)=    0.0000345796
 Iter  10:  RMS(Cart)=    0.0000000698 RMS(Int)=    0.0000000449
done
Storing new coordinates                 .... done
The predicted energy change is          ....    -0.002304438
Previously predicted energy change      ....    -0.001716464
Actually observed energy change         ....    -0.002190903
Ratio of predicted to observed change   ....     1.276404687
New trust radius                        ....     0.700000000

                                .--------------------.
          ----------------------|Geometry convergence|-------------------------
          Item                value                   Tolerance       Converged
          ---------------------------------------------------------------------
          Energy change      -0.0021909030            0.0000050000      NO
          RMS gradient        0.0011755679            0.0001000000      NO
          MAX gradient        0.0027750575            0.0003000000      NO
          RMS step            0.0637461606            0.0020000000      NO
          MAX step            0.2501280882            0.0040000000      NO
          -------------------------------------------------------------------------
          ........................................................
          Max(Bonds)      0.0677      Max(Angles)    1.47
          Max(Dihed)       14.33      Max(Improp)    0.00
          ---------------------------------------------------------------------

The optimization has not yet converged - more geometry cycles are needed


    ---------------------------------------------------------------------------
                         Redundant Internal Coordinates
                            (Angstroem and degrees)

        Definition                    Value    dE/dq     Step     New-Value
    ----------------------------------------------------------------------------
     1. B(C   1,N   0)                1.4760  0.000055 -0.0027    1.4732   
     2. B(C   2,C   1)                1.5403  0.000488 -0.0029    1.5375   
     3. B(O   3,C   2)                1.2215 -0.001335  0.0020    1.2235   
     4. B(N   4,C   2)                1.3380  0.002699 -0.0035    1.3346   
     5. B(C   5,N   4)                1.4418 -0.000070 -0.0034    1.4385   
     6. B(C   6,C   5)                1.5413  0.002504 -0.0046    1.5366   
     7. B(O   7,C   6)                1.2270 -0.000567  0.0010    1.2279   
     8. B(N   8,C   6)                1.3361  0.000220  0.0033    1.3393   
     9. B(C   9,N   8)                1.4369 -0.001055 -0.0022    1.4347   
    10. B(C  10,C   9)                1.5823  0.001834 -0.0023    1.5801   
    11. B(O  11,C  10)                1.2402 -0.001957  0.0006    1.2407   
    12. B(O  12,C  10)                1.2414 -0.002425 -0.0018    1.2396   
    13. B(H  13,N   0)                1.0251  0.000934 -0.0012    1.0240   
    14. B(H  14,N   0)                1.0268  0.000819 -0.0002    1.0266   
    15. B(H  15,N   0)                1.0427 -0.000362  0.0051    1.0478   
    16. B(H  15,O   3)                1.9614  0.000283 -0.0677    1.8938   
    17. B(H  16,C   1)                1.0901  0.000250  0.0011    1.0912   
    18. B(H  17,C   1)                1.0896  0.000392  0.0001    1.0897   
    19. B(H  18,N   4)                1.0105  0.001012 -0.0004    1.0101   
    20. B(H  19,C   5)                1.0947  0.000611 -0.0003    1.0944   
    21. B(H  20,C   5)                1.0917  0.000714  0.0004    1.0920   
    22. B(H  21,N   8)                1.0089  0.000131  0.0018    1.0107   
    23. B(H  22,C   9)                1.0924  0.000260 -0.0003    1.0920   
    24. B(H  23,C   9)                1.0899  0.000852 -0.0002    1.0897   
    25. A(H  14,N   0,H  15)          106.54 -0.000044   -0.00    106.54   
    26. A(H  13,N   0,H  15)          110.32  0.000149    0.16    110.47   
    27. A(C   1,N   0,H  13)          113.03 -0.000531    0.31    113.35   
    28. A(C   1,N   0,H  14)          111.37 -0.000818    0.23    111.60   
    29. A(H  13,N   0,H  14)          110.28  0.001049    0.09    110.37   
    30. A(C   1,N   0,H  15)          104.98  0.000179   -0.91    104.07   
    31. A(N   0,C   1,H  17)          111.20 -0.000135    0.54    111.73   
    32. A(N   0,C   1,C   2)          106.62 -0.000372   -0.42    106.19   
    33. A(C   2,C   1,H  16)          108.88  0.000916   -0.59    108.28   
    34. A(N   0,C   1,H  16)          110.62 -0.000107   -0.35    110.26   
    35. A(C   2,C   1,H  17)          109.91 -0.000903    0.64    110.55   
    36. A(H  16,C   1,H  17)          109.55  0.000588    0.13    109.69   
    37. A(C   1,C   2,N   4)          114.88 -0.002616    1.22    116.10   
    38. A(C   1,C   2,O   3)          119.14  0.000126   -0.71    118.43   
    39. A(O   3,C   2,N   4)          125.97  0.002486   -0.52    125.45   
    40. A(C   2,N   4,H  18)          120.44 -0.000234    0.54    120.98   
    41. A(C   2,N   4,C   5)          122.34  0.002131   -1.02    121.31   
    42. A(C   5,N   4,H  18)          117.11 -0.001938    0.57    117.68   
    43. A(N   4,C   5,H  20)          109.92 -0.001120    0.93    110.85   
    44. A(C   6,C   5,H  19)          106.01 -0.000867    0.11    106.12   
    45. A(N   4,C   5,H  19)          109.66  0.000220   -0.40    109.26   
    46. A(N   4,C   5,C   6)          115.84  0.001755   -1.47    114.37   
    47. A(H  19,C   5,H  20)          108.79  0.000779    0.14    108.93   
    48. A(C   6,C   5,H  20)          106.37 -0.000776    0.78    107.14   
    49. A(C   5,C   6,O   7)          119.08 -0.001964    0.45    119.53   
    50. A(O   7,C   6,N   8)          124.81  0.002527   -0.97    123.83   
    51. A(C   5,C   6,N   8)          115.68 -0.000691    0.07    115.75   
    52. A(C   6,N   8,C   9)          121.88  0.000123   -0.22    121.65   
    53. A(C   9,N   8,H  21)          116.57  0.000050   -0.61    115.96   
    54. A(C   6,N   8,H  21)          118.87  0.000229   -0.68    118.19   
    55. A(H  22,C   9,H  23)          109.59 -0.000247    0.26    109.86   
    56. A(N   8,C   9,C  10)          112.10  0.001397   -1.31    110.79   
    57. A(C  10,C   9,H  23)          107.95 -0.000510    0.70    108.65   
    58. A(N   8,C   9,H  23)          110.47  0.000493    0.33    110.80   
    59. A(C  10,C   9,H  22)          106.22 -0.002221    0.30    106.52   
    60. A(N   8,C   9,H  22)          110.39  0.000942   -0.27    110.12   
    61. A(O  11,C  10,O  12)          128.42  0.001899   -0.50    127.93   
    62. A(C   9,C  10,O  12)          115.10 -0.001737    0.57    115.67   
    63. A(C   9,C  10,O  11)          116.34 -0.000471   -0.41    115.94   
    64. D(H  16,C   1,N   0,H  15)    -96.75 -0.000186   -1.08    -97.83   
    65. D(C   2,C   1,N   0,H  15)     21.48  0.000634   -2.25     19.23   
    66. D(H  16,C   1,N   0,H  13)     23.53 -0.000185   -1.29     22.25   
    67. D(H  16,C   1,N   0,H  14)    148.33  0.000156   -0.75    147.58   
    68. D(C   2,C   1,N   0,H  14)    -93.44  0.000976   -1.92    -95.36   
    69. D(C   2,C   1,N   0,H  13)    141.77  0.000635   -2.46    139.31   
    70. D(N   4,C   2,C   1,H  16)    -68.95 -0.000004   -2.11    -71.07   
    71. D(N   4,C   2,C   1,N   0)    171.68 -0.000158   -1.10    170.58   
    72. D(O   3,C   2,C   1,H  17)   -127.98  0.000888   -2.73   -130.71   
    73. D(O   3,C   2,C   1,N   0)     -7.35 -0.000004   -1.90     -9.25   
    74. D(O   3,C   2,C   1,H  16)    112.01  0.000151   -2.91    109.10   
    75. D(H  18,N   4,C   2,C   1)     -5.14 -0.000364    0.27     -4.87   
    76. D(C   5,N   4,C   2,O   3)     -2.35  0.000255   -1.96     -4.31   
    77. D(H  18,N   4,C   2,O   3)    173.82 -0.000562    1.10    174.91   
    78. D(C   5,N   4,C   2,C   1)    178.69  0.000453   -2.78    175.91   
    79. D(H  20,C   5,N   4,C   2)    153.08  0.001201   -8.82    144.26   
    80. D(H  19,C   5,N   4,H  18)   -142.75  0.001533  -12.40   -155.15   
    81. D(H  19,C   5,N   4,C   2)     33.53  0.000797   -9.33     24.20   
    82. D(C   6,C   5,N   4,H  18)     97.36  0.001287  -11.17     86.19   
    83. D(C   6,C   5,N   4,C   2)    -86.36  0.000551   -8.10    -94.45   
    84. D(N   8,C   6,C   5,H  19)   -137.65 -0.000072   -4.08   -141.73   
    85. D(N   8,C   6,C   5,N   4)    -15.80  0.000683   -5.49    -21.29   
    86. D(O   7,C   6,C   5,H  20)    -66.16  0.000665   -6.00    -72.15   
    87. D(O   7,C   6,C   5,H  19)     49.53  0.000794   -5.44     44.09   
    88. D(O   7,C   6,C   5,N   4)    171.38  0.001548   -6.85    164.54   
    89. D(H  21,N   8,C   6,O   7)   -175.36 -0.000884    5.92   -169.43   
    90. D(H  21,N   8,C   6,C   5)     12.29  0.000421    4.92     17.21   
    91. D(C   9,N   8,C   6,O   7)    -14.54  0.000522   -3.56    -18.10   
    92. D(C   9,N   8,C   6,C   5)    173.11  0.001827   -4.57    168.54   
    93. D(C  10,C   9,N   8,H  21)     88.89  0.002588  -13.67     75.22   
    94. D(C  10,C   9,N   8,C   6)    -72.35  0.001180   -4.29    -76.63   
    95. D(H  23,C   9,N   8,C   6)    167.22  0.000550   -4.53    162.69   
    96. D(H  22,C   9,N   8,H  21)   -152.92  0.001316  -14.33   -167.25   
    97. D(H  22,C   9,N   8,C   6)     45.85 -0.000092   -4.95     40.90   
    98. D(O  12,C  10,C   9,H  22)     52.75  0.002245   -0.57     52.18   
    99. D(O  12,C  10,C   9,N   8)    173.39  0.002775   -1.48    171.90   
   100. D(O  11,C  10,C   9,H  23)    111.42 -0.000405   -2.44    108.97   
   101. D(O  11,C  10,C   9,H  22)   -131.11 -0.002091   -1.59   -132.70   
   102. D(O  11,C  10,C   9,N   8)    -10.47 -0.001561   -2.50    -12.98   
    ----------------------------------------------------------------------------

Geometry step timings:
Preparation and reading OPT file:      0.000 s ( 0.533 %)
Internal coordinates            :      0.000 s ( 0.639 %)
B/P matrices and projection     :      0.001 s (42.202 %)
Hessian update/contruction      :      0.000 s ( 9.201 %)
Making the step                 :      0.001 s (30.515 %)
Converting the step to Cartesian:      0.000 s ( 4.831 %)
Storing new data                :      0.000 s ( 0.782 %)
Checking convergence            :      0.000 s ( 0.959 %)
Final printing                  :      0.000 s (10.337 %)
Total time                      :      0.003 s

Time for energy+gradient        :      0.024 s
Time for complete geometry iter :      0.027 s

         *************************************************************
         *                GEOMETRY OPTIMIZATION CYCLE   8            *
         *************************************************************
---------------------------------
CARTESIAN COORDINATES (ANGSTROEM)
---------------------------------
  N    -3.409903   -0.801121   -1.017288
  C    -2.547037   -0.549413    0.149823
  C    -1.507556    0.488589   -0.303262
  O    -1.448306    0.772379   -1.491917
  N    -0.740577    1.009680    0.656547
  C     0.325971    1.924108    0.347522
  C     1.703900    1.261446    0.194442
  O     2.621079    1.880526   -0.337859
  N     1.846987    0.065259    0.779646
  C     2.988190   -0.760231    0.506764
  C     2.847506   -1.463287   -0.901251
  O     1.723358   -1.414476   -1.424091
  O     3.849176   -2.074706   -1.300504
  H    -3.654997   -1.788274   -1.135483
  H    -4.257906   -0.223033   -0.992289
  H    -2.842283   -0.464105   -1.831063
  H    -2.019077   -1.461413    0.433174
  H    -3.116338   -0.175302    1.000343
  H    -0.897352    0.782577    1.628240
  H     0.116253    2.412590   -0.609151
  H     0.420001    2.687418    1.122803
  H     1.006209   -0.431351    1.040233
  H     3.891503   -0.148446    0.459124
  H     3.101195   -1.529414    1.270337

----------------------------
CARTESIAN COORDINATES (A.U.)
----------------------------
  NO LB    ZA    FRAG    MASS        X           Y           Z
   0 N   7.0000    0    14.007   -6.443782   -1.513900   -1.922396
   1 C   6.0000    0    12.011   -4.813202   -1.038241    0.283124
   2 C   6.0000    0    12.011   -2.848868    0.923299   -0.573083
   3 O   8.0000    0    15.999   -2.736901    1.459585   -2.819315
   4 N   7.0000    0    14.007   -1.399488    1.908018    1.240695
   5 C   6.0000    0    12.011    0.615996    3.636037    0.656721
   6 C   6.0000    0    12.011    3.219904    2.383788    0.367443
   7 O   8.0000    0    15.999    4.953121    3.553679   -0.638460
   8 N   7.0000    0    14.007    3.490300    0.123322    1.473317
   9 C   6.0000    0    12.011    5.646860   -1.436629    0.957646
  10 C   6.0000    0    12.011    5.381006   -2.765211   -1.703118
  11 O   8.0000    0    15.999    3.256675   -2.672973   -2.691142
  12 O   8.0000    0    15.999    7.273889   -3.920627   -2.457596
  13 H   1.0000    0     1.008   -6.906943   -3.379348   -2.145752
  14 H   1.0000    0     1.008   -8.046276   -0.421472   -1.875154
  15 H   1.0000    0     1.008   -5.371136   -0.877031   -3.460207
  16 H   1.0000    0     1.008   -3.815502   -2.761670    0.818581
  17 H   1.0000    0     1.008   -5.889025   -0.331273    1.890375
  18 H   1.0000    0     1.008   -1.695749    1.478856    3.076927
  19 H   1.0000    0     1.008    0.219687    4.559134   -1.151128
  20 H   1.0000    0     1.008    0.793688    5.078484    2.121791
  21 H   1.0000    0     1.008    1.901459   -0.815134    1.965755
  22 H   1.0000    0     1.008    7.353875   -0.280522    0.867619
  23 H   1.0000    0     1.008    5.860410   -2.890173    2.400590

      -----------------------------------------------------------      
     |                   =====================                   |     
     |                           x T B                           |     
     |                   =====================                   |     
     |                         S. Grimme                         |     
     |          Mulliken Center for Theoretical Chemistry        |     
     |                    University of Bonn                     |     
      -----------------------------------------------------------      

   * xtb version 6.7.1 (edcfbbe) compiled by 'albert@albert-system' on 2024-07-22

   xtb is free software: you can redistribute it and/or modify it under
   the terms of the GNU Lesser General Public License as published by
   the Free Software Foundation, either version 3 of the License, or
   (at your option) any later version.
   
   xtb is distributed in the hope that it will be useful,
   but WITHOUT ANY WARRANTY; without even the implied warranty of
   MERCHANTABILITY or FITNESS FOR A PARTICULAR PURPOSE.  See the
   GNU Lesser General Public License for more details.
   
   Cite this work as:
   * C. Bannwarth, E. Caldeweyher, S. Ehlert, A. Hansen, P. Pracht,
     J. Seibert, S. Spicher, S. Grimme, WIREs Comput. Mol. Sci., 2020, 11,
     e01493. DOI: 10.1002/wcms.1493
   
   for GFN2-xTB:
   * C. Bannwarth, S. Ehlert and S. Grimme., J. Chem. Theory Comput., 2019,
     15, 1652-1671. DOI: 10.1021/acs.jctc.8b01176
   for GFN1-xTB:
   * S. Grimme, C. Bannwarth, P. Shushkov, J. Chem. Theory Comput., 2017,
     13, 1989-2009. DOI: 10.1021/acs.jctc.7b00118
   for GFN0-xTB:
   * P. Pracht, E. Caldeweyher, S. Ehlert, S. Grimme, ChemRxiv, 2019, preprint.
     DOI: 10.26434/chemrxiv.8326202.v1
   for GFN-FF:
   * S. Spicher and S. Grimme, Angew. Chem. Int. Ed., 2020, 59, 15665-15673.
     DOI: 10.1002/anie.202004239
   
   for ALPB and GBSA implicit solvation:
   * S. Ehlert, M. Stahn, S. Spicher, S. Grimme, J. Chem. Theory Comput.,
     2021, 17, 4250-4261. DOI: 10.1021/acs.jctc.1c00471
   
   for ddCOSMO and CPCM-X implicit solvation:
   * M. Stahn, S. Ehlert, S. Grimme, J. Phys. Chem. A,
     2023, XX, XXXX-XXXX. DOI: 10.1021/acs.jpca.3c04382
   
   for DFT-D4:
   * E. Caldeweyher, C. Bannwarth and S. Grimme, J. Chem. Phys., 2017,
     147, 034112. DOI: 10.1063/1.4993215
   * E. Caldeweyher, S. Ehlert, A. Hansen, H. Neugebauer, S. Spicher,
     C. Bannwarth and S. Grimme, J. Chem. Phys., 2019, 150, 154122.
     DOI: 10.1063/1.5090222
   * E. Caldeweyher, J.-M. Mewes, S. Ehlert and S. Grimme, Phys. Chem. Chem. Phys.
     2020, 22, 8499-8512. DOI: 10.1039/D0CP00502A
   
   for sTDA-xTB:
   * S. Grimme and C. Bannwarth, J. Chem. Phys., 2016, 145, 054103.
     DOI: 10.1063/1.4959605
   
   in the mass-spec context:
   * V. Asgeirsson, C. Bauer and S. Grimme, Chem. Sci., 2017, 8, 4879.
     DOI: 10.1039/c7sc00601b
   * J. Koopman and S. Grimme, ACS Omega 2019, 4, 12, 15120-15133.
     DOI: 10.1021/acsomega.9b02011
   
   for metadynamics refer to:
   * S. Grimme, J. Chem. Theory Comput., 2019, 155, 2847-2862
     DOI: 10.1021/acs.jctc.9b00143
   
   for SPH calculations refer to:
   * S. Spicher and S. Grimme, J. Chem. Theory Comput., 2021, 17, 1701-1714
     DOI: 10.1021/acs.jctc.0c01306
   
   for ONIOM refer to:
   * C. Plett, A. Katbashev, S. Ehlert, S. Grimme, M. Bursch,
     Phys. Chem. Chem. Phys., 2023, 25, 17860-17868. DOI: 10.1039/D3CP02178E
   
   for DIPRO refer to:
   * J. Kohn, N. Gildemeister, S. Grimme, D. Fazzi, A. Hansen,
     J. Chem. Phys., 2023, just accepted.
   
   for PTB refer to:
   * S. Grimme, M. Mueller, A. Hansen, J. Chem. Phys., 2023, 158, 124111.
     DOI: 10.1063/5.0137838
   
   with help from (in alphabetical order)
   P. Atkinson, C. Bannwarth, F. Bohle, G. Brandenburg, E. Caldeweyher
   M. Checinski, S. Dohm, S. Ehlert, S. Ehrlich, I. Gerasimov, C. Hölzer
   A. Katbashev, J. Kohn, J. Koopman, C. Lavigne, S. Lehtola, F. März, M. Müller,
   F. Musil, H. Neugebauer, J. Pisarek, C. Plett, P. Pracht, F. Pultar,
   J. Seibert, P. Shushkov, S. Spicher, M. Stahn, M. Steiner, T. Strunk,
   J. Stückrath, T. Rose, and J. Unsleber
   
 * started run on 2026/04/11 at 17:16:35.616     
   ID    Z sym.   atoms
    1    7 N      1, 5, 9
    2    6 C      2, 3, 6, 7, 10, 11
    3    8 O      4, 8, 12, 13
    4    1 H      14-24

           -------------------------------------------------
          |                Calculation Setup                |
           -------------------------------------------------

          program call               : /home/analima/Programs/orca-6.1.0-f.0_linux_x86-64/bin/otool_xtb geo_opt_XTB.xyz --grad -c 0 -u 0 -P 1 --namespace geo_opt --input geo_opt_XTB.input.tmp --alpb WATER --acc 0.200000
          calculation namespace      : geo_opt
          coordinate file            : geo_opt_XTB.xyz
          omp threads                :                     1


           -------------------------------------------------
          |                 G F N 2 - x T B                 |
           -------------------------------------------------

        Reference                      10.1021/acs.jctc.8b01176
      * Hamiltonian:
        H0-scaling (s, p, d)           1.850000    2.230000    2.230000
        zeta-weighting                 0.500000
      * Dispersion:
        s8                             2.700000
        a1                             0.520000
        a2                             5.000000
        s9                             5.000000
      * Repulsion:
        kExp                           1.500000    1.000000
        rExp                           1.000000
      * Coulomb:
        alpha                          2.000000
        third order                    shell-resolved
        anisotropic                    true
        a3                             3.000000
        a5                             4.000000
        cn-shift                       1.200000
        cn-exp                         4.000000
        max-rad                        5.000000

      * Solvation model:               ALPB
        Solvent                        WATER
        Parameter file                 internal GFN2-xTB/ALPB
        Dielectric constant                8.0200E+01
        Reference state                gsolv [1 M gas/solution]
        Free energy shift                  1.0808E-03 Eh       6.7819E-01 kcal/mol
        Temperature                        2.9815E+02 K
        Density                            1.0000E+00 kg/L
        Solvent mass                       1.8000E+01 g/mol
        Interaction kernel             P16
        Born radius scaling (c1)           1.4744E+00
        Born radii integrator          GBOBC
        Born offset                        0.0000E+00 a0       0.0000E+00 AA
        H-bond correction              true
        Ion screening                  false
        Surface tension                    1.0000E-05 Eh       1.5569E+01 dyn/cm
        Grid points                               230 per atom
q/qsh data taken from xtbrestart
CAMM data taken from xtbrestart

          ...................................................
          :                      SETUP                      :
          :.................................................:
          :  # basis functions                  63          :
          :  # atomic orbitals                  63          :
          :  # shells                           37          :
          :  # electrons                        74          :
          :  max. iterations                   250          :
          :  Hamiltonian                  GFN2-xTB          :
          :  restarted?                       true          :
          :  GBSA solvation                   true          :
          :  PC potential                    false          :
          :  electronic temp.          300.0000000     K    :
          :  accuracy                    0.2000000          :
          :  -> integral cutoff          0.3198970E+02      :
          :  -> integral neglect         0.2000000E-08      :
          :  -> SCF convergence          0.2000000E-06 Eh   :
          :  -> wf. convergence          0.2000000E-04 e    :
          :  Broyden damping             0.4000000          :
          :  net charge                          0          :
          :  unpaired electrons                  0          :
          ...................................................

 iter      E             dE          RMSdq      gap      omega  full diag
   1    -43.9608126 -0.439608E+02  0.716E-01    3.46       0.0  T
   2    -43.9609112 -0.986048E-04  0.419E-01    3.45       1.0  T
   3    -43.9609327 -0.214734E-04  0.314E-02    3.46       1.0  T
   4    -43.9609389 -0.626256E-05  0.155E-02    3.45       1.3  T
   5    -43.9609394 -0.507287E-06  0.798E-03    3.46       2.6  T
   6    -43.9609396 -0.164040E-06  0.155E-03    3.46      13.1  T
   7    -43.9609396 -0.382310E-08  0.717E-04    3.45      28.4  T
   8    -43.9609396 -0.783082E-09  0.188E-04    3.45     108.4  T
   9    -43.9609396 -0.223750E-09  0.758E-05    3.45     269.3  T

   *** convergence criteria satisfied after 9 iterations ***

         #    Occupation            Energy/Eh            Energy/eV
      -------------------------------------------------------------
         1        2.0000           -0.7331006             -19.9487
       ...           ...                  ...                  ...
        31        2.0000           -0.4459728             -12.1355
        32        2.0000           -0.4318722             -11.7518
        33        2.0000           -0.4282214             -11.6525
        34        2.0000           -0.4030910             -10.9687
        35        2.0000           -0.3959734             -10.7750
        36        2.0000           -0.3878994             -10.5553
        37        2.0000           -0.3588912              -9.7659 (HOMO)
        38                         -0.2319237              -6.3110 (LUMO)
        39                         -0.2160507              -5.8790
        40                         -0.1725399              -4.6950
        41                         -0.0541242              -1.4728
        42                         -0.0106031              -0.2885
       ...                                ...                  ...
        63                          0.6576679              17.8961
      -------------------------------------------------------------
                  HL-Gap            0.1269676 Eh            3.4550 eV
             Fermi-level           -0.2954074 Eh           -8.0384 eV

 SCC (total)                   0 d,  0 h,  0 min,  0.011 sec
 SCC setup                      ...        0 min,  0.000 sec (  2.916%)
 Dispersion                     ...        0 min,  0.000 sec (  0.649%)
 classical contributions        ...        0 min,  0.000 sec (  0.140%)
 integral evaluation            ...        0 min,  0.001 sec ( 11.010%)
 iterations                     ...        0 min,  0.006 sec ( 54.276%)
 molecular gradient             ...        0 min,  0.003 sec ( 30.575%)
 printout                       ...        0 min,  0.000 sec (  0.358%)

         :::::::::::::::::::::::::::::::::::::::::::::::::::::
         ::                     SUMMARY                     ::
         :::::::::::::::::::::::::::::::::::::::::::::::::::::
         :: total energy             -43.532631048477 Eh    ::
         :: total w/o Gsasa/hb       -43.520706956828 Eh    ::
         :: gradient norm              0.018210604487 Eh/a0 ::
         :: HOMO-LUMO gap              3.454962931658 eV    ::
         ::.................................................::
         :: SCC energy               -43.960780531773 Eh    ::
         :: -> isotropic ES            0.363426103104 Eh    ::
         :: -> anisotropic ES         -0.020636037168 Eh    ::
         :: -> anisotropic XC          0.009575889154 Eh    ::
         :: -> dispersion             -0.018325322441 Eh    ::
         :: -> Gsolv                  -0.166077334677 Eh    ::
         ::    -> Gelec               -0.154153243028 Eh    ::
         ::    -> Gsasa                0.005660350855 Eh    ::
         ::    -> Ghb                 -0.018665202202 Eh    ::
         ::    -> Gshift               0.001080759698 Eh    ::
         :: repulsion energy           0.428149483297 Eh    ::
         :: add. restraining           0.000000000000 Eh    ::
         :: total charge               0.000000000000 e     ::
         :::::::::::::::::::::::::::::::::::::::::::::::::::::


Property printout bound to 'properties.out'

           -------------------------------------------------
          | TOTAL ENERGY              -43.532631048477 Eh   |
          | GRADIENT NORM               0.018210604487 Eh/α |
          | HOMO-LUMO GAP               3.454962931658 eV   |
           -------------------------------------------------

------------------------------------------------------------------------
 * finished run on 2026/04/11 at 17:16:35.633     
------------------------------------------------------------------------
 total:
 * wall-time:     0 d,  0 h,  0 min,  0.017 sec
 *  cpu-time:     0 d,  0 h,  0 min,  0.015 sec
 * ratio c/w:     0.901 speedup
 SCF:
 * wall-time:     0 d,  0 h,  0 min,  0.011 sec
 *  cpu-time:     0 d,  0 h,  0 min,  0.010 sec
 * ratio c/w:     0.867 speedup


-------------------------   --------------------
FINAL SINGLE POINT ENERGY       -43.532631048480
-------------------------   --------------------


-------------
DIPOLE MOMENT
-------------
                                X             Y             Z
Total Dipole Moment    :    -12.31100       0.41500       3.82200
                        -----------------------------------------
Magnitude (a.u.)       :     12.89731
Magnitude (Debye)      :     32.78236


------------------
CARTESIAN GRADIENT
------------------

   1   N   :    0.000962791   -0.001367698    0.000631766
   2   C   :    0.000795050   -0.000919905   -0.000501781
   3   C   :   -0.000981831    0.002519496   -0.002233719
   4   O   :   -0.001112995   -0.001034066    0.001288144
   5   N   :    0.003576809   -0.001418859    0.000621157
   6   C   :   -0.003542132    0.000726790    0.000576832
   7   C   :   -0.000110538   -0.003307860   -0.000766705
   8   O   :    0.000021472    0.000520118    0.000190097
   9   N   :    0.002355564   -0.002224383   -0.003338221
  10   C   :   -0.004021921    0.000375808    0.005617682
  11   C   :    0.002935631    0.006263974   -0.009278531
  12   O   :    0.002614558   -0.002580332    0.002915095
  13   O   :   -0.004050683   -0.000332946    0.003531391
  14   H   :    0.000127262   -0.000607183    0.000346184
  15   H   :    0.000242832    0.001651250   -0.000085822
  16   H   :    0.000184765    0.000563596   -0.000346305
  17   H   :   -0.000458489   -0.000950335   -0.000426334
  18   H   :   -0.000395616    0.000815347    0.000167496
  19   H   :   -0.000349694    0.001403038    0.000908010
  20   H   :    0.000102974    0.000118501   -0.000903487
  21   H   :    0.000707402    0.000090357    0.000530823
  22   H   :   -0.000461162    0.000635759    0.001492108
  23   H   :    0.000699168   -0.000305119   -0.001094551
  24   H   :    0.000158785   -0.000635348    0.000158671

Difference to translation invariance:
           :    0.0000000000    0.0000000000   -0.0000000000

Difference to rotation invariance:
           :   -0.0001442755   -0.0000986212    0.0004004329

Norm of the Cartesian gradient     ...    0.0182106045
RMS gradient                       ...    0.0021461403
MAX gradient                       ...    0.0092785314
------------------------------------------------------------------------------
                         ORCA GEOMETRY RELAXATION STEP
------------------------------------------------------------------------------

Reading the OPT-File                    .... done
Getting information on internals        .... done
Copying old internal coords+grads       .... done
Making the new internal coordinates     .... (2022 redundants) done
Validating the new internal coordinates .... (2022 redundants) done
Calculating the B-matrix                .... done
Calculating the G,G- and P matrices     .... done
Transforming gradient to internals      .... done
Projecting the internal gradient        .... done
Number of atoms                         ....  24
Number of internal coordinates          .... 102
Current Energy                          ....   -43.532631048 Eh
Current gradient norm                   ....     0.018210604 Eh/bohr
Maximum allowed component of the step   ....  0.300
Current trust radius                    ....  0.700
Updating the Hessian (BFGS)             .... done
Forming the augmented Hessian           .... done
Diagonalizing the augmented Hessian     .... done
Last element of RFO vector              ....  0.872923287
Lowest eigenvalues of augmented Hessian:
 -0.002500987  0.004559950  0.012488231  0.014425964  0.016160568
Length of the computed step             ....  0.558877856
The final length of the internal step   ....  0.558877856
Converting the step to Cartesian space:
 Initial RMS(Int)=    0.0553371536
Transforming coordinates:
 Iter   0:  RMS(Cart)=    0.2429685748 RMS(Int)=    0.6016851914
 Iter   5:  RMS(Cart)=    0.0001019627 RMS(Int)=    0.0000426032
 Iter  10:  RMS(Cart)=    0.0000001307 RMS(Int)=    0.0000000804
done
Storing new coordinates                 .... done
The predicted energy change is          ....    -0.001641079
Previously predicted energy change      ....    -0.002304438
Actually observed energy change         ....    -0.002506434
Ratio of predicted to observed change   ....     1.087655248
New trust radius                        ....     0.700000000

                                .--------------------.
          ----------------------|Geometry convergence|-------------------------
          Item                value                   Tolerance       Converged
          ---------------------------------------------------------------------
          Energy change      -0.0025064338            0.0000050000      NO
          RMS gradient        0.0012232098            0.0001000000      NO
          MAX gradient        0.0042460580            0.0003000000      NO
          RMS step            0.0553371536            0.0020000000      NO
          MAX step            0.2450227603            0.0040000000      NO
          -------------------------------------------------------------------------
          ........................................................
          Max(Bonds)      0.0290      Max(Angles)    1.44
          Max(Dihed)       14.04      Max(Improp)    0.00
          ---------------------------------------------------------------------

The optimization has not yet converged - more geometry cycles are needed


    ---------------------------------------------------------------------------
                         Redundant Internal Coordinates
                            (Angstroem and degrees)

        Definition                    Value    dE/dq     Step     New-Value
    ----------------------------------------------------------------------------
     1. B(C   1,N   0)                1.4731 -0.000880 -0.0015    1.4716   
     2. B(C   2,C   1)                1.5373  0.000114 -0.0026    1.5347   
     3. B(O   3,C   2)                1.2235 -0.001536  0.0028    1.2263   
     4. B(N   4,C   2)                1.3346  0.000928 -0.0028    1.3318   
     5. B(C   5,N   4)                1.4385 -0.002273 -0.0000    1.4385   
     6. B(C   6,C   5)                1.5366  0.000878 -0.0057    1.5310   
     7. B(O   7,C   6)                1.2279  0.000196  0.0007    1.2286   
     8. B(N   8,C   6)                1.3393 -0.001029  0.0050    1.3443   
     9. B(C   9,N   8)                1.4347 -0.003273  0.0025    1.4371   
    10. B(C  10,C   9)                1.5801  0.000908 -0.0052    1.5748   
    11. B(O  11,C  10)                1.2407 -0.003696  0.0026    1.2434   
    12. B(O  12,C  10)                1.2396 -0.004246  0.0006    1.2402   
    13. B(H  13,N   0)                1.0240  0.000511 -0.0009    1.0231   
    14. B(H  14,N   0)                1.0266  0.000730 -0.0005    1.0261   
    15. B(H  15,N   0)                1.0479  0.000219  0.0037    1.0516   
    16. B(H  15,O   3)                1.8940 -0.000707 -0.0290    1.8649   
    17. B(H  16,C   1)                1.0912  0.000460  0.0007    1.0919   
    18. B(H  17,C   1)                1.0897  0.000618 -0.0007    1.0890   
    19. B(H  18,N   4)                1.0101  0.000613 -0.0006    1.0095   
    20. B(H  19,C   5)                1.0944  0.000821 -0.0011    1.0934   
    21. B(H  20,C   5)                1.0920  0.000502  0.0004    1.0925   
    22. B(H  21,N   8)                1.0107  0.000457  0.0011    1.0118   
    23. B(H  22,C   9)                1.0920  0.000453 -0.0010    1.0910   
    24. B(H  23,C   9)                1.0897  0.000578  0.0002    1.0899   
    25. A(H  14,N   0,H  15)          106.57 -0.000514    0.29    106.86   
    26. A(H  13,N   0,H  15)          110.49  0.000012   -0.05    110.45   
    27. A(C   1,N   0,H  13)          113.35 -0.000365    0.16    113.51   
    28. A(C   1,N   0,H  14)          111.61 -0.000925    0.38    112.00   
    29. A(H  13,N   0,H  14)          110.36  0.000970   -0.36    110.00   
    30. A(C   1,N   0,H  15)          104.07  0.000785   -0.48    103.59   
    31. A(N   0,C   1,H  17)          111.78  0.000035    0.49    112.27   
    32. A(N   0,C   1,C   2)          106.14 -0.000109    0.06    106.19   
    33. A(C   2,C   1,H  16)          108.28  0.001145   -0.98    107.30   
    34. A(N   0,C   1,H  16)          110.26 -0.000841   -0.17    110.09   
    35. A(C   2,C   1,H  17)          110.58 -0.000730    0.66    111.24   
    36. A(H  16,C   1,H  17)          109.70  0.000507   -0.13    109.57   
    37. A(C   1,C   2,N   4)          116.12 -0.000147    0.91    117.03   
    38. A(C   1,C   2,O   3)          118.40 -0.000546   -0.37    118.04   
    39. A(O   3,C   2,N   4)          125.47  0.000694   -0.53    124.94   
    40. A(C   2,N   4,H  18)          120.99  0.000929    0.15    121.14   
    41. A(C   2,N   4,C   5)          121.32 -0.000330   -0.64    120.68   
    42. A(C   5,N   4,H  18)          117.69 -0.000610    0.57    118.25   
    43. A(N   4,C   5,H  20)          110.83  0.000172    0.68    111.51   
    44. A(C   6,C   5,H  19)          106.09 -0.000060    0.00    106.10   
    45. A(N   4,C   5,H  19)          109.23  0.000926   -0.58    108.66   
    46. A(N   4,C   5,C   6)          114.34 -0.000883   -0.92    113.42   
    47. A(H  19,C   5,H  20)          108.97  0.000437   -0.13    108.85   
    48. A(C   6,C   5,H  20)          107.15 -0.000569    0.93    108.08   
    49. A(C   5,C   6,O   7)          119.71 -0.000981    0.57    120.28   
    50. A(O   7,C   6,N   8)          124.05  0.000072   -0.67    123.37   
    51. A(C   5,C   6,N   8)          115.94  0.000847    0.31    116.25   
    52. A(C   6,N   8,C   9)          121.05 -0.001002   -0.60    120.45   
    53. A(C   9,N   8,H  21)          115.34  0.001789   -1.44    113.90   
    54. A(C   6,N   8,H  21)          117.56 -0.000449   -1.08    116.48   
    55. A(H  22,C   9,H  23)          109.89 -0.000481    0.03    109.92   
    56. A(N   8,C   9,C  10)          110.77  0.000623   -1.14    109.64   
    57. A(C  10,C   9,H  23)          108.64  0.000279    0.41    109.05   
    58. A(N   8,C   9,H  23)          110.82  0.001141   -0.06    110.75   
    59. A(C  10,C   9,H  22)          106.50 -0.002638    1.03    107.53   
    60. A(N   8,C   9,H  22)          110.12  0.000918   -0.27    109.85   
    61. A(O  11,C  10,O  12)          128.01  0.000558   -0.64    127.37   
    62. A(C   9,C  10,O  12)          115.76 -0.001496    0.67    116.42   
    63. A(C   9,C  10,O  11)          116.02  0.000402   -0.20    115.82   
    64. D(H  16,C   1,N   0,H  15)    -97.84 -0.000384   -0.97    -98.81   
    65. D(C   2,C   1,N   0,H  15)     19.21  0.000478   -2.18     17.04   
    66. D(H  16,C   1,N   0,H  13)     22.24 -0.000062   -1.28     20.96   
    67. D(H  16,C   1,N   0,H  14)    147.60  0.000206   -1.32    146.28   
    68. D(C   2,C   1,N   0,H  14)    -95.34  0.001068   -2.53    -97.87   
    69. D(C   2,C   1,N   0,H  13)    139.30  0.000800   -2.49    136.80   
    70. D(N   4,C   2,C   1,H  16)    -71.07 -0.000100   -2.32    -73.39   
    71. D(N   4,C   2,C   1,N   0)    170.55  0.000360   -1.62    168.94   
    72. D(O   3,C   2,C   1,H  17)   -130.68  0.000553   -1.67   -132.35   
    73. D(O   3,C   2,C   1,N   0)     -9.26  0.000113   -0.62     -9.89   
    74. D(O   3,C   2,C   1,H  16)    109.11 -0.000347   -1.32    107.79   
    75. D(H  18,N   4,C   2,C   1)     -4.85 -0.000796    2.43     -2.42   
    76. D(C   5,N   4,C   2,O   3)     -4.32  0.000489   -2.95     -7.28   
    77. D(H  18,N   4,C   2,O   3)    174.95 -0.000532    1.40    176.35   
    78. D(C   5,N   4,C   2,C   1)    175.87  0.000225   -1.92    173.95   
    79. D(H  20,C   5,N   4,C   2)    144.27  0.000745   -5.19    139.07   
    80. D(H  19,C   5,N   4,H  18)   -155.11  0.000479   -9.39   -164.50   
    81. D(H  19,C   5,N   4,C   2)     24.19 -0.000498   -5.11     19.08   
    82. D(C   6,C   5,N   4,H  18)     86.20  0.000472   -8.39     77.82   
    83. D(C   6,C   5,N   4,C   2)    -94.50 -0.000506   -4.11    -98.61   
    84. D(N   8,C   6,C   5,H  19)   -141.88  0.000028   -4.20   -146.08   
    85. D(N   8,C   6,C   5,N   4)    -21.43  0.000615   -5.47    -26.90   
    86. D(O   7,C   6,C   5,H  20)    -72.10  0.000421   -5.36    -77.45   
    87. D(O   7,C   6,C   5,H  19)     44.21  0.000624   -5.07     39.14   
    88. D(O   7,C   6,C   5,N   4)    164.66  0.001210   -6.34    158.32   
    89. D(H  21,N   8,C   6,O   7)   -169.33  0.000100    2.82   -166.51   
    90. D(H  21,N   8,C   6,C   5)     17.06  0.000792    1.71     18.77   
    91. D(C   9,N   8,C   6,O   7)    -17.95  0.001354   -5.47    -23.42   
    92. D(C   9,N   8,C   6,C   5)    168.43  0.002047   -6.57    161.86   
    93. D(C  10,C   9,N   8,H  21)     75.28  0.002808  -14.04     61.24   
    94. D(C  10,C   9,N   8,C   6)    -76.69  0.002160   -5.88    -82.57   
    95. D(H  23,C   9,N   8,C   6)    162.65  0.000632   -5.59    157.06   
    96. D(H  22,C   9,N   8,H  21)   -167.18  0.000507  -13.61   -180.78   
    97. D(H  22,C   9,N   8,C   6)     40.86 -0.000141   -5.45     35.41   
    98. D(O  12,C  10,C   9,H  22)     52.17  0.003465   -2.20     49.97   
    99. D(O  12,C  10,C   9,N   8)    171.91  0.003320   -2.48    169.43   
   100. D(O  11,C  10,C   9,H  23)    108.97 -0.000757   -0.82    108.15   
   101. D(O  11,C  10,C   9,H  22)   -132.71 -0.002610    0.00   -132.70   
   102. D(O  11,C  10,C   9,N   8)    -12.97 -0.002754   -0.28    -13.25   
    ----------------------------------------------------------------------------

Geometry step timings:
Preparation and reading OPT file:      0.000 s ( 0.594 %)
Internal coordinates            :      0.000 s ( 0.699 %)
B/P matrices and projection     :      0.001 s (42.363 %)
Hessian update/contruction      :      0.000 s ( 8.983 %)
Making the step                 :      0.001 s (30.304 %)
Converting the step to Cartesian:      0.000 s ( 4.928 %)
Storing new data                :      0.000 s ( 0.804 %)
Checking convergence            :      0.000 s ( 0.839 %)
Final printing                  :      0.000 s (10.416 %)
Total time                      :      0.003 s

Time for energy+gradient        :      0.021 s
Time for complete geometry iter :      0.025 s

         *************************************************************
         *                GEOMETRY OPTIMIZATION CYCLE   9            *
         *************************************************************
---------------------------------
CARTESIAN COORDINATES (ANGSTROEM)
---------------------------------
  N    -3.380082   -0.764530   -1.081110
  C    -2.458983   -0.623903    0.058011
  C    -1.488611    0.505798   -0.312811
  O    -1.508208    0.927846   -1.464011
  N    -0.701715    0.969821    0.656241
  C     0.324885    1.935162    0.367432
  C     1.715916    1.315463    0.209710
  O     2.592727    1.912614   -0.410070
  N     1.931424    0.164313    0.869639
  C     3.026652   -0.687608    0.495389
  C     2.604550   -1.585728   -0.727449
  O     1.389217   -1.612307   -0.988606
  O     3.510366   -2.223200   -1.285297
  H    -3.565019   -1.737278   -1.338639
  H    -4.264557   -0.268686   -0.924058
  H    -2.884531   -0.265626   -1.862987
  H    -1.867633   -1.534193    0.176387
  H    -2.982412   -0.405223    0.987635
  H    -0.771773    0.615623    1.598978
  H     0.096213    2.413388   -0.588848
  H     0.381853    2.703797    1.141659
  H     1.106020   -0.342583    1.162025
  H     3.877275   -0.081515    0.179988
  H     3.316425   -1.331445    1.325632

----------------------------
CARTESIAN COORDINATES (A.U.)
----------------------------
  NO LB    ZA    FRAG    MASS        X           Y           Z
   0 N   7.0000    0    14.007   -6.387429   -1.444751   -2.043001
   1 C   6.0000    0    12.011   -4.646804   -1.179005    0.109625
   2 C   6.0000    0    12.011   -2.813067    0.955820   -0.591128
   3 O   8.0000    0    15.999   -2.850100    1.753375   -2.766579
   4 N   7.0000    0    14.007   -1.326049    1.832696    1.240115
   5 C   6.0000    0    12.011    0.613944    3.656926    0.694345
   6 C   6.0000    0    12.011    3.242611    2.485865    0.396294
   7 O   8.0000    0    15.999    4.899544    3.614316   -0.774919
   8 N   7.0000    0    14.007    3.649862    0.310506    1.643380
   9 C   6.0000    0    12.011    5.719543   -1.299392    0.936150
  10 C   6.0000    0    12.011    4.921886   -2.996592   -1.374679
  11 O   8.0000    0    15.999    2.625240   -3.046819   -1.868194
  12 O   8.0000    0    15.999    6.633630   -4.201238   -2.428859
  13 H   1.0000    0     1.008   -6.736909   -3.282980   -2.529660
  14 H   1.0000    0     1.008   -8.058844   -0.507744   -1.746217
  15 H   1.0000    0     1.008   -5.450973   -0.501960   -3.520535
  16 H   1.0000    0     1.008   -3.529316   -2.899204    0.333323
  17 H   1.0000    0     1.008   -5.635942   -0.765760    1.866359
  18 H   1.0000    0     1.008   -1.458439    1.163360    3.021631
  19 H   1.0000    0     1.008    0.181817    4.560643   -1.112761
  20 H   1.0000    0     1.008    0.721597    5.109436    2.157423
  21 H   1.0000    0     1.008    2.090075   -0.647388    2.195910
  22 H   1.0000    0     1.008    7.326987   -0.154042    0.340128
  23 H   1.0000    0     1.008    6.267134   -2.516067    2.505081

      -----------------------------------------------------------      
     |                   =====================                   |     
     |                           x T B                           |     
     |                   =====================                   |     
     |                         S. Grimme                         |     
     |          Mulliken Center for Theoretical Chemistry        |     
     |                    University of Bonn                     |     
      -----------------------------------------------------------      

   * xtb version 6.7.1 (edcfbbe) compiled by 'albert@albert-system' on 2024-07-22

   xtb is free software: you can redistribute it and/or modify it under
   the terms of the GNU Lesser General Public License as published by
   the Free Software Foundation, either version 3 of the License, or
   (at your option) any later version.
   
   xtb is distributed in the hope that it will be useful,
   but WITHOUT ANY WARRANTY; without even the implied warranty of
   MERCHANTABILITY or FITNESS FOR A PARTICULAR PURPOSE.  See the
   GNU Lesser General Public License for more details.
   
   Cite this work as:
   * C. Bannwarth, E. Caldeweyher, S. Ehlert, A. Hansen, P. Pracht,
     J. Seibert, S. Spicher, S. Grimme, WIREs Comput. Mol. Sci., 2020, 11,
     e01493. DOI: 10.1002/wcms.1493
   
   for GFN2-xTB:
   * C. Bannwarth, S. Ehlert and S. Grimme., J. Chem. Theory Comput., 2019,
     15, 1652-1671. DOI: 10.1021/acs.jctc.8b01176
   for GFN1-xTB:
   * S. Grimme, C. Bannwarth, P. Shushkov, J. Chem. Theory Comput., 2017,
     13, 1989-2009. DOI: 10.1021/acs.jctc.7b00118
   for GFN0-xTB:
   * P. Pracht, E. Caldeweyher, S. Ehlert, S. Grimme, ChemRxiv, 2019, preprint.
     DOI: 10.26434/chemrxiv.8326202.v1
   for GFN-FF:
   * S. Spicher and S. Grimme, Angew. Chem. Int. Ed., 2020, 59, 15665-15673.
     DOI: 10.1002/anie.202004239
   
   for ALPB and GBSA implicit solvation:
   * S. Ehlert, M. Stahn, S. Spicher, S. Grimme, J. Chem. Theory Comput.,
     2021, 17, 4250-4261. DOI: 10.1021/acs.jctc.1c00471
   
   for ddCOSMO and CPCM-X implicit solvation:
   * M. Stahn, S. Ehlert, S. Grimme, J. Phys. Chem. A,
     2023, XX, XXXX-XXXX. DOI: 10.1021/acs.jpca.3c04382
   
   for DFT-D4:
   * E. Caldeweyher, C. Bannwarth and S. Grimme, J. Chem. Phys., 2017,
     147, 034112. DOI: 10.1063/1.4993215
   * E. Caldeweyher, S. Ehlert, A. Hansen, H. Neugebauer, S. Spicher,
     C. Bannwarth and S. Grimme, J. Chem. Phys., 2019, 150, 154122.
     DOI: 10.1063/1.5090222
   * E. Caldeweyher, J.-M. Mewes, S. Ehlert and S. Grimme, Phys. Chem. Chem. Phys.
     2020, 22, 8499-8512. DOI: 10.1039/D0CP00502A
   
   for sTDA-xTB:
   * S. Grimme and C. Bannwarth, J. Chem. Phys., 2016, 145, 054103.
     DOI: 10.1063/1.4959605
   
   in the mass-spec context:
   * V. Asgeirsson, C. Bauer and S. Grimme, Chem. Sci., 2017, 8, 4879.
     DOI: 10.1039/c7sc00601b
   * J. Koopman and S. Grimme, ACS Omega 2019, 4, 12, 15120-15133.
     DOI: 10.1021/acsomega.9b02011
   
   for metadynamics refer to:
   * S. Grimme, J. Chem. Theory Comput., 2019, 155, 2847-2862
     DOI: 10.1021/acs.jctc.9b00143
   
   for SPH calculations refer to:
   * S. Spicher and S. Grimme, J. Chem. Theory Comput., 2021, 17, 1701-1714
     DOI: 10.1021/acs.jctc.0c01306
   
   for ONIOM refer to:
   * C. Plett, A. Katbashev, S. Ehlert, S. Grimme, M. Bursch,
     Phys. Chem. Chem. Phys., 2023, 25, 17860-17868. DOI: 10.1039/D3CP02178E
   
   for DIPRO refer to:
   * J. Kohn, N. Gildemeister, S. Grimme, D. Fazzi, A. Hansen,
     J. Chem. Phys., 2023, just accepted.
   
   for PTB refer to:
   * S. Grimme, M. Mueller, A. Hansen, J. Chem. Phys., 2023, 158, 124111.
     DOI: 10.1063/5.0137838
   
   with help from (in alphabetical order)
   P. Atkinson, C. Bannwarth, F. Bohle, G. Brandenburg, E. Caldeweyher
   M. Checinski, S. Dohm, S. Ehlert, S. Ehrlich, I. Gerasimov, C. Hölzer
   A. Katbashev, J. Kohn, J. Koopman, C. Lavigne, S. Lehtola, F. März, M. Müller,
   F. Musil, H. Neugebauer, J. Pisarek, C. Plett, P. Pracht, F. Pultar,
   J. Seibert, P. Shushkov, S. Spicher, M. Stahn, M. Steiner, T. Strunk,
   J. Stückrath, T. Rose, and J. Unsleber
   
 * started run on 2026/04/11 at 17:16:35.641     
   ID    Z sym.   atoms
    1    7 N      1, 5, 9
    2    6 C      2, 3, 6, 7, 10, 11
    3    8 O      4, 8, 12, 13
    4    1 H      14-24

           -------------------------------------------------
          |                Calculation Setup                |
           -------------------------------------------------

          program call               : /home/analima/Programs/orca-6.1.0-f.0_linux_x86-64/bin/otool_xtb geo_opt_XTB.xyz --grad -c 0 -u 0 -P 1 --namespace geo_opt --input geo_opt_XTB.input.tmp --alpb WATER --acc 0.200000
          calculation namespace      : geo_opt
          coordinate file            : geo_opt_XTB.xyz
          omp threads                :                     1


           -------------------------------------------------
          |                 G F N 2 - x T B                 |
           -------------------------------------------------

        Reference                      10.1021/acs.jctc.8b01176
      * Hamiltonian:
        H0-scaling (s, p, d)           1.850000    2.230000    2.230000
        zeta-weighting                 0.500000
      * Dispersion:
        s8                             2.700000
        a1                             0.520000
        a2                             5.000000
        s9                             5.000000
      * Repulsion:
        kExp                           1.500000    1.000000
        rExp                           1.000000
      * Coulomb:
        alpha                          2.000000
        third order                    shell-resolved
        anisotropic                    true
        a3                             3.000000
        a5                             4.000000
        cn-shift                       1.200000
        cn-exp                         4.000000
        max-rad                        5.000000

      * Solvation model:               ALPB
        Solvent                        WATER
        Parameter file                 internal GFN2-xTB/ALPB
        Dielectric constant                8.0200E+01
        Reference state                gsolv [1 M gas/solution]
        Free energy shift                  1.0808E-03 Eh       6.7819E-01 kcal/mol
        Temperature                        2.9815E+02 K
        Density                            1.0000E+00 kg/L
        Solvent mass                       1.8000E+01 g/mol
        Interaction kernel             P16
        Born radius scaling (c1)           1.4744E+00
        Born radii integrator          GBOBC
        Born offset                        0.0000E+00 a0       0.0000E+00 AA
        H-bond correction              true
        Ion screening                  false
        Surface tension                    1.0000E-05 Eh       1.5569E+01 dyn/cm
        Grid points                               230 per atom
q/qsh data taken from xtbrestart
CAMM data taken from xtbrestart

          ...................................................
          :                      SETUP                      :
          :.................................................:
          :  # basis functions                  63          :
          :  # atomic orbitals                  63          :
          :  # shells                           37          :
          :  # electrons                        74          :
          :  max. iterations                   250          :
          :  Hamiltonian                  GFN2-xTB          :
          :  restarted?                       true          :
          :  GBSA solvation                   true          :
          :  PC potential                    false          :
          :  electronic temp.          300.0000000     K    :
          :  accuracy                    0.2000000          :
          :  -> integral cutoff          0.3198970E+02      :
          :  -> integral neglect         0.2000000E-08      :
          :  -> SCF convergence          0.2000000E-06 Eh   :
          :  -> wf. convergence          0.2000000E-04 e    :
          :  Broyden damping             0.4000000          :
          :  net charge                          0          :
          :  unpaired electrons                  0          :
          ...................................................

 iter      E             dE          RMSdq      gap      omega  full diag
   1    -43.9615893 -0.439616E+02  0.662E-01    3.54       0.0  T
   2    -43.9617081 -0.118797E-03  0.388E-01    3.53       1.0  T
   3    -43.9617242 -0.161133E-04  0.337E-02    3.56       1.0  T
   4    -43.9617301 -0.582867E-05  0.142E-02    3.54       1.4  T
   5    -43.9617305 -0.463249E-06  0.785E-03    3.55       2.6  T
   6    -43.9617307 -0.145216E-06  0.134E-03    3.55      15.2  T
   7    -43.9617307 -0.262099E-08  0.641E-04    3.55      31.8  T
   8    -43.9617307 -0.571568E-09  0.177E-04    3.55     115.5  T
   9    -43.9617307 -0.201609E-09  0.719E-05    3.55     283.9  T

   *** convergence criteria satisfied after 9 iterations ***

         #    Occupation            Energy/Eh            Energy/eV
      -------------------------------------------------------------
         1        2.0000           -0.7322900             -19.9266
       ...           ...                  ...                  ...
        31        2.0000           -0.4466293             -12.1534
        32        2.0000           -0.4325556             -11.7704
        33        2.0000           -0.4296043             -11.6901
        34        2.0000           -0.4048108             -11.0155
        35        2.0000           -0.3978451             -10.8259
        36        2.0000           -0.3896559             -10.6031
        37        2.0000           -0.3619009              -9.8478 (HOMO)
        38                         -0.2315752              -6.3015 (LUMO)
        39                         -0.2214610              -6.0263
        40                         -0.1752756              -4.7695
        41                         -0.0525638              -1.4303
        42                         -0.0113775              -0.3096
       ...                                ...                  ...
        63                          0.6466630              17.5966
      -------------------------------------------------------------
                  HL-Gap            0.1303257 Eh            3.5463 eV
             Fermi-level           -0.2967381 Eh           -8.0747 eV

 SCC (total)                   0 d,  0 h,  0 min,  0.014 sec
 SCC setup                      ...        0 min,  0.000 sec (  2.092%)
 Dispersion                     ...        0 min,  0.000 sec (  0.507%)
 classical contributions        ...        0 min,  0.000 sec (  0.113%)
 integral evaluation            ...        0 min,  0.001 sec (  8.803%)
 iterations                     ...        0 min,  0.007 sec ( 46.654%)
 molecular gradient             ...        0 min,  0.006 sec ( 41.155%)
 printout                       ...        0 min,  0.000 sec (  0.606%)

         :::::::::::::::::::::::::::::::::::::::::::::::::::::
         ::                     SUMMARY                     ::
         :::::::::::::::::::::::::::::::::::::::::::::::::::::
         :: total energy             -43.534571878273 Eh    ::
         :: total w/o Gsasa/hb       -43.522803922342 Eh    ::
         :: gradient norm              0.014069050461 Eh/a0 ::
         :: HOMO-LUMO gap              3.546343504185 eV    ::
         ::.................................................::
         :: SCC energy               -43.961562484681 Eh    ::
         :: -> isotropic ES            0.350316056237 Eh    ::
         :: -> anisotropic ES         -0.022238024838 Eh    ::
         :: -> anisotropic XC          0.009421225073 Eh    ::
         :: -> dispersion             -0.018562701887 Eh    ::
         :: -> Gsolv                  -0.154528208073 Eh    ::
         ::    -> Gelec               -0.142760252143 Eh    ::
         ::    -> Gsasa                0.005387277125 Eh    ::
         ::    -> Ghb                 -0.018235992753 Eh    ::
         ::    -> Gshift               0.001080759698 Eh    ::
         :: repulsion energy           0.426990606408 Eh    ::
         :: add. restraining           0.000000000000 Eh    ::
         :: total charge              -0.000000000000 e     ::
         :::::::::::::::::::::::::::::::::::::::::::::::::::::


Property printout bound to 'properties.out'

           -------------------------------------------------
          | TOTAL ENERGY              -43.534571878273 Eh   |
          | GRADIENT NORM               0.014069050461 Eh/α |
          | HOMO-LUMO GAP               3.546343504185 eV   |
           -------------------------------------------------

------------------------------------------------------------------------
 * finished run on 2026/04/11 at 17:16:35.661     
------------------------------------------------------------------------
 total:
 * wall-time:     0 d,  0 h,  0 min,  0.020 sec
 *  cpu-time:     0 d,  0 h,  0 min,  0.018 sec
 * ratio c/w:     0.920 speedup
 SCF:
 * wall-time:     0 d,  0 h,  0 min,  0.014 sec
 *  cpu-time:     0 d,  0 h,  0 min,  0.013 sec
 * ratio c/w:     0.901 speedup


-------------------------   --------------------
FINAL SINGLE POINT ENERGY       -43.534571878270
-------------------------   --------------------


-------------
DIPOLE MOMENT
-------------
                                X             Y             Z
Total Dipole Moment    :    -11.34900       0.63600       3.27400
                        -----------------------------------------
Magnitude (a.u.)       :     11.82892
Magnitude (Debye)      :     30.06673


------------------
CARTESIAN GRADIENT
------------------

   1   N   :    0.001490669   -0.002536721    0.001545104
   2   C   :   -0.000806925    0.000650964   -0.001168433
   3   C   :    0.000494998    0.001313394    0.001049452
   4   O   :   -0.000935730    0.000046282    0.000335290
   5   N   :    0.004099558   -0.001922199   -0.000094599
   6   C   :   -0.003550792    0.000610497   -0.000445315
   7   C   :   -0.004839984   -0.002919575    0.000536167
   8   O   :    0.001740929   -0.000202284   -0.000367927
   9   N   :    0.003459897   -0.002950703   -0.001097933
  10   C   :   -0.001891800    0.001050119    0.003823672
  11   C   :    0.000421044    0.003740292   -0.004688335
  12   O   :    0.002679911   -0.001531995    0.000579694
  13   O   :   -0.002363858    0.000223792    0.002016781
  14   H   :   -0.000282722   -0.000014360    0.000238781
  15   H   :    0.000111007    0.001043605   -0.000135115
  16   H   :    0.000499595    0.001382928   -0.001098367
  17   H   :   -0.000963474   -0.000711199   -0.000840602
  18   H   :   -0.000038646    0.000163882    0.000442991
  19   H   :    0.000178416    0.000683150    0.000654368
  20   H   :    0.000381511   -0.000476338   -0.000606335
  21   H   :    0.000778111    0.000850318   -0.000276819
  22   H   :   -0.000798050    0.001651709    0.000494746
  23   H   :    0.000204988    0.000008772   -0.000772953
  24   H   :   -0.000068656   -0.000154332   -0.000124312

Difference to translation invariance:
           :   -0.0000000000   -0.0000000000   -0.0000000000

Difference to rotation invariance:
           :    0.0002785737    0.0004999886    0.0002594268

Norm of the Cartesian gradient     ...    0.0140690505
RMS gradient                       ...    0.0016580535
MAX gradient                       ...    0.0048399840
------------------------------------------------------------------------------
                         ORCA GEOMETRY RELAXATION STEP
------------------------------------------------------------------------------

Reading the OPT-File                    .... done
Getting information on internals        .... done
Copying old internal coords+grads       .... done
Making the new internal coordinates     .... (2022 redundants) done
Validating the new internal coordinates .... (2022 redundants) done
Calculating the B-matrix                .... done
Calculating the G,G- and P matrices     .... done
Transforming gradient to internals      .... done
Projecting the internal gradient        .... done
Number of atoms                         ....  24
Number of internal coordinates          .... 102
Current Energy                          ....   -43.534571878 Eh
Current gradient norm                   ....     0.014069050 Eh/bohr
Maximum allowed component of the step   ....  0.300
Current trust radius                    ....  0.700
Updating the Hessian (BFGS)             .... done
Forming the augmented Hessian           .... done
Diagonalizing the augmented Hessian     .... done
Last element of RFO vector              ....  0.862816806
Lowest eigenvalues of augmented Hessian:
 -0.002725551  0.003833878  0.012362424  0.014301498  0.016699537
Length of the computed step             ....  0.585891142
The final length of the internal step   ....  0.585891142
Converting the step to Cartesian space:
 Initial RMS(Int)=    0.0580118675
Transforming coordinates:
 Iter   0:  RMS(Cart)=    0.3205971110 RMS(Int)=    0.6176204247
 Iter   5:  RMS(Cart)=    0.0003370825 RMS(Int)=    0.0001137336
 Iter  10:  RMS(Cart)=    0.0000011811 RMS(Int)=    0.0000005869
done
Storing new coordinates                 .... done
The predicted energy change is          ....    -0.001830574
Previously predicted energy change      ....    -0.001641079
Actually observed energy change         ....    -0.001940830
Ratio of predicted to observed change   ....     1.182655029
New trust radius                        ....     0.700000000

                                .--------------------.
          ----------------------|Geometry convergence|-------------------------
          Item                value                   Tolerance       Converged
          ---------------------------------------------------------------------
          Energy change      -0.0019408298            0.0000050000      NO
          RMS gradient        0.0012358390            0.0001000000      NO
          MAX gradient        0.0036931836            0.0003000000      NO
          RMS step            0.0580118675            0.0020000000      NO
          MAX step            0.2661975245            0.0040000000      NO
          -------------------------------------------------------------------------
          ........................................................
          Max(Bonds)      0.0107      Max(Angles)    2.50
          Max(Dihed)       15.25      Max(Improp)    0.00
          ---------------------------------------------------------------------

The optimization has not yet converged - more geometry cycles are needed


    ---------------------------------------------------------------------------
                         Redundant Internal Coordinates
                            (Angstroem and degrees)

        Definition                    Value    dE/dq     Step     New-Value
    ----------------------------------------------------------------------------
     1. B(C   1,N   0)                1.4717 -0.001010 -0.0001    1.4715   
     2. B(C   2,C   1)                1.5347  0.000436 -0.0029    1.5318   
     3. B(O   3,C   2)                1.2263 -0.000274  0.0027    1.2290   
     4. B(N   4,C   2)                1.3318 -0.000465 -0.0023    1.3295   
     5. B(C   5,N   4)                1.4385 -0.002647  0.0029    1.4414   
     6. B(C   6,C   5)                1.5310 -0.000928 -0.0047    1.5262   
     7. B(O   7,C   6)                1.2286  0.001330 -0.0005    1.2281   
     8. B(N   8,C   6)                1.3443 -0.001329  0.0059    1.3502   
     9. B(C   9,N   8)                1.4371 -0.002977  0.0059    1.4430   
    10. B(C  10,C   9)                1.5748  0.000028 -0.0065    1.5684   
    11. B(O  11,C  10)                1.2434 -0.002710  0.0038    1.2472   
    12. B(O  12,C  10)                1.2402 -0.002751  0.0009    1.2411   
    13. B(H  13,N   0)                1.0231  0.000005 -0.0006    1.0225   
    14. B(H  14,N   0)                1.0261  0.000387 -0.0009    1.0252   
    15. B(H  15,N   0)                1.0516  0.001330  0.0011    1.0527   
    16. B(H  15,O   3)                1.8649 -0.000775 -0.0107    1.8542   
    17. B(H  16,C   1)                1.0919 -0.000023  0.0012    1.0931   
    18. B(H  17,C   1)                1.0890  0.000429 -0.0012    1.0879   
    19. B(H  18,N   4)                1.0095  0.000355 -0.0011    1.0084   
    20. B(H  19,C   5)                1.0934  0.000246 -0.0011    1.0923   
    21. B(H  20,C   5)                1.0925  0.000440 -0.0002    1.0923   
    22. B(H  21,N   8)                1.0118 -0.000032  0.0015    1.0133   
    23. B(H  22,C   9)                1.0910  0.000384 -0.0014    1.0896   
    24. B(H  23,C   9)                1.0899 -0.000016  0.0006    1.0905   
    25. A(H  14,N   0,H  15)          106.90 -0.000733    0.61    107.51   
    26. A(H  13,N   0,H  15)          110.43 -0.000045   -0.24    110.19   
    27. A(C   1,N   0,H  13)          113.50  0.000124   -0.02    113.48   
    28. A(C   1,N   0,H  14)          112.02 -0.000553    0.53    112.54   
    29. A(H  13,N   0,H  14)          110.01  0.000268   -0.50    109.50   
    30. A(C   1,N   0,H  15)          103.61  0.000910   -0.30    103.31   
    31. A(N   0,C   1,H  17)          112.28  0.000365    0.34    112.62   
    32. A(N   0,C   1,C   2)          106.20  0.000322    0.32    106.52   
    33. A(C   2,C   1,H  16)          107.30  0.001048   -1.31    105.99   
    34. A(N   0,C   1,H  16)          110.07 -0.001366    0.11    110.18   
    35. A(C   2,C   1,H  17)          111.24 -0.000213    0.63    111.87   
    36. A(H  16,C   1,H  17)          109.58 -0.000130   -0.14    109.44   
    37. A(C   1,C   2,N   4)          117.02  0.002677    0.32    117.34   
    38. A(C   1,C   2,O   3)          118.04 -0.001102   -0.02    118.02   
    39. A(O   3,C   2,N   4)          124.93 -0.001591   -0.32    124.61   
    40. A(C   2,N   4,H  18)          121.08  0.002143   -0.41    120.68   
    41. A(C   2,N   4,C   5)          120.63 -0.002765   -0.16    120.47   
    42. A(C   5,N   4,H  18)          118.20  0.000695    0.37    118.57   
    43. A(N   4,C   5,H  20)          111.54  0.001138    0.43    111.96   
    44. A(C   6,C   5,H  19)          106.08  0.000445   -0.14    105.94   
    45. A(N   4,C   5,H  19)          108.65  0.000632   -0.67    107.98   
    46. A(N   4,C   5,C   6)          113.42 -0.001353   -0.63    112.79   
    47. A(H  19,C   5,H  20)          108.84  0.000012   -0.21    108.63   
    48. A(C   6,C   5,H  20)          108.08 -0.000870    1.22    109.31   
    49. A(C   5,C   6,O   7)          120.24  0.000189    0.47    120.71   
    50. A(O   7,C   6,N   8)          123.33 -0.002364   -0.39    122.94   
    51. A(C   5,C   6,N   8)          116.21  0.002129    0.06    116.27   
    52. A(C   6,N   8,C   9)          120.13 -0.002794   -0.51    119.62   
    53. A(C   9,N   8,H  21)          113.58  0.003693   -2.50    111.07   
    54. A(C   6,N   8,H  21)          116.11 -0.001045   -1.31    114.80   
    55. A(H  22,C   9,H  23)          109.94 -0.000088   -0.12    109.83   
    56. A(N   8,C   9,C  10)          109.63  0.000860   -1.24    108.39   
    57. A(C  10,C   9,H  23)          109.02  0.000602    0.10    109.12   
    58. A(N   8,C   9,H  23)          110.76  0.000469   -0.28    110.48   
    59. A(C  10,C   9,H  22)          107.54 -0.002058    1.66    109.20   
    60. A(N   8,C   9,H  22)          109.88  0.000151   -0.07    109.82   
    61. A(O  11,C  10,O  12)          127.48 -0.000960   -0.38    127.10   
    62. A(C   9,C  10,O  12)          116.53 -0.000530    0.80    117.33   
    63. A(C   9,C  10,O  11)          115.93  0.001359   -0.14    115.79   
    64. D(H  16,C   1,N   0,H  15)    -98.83 -0.000512   -0.83    -99.66   
    65. D(C   2,C   1,N   0,H  15)     17.01  0.000215   -2.12     14.89   
    66. D(H  16,C   1,N   0,H  13)     20.97  0.000081   -1.38     19.59   
    67. D(H  16,C   1,N   0,H  14)    146.30  0.000090   -1.65    144.65   
    68. D(C   2,C   1,N   0,H  14)    -97.86  0.000816   -2.94   -100.80   
    69. D(C   2,C   1,N   0,H  13)    136.81  0.000808   -2.67    134.14   
    70. D(N   4,C   2,C   1,H  16)    -73.36 -0.001012    1.20    -72.16   
    71. D(N   4,C   2,C   1,N   0)    168.93 -0.000110    1.56    170.50   
    72. D(O   3,C   2,C   1,H  17)   -132.36  0.000175   -2.03   -134.39   
    73. D(O   3,C   2,C   1,N   0)     -9.91  0.000703   -1.05    -10.96   
    74. D(O   3,C   2,C   1,H  16)    107.79 -0.000199   -1.41    106.38   
    75. D(H  18,N   4,C   2,C   1)     -2.40 -0.000202    1.60     -0.80   
    76. D(C   5,N   4,C   2,O   3)     -7.30  0.000313   -2.86    -10.17   
    77. D(H  18,N   4,C   2,O   3)    176.35 -0.001066    4.35    180.70   
    78. D(C   5,N   4,C   2,C   1)    173.94  0.001178   -5.61    168.33   
    79. D(H  20,C   5,N   4,C   2)    139.06 -0.000440   -0.32    138.74   
    80. D(H  19,C   5,N   4,H  18)   -164.48 -0.000171   -7.03   -171.51   
    81. D(H  19,C   5,N   4,C   2)     19.08 -0.001568    0.11     19.19   
    82. D(C   6,C   5,N   4,H  18)     77.82 -0.000325   -6.01     71.81   
    83. D(C   6,C   5,N   4,C   2)    -98.62 -0.001723    1.13    -97.49   
    84. D(N   8,C   6,C   5,H  19)   -146.05 -0.000114   -3.82   -149.87   
    85. D(N   8,C   6,C   5,N   4)    -26.86  0.000183   -5.12    -31.98   
    86. D(O   7,C   6,C   5,H  20)    -77.48  0.000742   -5.92    -83.40   
    87. D(O   7,C   6,C   5,H  19)     39.12  0.000559   -5.65     33.47   
    88. D(O   7,C   6,C   5,N   4)    158.30  0.000856   -6.94    151.36   
    89. D(H  21,N   8,C   6,O   7)   -166.54  0.000474    0.01   -166.52   
    90. D(H  21,N   8,C   6,C   5)     18.81  0.001015   -1.95     16.85   
    91. D(C   9,N   8,C   6,O   7)    -23.46  0.001600   -7.05    -30.51   
    92. D(C   9,N   8,C   6,C   5)    161.89  0.002141   -9.02    152.87   
    93. D(C  10,C   9,N   8,H  21)     61.31  0.002042  -15.25     46.06   
    94. D(C  10,C   9,N   8,C   6)    -82.63  0.002497   -8.49    -91.12   
    95. D(H  23,C   9,N   8,C   6)    157.02  0.000893   -7.61    149.41   
    96. D(H  22,C   9,N   8,H  21)    179.30  0.000138  -13.98    165.32   
    97. D(H  22,C   9,N   8,C   6)     35.35  0.000593   -7.21     28.14   
    98. D(O  12,C  10,C   9,H  22)     49.99  0.001786   -2.95     47.04   
    99. D(O  12,C  10,C   9,N   8)    169.43  0.001243   -2.74    166.69   
   100. D(O  11,C  10,C   9,H  23)    108.14 -0.000054   -0.32    107.82   
   101. D(O  11,C  10,C   9,H  22)   -132.69 -0.001001    0.55   -132.14   
   102. D(O  11,C  10,C   9,N   8)    -13.26 -0.001545    0.77    -12.49   
    ----------------------------------------------------------------------------

Geometry step timings:
Preparation and reading OPT file:      0.000 s ( 0.995 %)
Internal coordinates            :      0.000 s ( 2.520 %)
B/P matrices and projection     :      0.001 s (38.992 %)
Hessian update/contruction      :      0.000 s (10.477 %)
Making the step                 :      0.000 s (29.509 %)
Converting the step to Cartesian:      0.000 s ( 4.708 %)
Storing new data                :      0.000 s ( 0.862 %)
Checking convergence            :      0.000 s ( 0.862 %)
Final printing                  :      0.000 s (11.008 %)
Total time                      :      0.002 s

Time for energy+gradient        :      0.025 s
Time for complete geometry iter :      0.027 s

         *************************************************************
         *                GEOMETRY OPTIMIZATION CYCLE  10            *
         *************************************************************
---------------------------------
CARTESIAN COORDINATES (ANGSTROEM)
---------------------------------
  N    -3.211601   -0.812034   -1.174426
  C    -2.294507   -0.682632   -0.031163
  C    -1.445049    0.564074   -0.295627
  O    -1.504108    1.075956   -1.411368
  N    -0.671845    0.998116    0.694998
  C     0.333474    2.000671    0.446238
  C     1.722774    1.404911    0.235795
  O     2.550857    1.977592   -0.467523
  N     1.995803    0.270763    0.915658
  C     2.961682   -0.662095    0.387320
  C     2.204848   -1.703622   -0.508335
  O     0.961689   -1.700983   -0.408609
  O     2.893803   -2.425817   -1.245994
  H    -3.268440   -1.763154   -1.545447
  H    -4.154628   -0.470303   -0.962618
  H    -2.794146   -0.166011   -1.893360
  H    -1.596958   -1.523974   -0.009771
  H    -2.817933   -0.622002    0.920587
  H    -0.664580    0.522519    1.584210
  H     0.080179    2.507617   -0.487508
  H     0.376555    2.743343    1.246029
  H     1.182266   -0.212409    1.278236
  H     3.693985   -0.131589   -0.220596
  H     3.465881   -1.188939    1.198116

----------------------------
CARTESIAN COORDINATES (A.U.)
----------------------------
  NO LB    ZA    FRAG    MASS        X           Y           Z
   0 N   7.0000    0    14.007   -6.069047   -1.534521   -2.219344
   1 C   6.0000    0    12.011   -4.335990   -1.289987   -0.058889
   2 C   6.0000    0    12.011   -2.730747    1.065945   -0.558655
   3 O   8.0000    0    15.999   -2.842352    2.033263   -2.667099
   4 N   7.0000    0    14.007   -1.269604    1.886167    1.313356
   5 C   6.0000    0    12.011    0.630174    3.780720    0.843268
   6 C   6.0000    0    12.011    3.255571    2.654898    0.445587
   7 O   8.0000    0    15.999    4.820422    3.737107   -0.883490
   8 N   7.0000    0    14.007    3.771522    0.511668    1.730342
   9 C   6.0000    0    12.011    5.596767   -1.251178    0.731928
  10 C   6.0000    0    12.011    4.166558   -3.219380   -0.960613
  11 O   8.0000    0    15.999    1.817329   -3.214392   -0.772159
  12 O   8.0000    0    15.999    5.468496   -4.584130   -2.354587
  13 H   1.0000    0     1.008   -6.176456   -3.331878   -2.920473
  14 H   1.0000    0     1.008   -7.851110   -0.888745   -1.819085
  15 H   1.0000    0     1.008   -5.280170   -0.313715   -3.577933
  16 H   1.0000    0     1.008   -3.017813   -2.879893   -0.018464
  17 H   1.0000    0     1.008   -5.325122   -1.175413    1.739657
  18 H   1.0000    0     1.008   -1.255874    0.987418    2.993724
  19 H   1.0000    0     1.008    0.151517    4.738710   -0.921257
  20 H   1.0000    0     1.008    0.711586    5.184166    2.354653
  21 H   1.0000    0     1.008    2.234159   -0.401395    2.415516
  22 H   1.0000    0     1.008    6.980620   -0.248666   -0.416866
  23 H   1.0000    0     1.008    6.549565   -2.246769    2.264112

      -----------------------------------------------------------      
     |                   =====================                   |     
     |                           x T B                           |     
     |                   =====================                   |     
     |                         S. Grimme                         |     
     |          Mulliken Center for Theoretical Chemistry        |     
     |                    University of Bonn                     |     
      -----------------------------------------------------------      

   * xtb version 6.7.1 (edcfbbe) compiled by 'albert@albert-system' on 2024-07-22

   xtb is free software: you can redistribute it and/or modify it under
   the terms of the GNU Lesser General Public License as published by
   the Free Software Foundation, either version 3 of the License, or
   (at your option) any later version.
   
   xtb is distributed in the hope that it will be useful,
   but WITHOUT ANY WARRANTY; without even the implied warranty of
   MERCHANTABILITY or FITNESS FOR A PARTICULAR PURPOSE.  See the
   GNU Lesser General Public License for more details.
   
   Cite this work as:
   * C. Bannwarth, E. Caldeweyher, S. Ehlert, A. Hansen, P. Pracht,
     J. Seibert, S. Spicher, S. Grimme, WIREs Comput. Mol. Sci., 2020, 11,
     e01493. DOI: 10.1002/wcms.1493
   
   for GFN2-xTB:
   * C. Bannwarth, S. Ehlert and S. Grimme., J. Chem. Theory Comput., 2019,
     15, 1652-1671. DOI: 10.1021/acs.jctc.8b01176
   for GFN1-xTB:
   * S. Grimme, C. Bannwarth, P. Shushkov, J. Chem. Theory Comput., 2017,
     13, 1989-2009. DOI: 10.1021/acs.jctc.7b00118
   for GFN0-xTB:
   * P. Pracht, E. Caldeweyher, S. Ehlert, S. Grimme, ChemRxiv, 2019, preprint.
     DOI: 10.26434/chemrxiv.8326202.v1
   for GFN-FF:
   * S. Spicher and S. Grimme, Angew. Chem. Int. Ed., 2020, 59, 15665-15673.
     DOI: 10.1002/anie.202004239
   
   for ALPB and GBSA implicit solvation:
   * S. Ehlert, M. Stahn, S. Spicher, S. Grimme, J. Chem. Theory Comput.,
     2021, 17, 4250-4261. DOI: 10.1021/acs.jctc.1c00471
   
   for ddCOSMO and CPCM-X implicit solvation:
   * M. Stahn, S. Ehlert, S. Grimme, J. Phys. Chem. A,
     2023, XX, XXXX-XXXX. DOI: 10.1021/acs.jpca.3c04382
   
   for DFT-D4:
   * E. Caldeweyher, C. Bannwarth and S. Grimme, J. Chem. Phys., 2017,
     147, 034112. DOI: 10.1063/1.4993215
   * E. Caldeweyher, S. Ehlert, A. Hansen, H. Neugebauer, S. Spicher,
     C. Bannwarth and S. Grimme, J. Chem. Phys., 2019, 150, 154122.
     DOI: 10.1063/1.5090222
   * E. Caldeweyher, J.-M. Mewes, S. Ehlert and S. Grimme, Phys. Chem. Chem. Phys.
     2020, 22, 8499-8512. DOI: 10.1039/D0CP00502A
   
   for sTDA-xTB:
   * S. Grimme and C. Bannwarth, J. Chem. Phys., 2016, 145, 054103.
     DOI: 10.1063/1.4959605
   
   in the mass-spec context:
   * V. Asgeirsson, C. Bauer and S. Grimme, Chem. Sci., 2017, 8, 4879.
     DOI: 10.1039/c7sc00601b
   * J. Koopman and S. Grimme, ACS Omega 2019, 4, 12, 15120-15133.
     DOI: 10.1021/acsomega.9b02011
   
   for metadynamics refer to:
   * S. Grimme, J. Chem. Theory Comput., 2019, 155, 2847-2862
     DOI: 10.1021/acs.jctc.9b00143
   
   for SPH calculations refer to:
   * S. Spicher and S. Grimme, J. Chem. Theory Comput., 2021, 17, 1701-1714
     DOI: 10.1021/acs.jctc.0c01306
   
   for ONIOM refer to:
   * C. Plett, A. Katbashev, S. Ehlert, S. Grimme, M. Bursch,
     Phys. Chem. Chem. Phys., 2023, 25, 17860-17868. DOI: 10.1039/D3CP02178E
   
   for DIPRO refer to:
   * J. Kohn, N. Gildemeister, S. Grimme, D. Fazzi, A. Hansen,
     J. Chem. Phys., 2023, just accepted.
   
   for PTB refer to:
   * S. Grimme, M. Mueller, A. Hansen, J. Chem. Phys., 2023, 158, 124111.
     DOI: 10.1063/5.0137838
   
   with help from (in alphabetical order)
   P. Atkinson, C. Bannwarth, F. Bohle, G. Brandenburg, E. Caldeweyher
   M. Checinski, S. Dohm, S. Ehlert, S. Ehrlich, I. Gerasimov, C. Hölzer
   A. Katbashev, J. Kohn, J. Koopman, C. Lavigne, S. Lehtola, F. März, M. Müller,
   F. Musil, H. Neugebauer, J. Pisarek, C. Plett, P. Pracht, F. Pultar,
   J. Seibert, P. Shushkov, S. Spicher, M. Stahn, M. Steiner, T. Strunk,
   J. Stückrath, T. Rose, and J. Unsleber
   
 * started run on 2026/04/11 at 17:16:35.667     
   ID    Z sym.   atoms
    1    7 N      1, 5, 9
    2    6 C      2, 3, 6, 7, 10, 11
    3    8 O      4, 8, 12, 13
    4    1 H      14-24

           -------------------------------------------------
          |                Calculation Setup                |
           -------------------------------------------------

          program call               : /home/analima/Programs/orca-6.1.0-f.0_linux_x86-64/bin/otool_xtb geo_opt_XTB.xyz --grad -c 0 -u 0 -P 1 --namespace geo_opt --input geo_opt_XTB.input.tmp --alpb WATER --acc 0.200000
          calculation namespace      : geo_opt
          coordinate file            : geo_opt_XTB.xyz
          omp threads                :                     1


           -------------------------------------------------
          |                 G F N 2 - x T B                 |
           -------------------------------------------------

        Reference                      10.1021/acs.jctc.8b01176
      * Hamiltonian:
        H0-scaling (s, p, d)           1.850000    2.230000    2.230000
        zeta-weighting                 0.500000
      * Dispersion:
        s8                             2.700000
        a1                             0.520000
        a2                             5.000000
        s9                             5.000000
      * Repulsion:
        kExp                           1.500000    1.000000
        rExp                           1.000000
      * Coulomb:
        alpha                          2.000000
        third order                    shell-resolved
        anisotropic                    true
        a3                             3.000000
        a5                             4.000000
        cn-shift                       1.200000
        cn-exp                         4.000000
        max-rad                        5.000000

      * Solvation model:               ALPB
        Solvent                        WATER
        Parameter file                 internal GFN2-xTB/ALPB
        Dielectric constant                8.0200E+01
        Reference state                gsolv [1 M gas/solution]
        Free energy shift                  1.0808E-03 Eh       6.7819E-01 kcal/mol
        Temperature                        2.9815E+02 K
        Density                            1.0000E+00 kg/L
        Solvent mass                       1.8000E+01 g/mol
        Interaction kernel             P16
        Born radius scaling (c1)           1.4744E+00
        Born radii integrator          GBOBC
        Born offset                        0.0000E+00 a0       0.0000E+00 AA
        H-bond correction              true
        Ion screening                  false
        Surface tension                    1.0000E-05 Eh       1.5569E+01 dyn/cm
        Grid points                               230 per atom
q/qsh data taken from xtbrestart
CAMM data taken from xtbrestart

          ...................................................
          :                      SETUP                      :
          :.................................................:
          :  # basis functions                  63          :
          :  # atomic orbitals                  63          :
          :  # shells                           37          :
          :  # electrons                        74          :
          :  max. iterations                   250          :
          :  Hamiltonian                  GFN2-xTB          :
          :  restarted?                       true          :
          :  GBSA solvation                   true          :
          :  PC potential                    false          :
          :  electronic temp.          300.0000000     K    :
          :  accuracy                    0.2000000          :
          :  -> integral cutoff          0.3198970E+02      :
          :  -> integral neglect         0.2000000E-08      :
          :  -> SCF convergence          0.2000000E-06 Eh   :
          :  -> wf. convergence          0.2000000E-04 e    :
          :  Broyden damping             0.4000000          :
          :  net charge                          0          :
          :  unpaired electrons                  0          :
          ...................................................

 iter      E             dE          RMSdq      gap      omega  full diag
   1    -43.9622728 -0.439623E+02  0.680E-01    3.64       0.0  T
   2    -43.9624735 -0.200685E-03  0.400E-01    3.65       1.0  T
   3    -43.9624915 -0.180352E-04  0.476E-02    3.69       1.0  T
   4    -43.9624986 -0.708034E-05  0.159E-02    3.68       1.3  T
   5    -43.9624992 -0.607936E-06  0.867E-03    3.68       2.4  T
   6    -43.9624993 -0.165862E-06  0.150E-03    3.68      13.6  T
   7    -43.9624994 -0.355297E-08  0.664E-04    3.68      30.7  T
   8    -43.9624994 -0.489081E-09  0.169E-04    3.68     120.6  T
   9    -43.9624994 -0.142116E-09  0.679E-05    3.68     300.8  T

   *** convergence criteria satisfied after 9 iterations ***

         #    Occupation            Energy/Eh            Energy/eV
      -------------------------------------------------------------
         1        2.0000           -0.7308372             -19.8871
       ...           ...                  ...                  ...
        31        2.0000           -0.4472267             -12.1697
        32        2.0000           -0.4320010             -11.7553
        33        2.0000           -0.4296424             -11.6912
        34        2.0000           -0.4081627             -11.1067
        35        2.0000           -0.3994062             -10.8684
        36        2.0000           -0.3933136             -10.7026
        37        2.0000           -0.3667858              -9.9807 (HOMO)
        38                         -0.2316606              -6.3038 (LUMO)
        39                         -0.2266498              -6.1675
        40                         -0.1800450              -4.8993
        41                         -0.0513000              -1.3959
        42                         -0.0108685              -0.2957
       ...                                ...                  ...
        63                          0.6341584              17.2563
      -------------------------------------------------------------
                  HL-Gap            0.1351252 Eh            3.6769 eV
             Fermi-level           -0.2992232 Eh           -8.1423 eV

 SCC (total)                   0 d,  0 h,  0 min,  0.011 sec
 SCC setup                      ...        0 min,  0.000 sec (  2.704%)
 Dispersion                     ...        0 min,  0.000 sec (  0.658%)
 classical contributions        ...        0 min,  0.000 sec (  0.135%)
 integral evaluation            ...        0 min,  0.001 sec ( 11.261%)
 iterations                     ...        0 min,  0.006 sec ( 52.149%)
 molecular gradient             ...        0 min,  0.004 sec ( 32.223%)
 printout                       ...        0 min,  0.000 sec (  0.774%)

         :::::::::::::::::::::::::::::::::::::::::::::::::::::
         ::                     SUMMARY                     ::
         :::::::::::::::::::::::::::::::::::::::::::::::::::::
         :: total energy             -43.536823912119 Eh    ::
         :: total w/o Gsasa/hb       -43.525157111467 Eh    ::
         :: gradient norm              0.015606573332 Eh/a0 ::
         :: HOMO-LUMO gap              3.676943486341 eV    ::
         ::.................................................::
         :: SCC energy               -43.962302789411 Eh    ::
         :: -> isotropic ES            0.329156026257 Eh    ::
         :: -> anisotropic ES         -0.023881493187 Eh    ::
         :: -> anisotropic XC          0.009161239580 Eh    ::
         :: -> dispersion             -0.019089675633 Eh    ::
         :: -> Gsolv                  -0.136955386985 Eh    ::
         ::    -> Gelec               -0.125288586334 Eh    ::
         ::    -> Gsasa                0.004919957404 Eh    ::
         ::    -> Ghb                 -0.017667517753 Eh    ::
         ::    -> Gshift               0.001080759698 Eh    ::
         :: repulsion energy           0.425478877292 Eh    ::
         :: add. restraining           0.000000000000 Eh    ::
         :: total charge               0.000000000000 e     ::
         :::::::::::::::::::::::::::::::::::::::::::::::::::::


Property printout bound to 'properties.out'

           -------------------------------------------------
          | TOTAL ENERGY              -43.536823912119 Eh   |
          | GRADIENT NORM               0.015606573332 Eh/α |
          | HOMO-LUMO GAP               3.676943486341 eV   |
           -------------------------------------------------

------------------------------------------------------------------------
 * finished run on 2026/04/11 at 17:16:35.684     
------------------------------------------------------------------------
 total:
 * wall-time:     0 d,  0 h,  0 min,  0.017 sec
 *  cpu-time:     0 d,  0 h,  0 min,  0.015 sec
 * ratio c/w:     0.894 speedup
 SCF:
 * wall-time:     0 d,  0 h,  0 min,  0.011 sec
 *  cpu-time:     0 d,  0 h,  0 min,  0.010 sec
 * ratio c/w:     0.873 speedup


-------------------------   --------------------
FINAL SINGLE POINT ENERGY       -43.536823912120
-------------------------   --------------------


-------------
DIPOLE MOMENT
-------------
                                X             Y             Z
Total Dipole Moment    :     -9.81800       0.64900       2.46100
                        -----------------------------------------
Magnitude (a.u.)       :     10.14253
Magnitude (Debye)      :     25.78025


------------------
CARTESIAN GRADIENT
------------------

   1   N   :    0.001872221   -0.002733324    0.001860145
   2   C   :   -0.000503955    0.000440968   -0.001512651
   3   C   :   -0.001846089    0.003801801    0.005553302
   4   O   :    0.000822805    0.000011346   -0.001517524
   5   N   :    0.003188532   -0.003701664   -0.001193414
   6   C   :   -0.001295471   -0.000511596   -0.001105166
   7   C   :   -0.007845271   -0.000558067    0.001123136
   8   O   :    0.002374025   -0.000367847   -0.000879983
   9   N   :    0.002812278   -0.003839124    0.002868138
  10   C   :    0.000421454    0.000421118   -0.001715259
  11   C   :    0.001046406    0.000404386    0.003049437
  12   O   :    0.000716845    0.000443971   -0.001078746
  13   O   :   -0.000487254    0.000510502   -0.001218070
  14   H   :   -0.000930008    0.000478733    0.000232268
  15   H   :    0.000107540    0.000068132   -0.000687763
  16   H   :    0.000413125    0.001752197   -0.001045832
  17   H   :   -0.001879206   -0.000615929   -0.000975768
  18   H   :    0.000385271   -0.000275327    0.000255289
  19   H   :    0.000923731    0.000405538   -0.000244161
  20   H   :    0.000469194   -0.001301429   -0.000014560
  21   H   :    0.000656215    0.001631957   -0.001076625
  22   H   :   -0.000471100    0.002779354   -0.000774117
  23   H   :   -0.000175075    0.000493204    0.000314202
  24   H   :   -0.000776213    0.000261099   -0.000216277

Difference to translation invariance:
           :    0.0000000000   -0.0000000000   -0.0000000000

Difference to rotation invariance:
           :    0.0000477003    0.0001686833    0.0001483282

Norm of the Cartesian gradient     ...    0.0156065733
RMS gradient                       ...    0.0018392523
MAX gradient                       ...    0.0078452706
------------------------------------------------------------------------------
                         ORCA GEOMETRY RELAXATION STEP
------------------------------------------------------------------------------

Reading the OPT-File                    .... done
Getting information on internals        .... done
Copying old internal coords+grads       .... done
Making the new internal coordinates     .... (2022 redundants) done
Validating the new internal coordinates .... (2022 redundants) done
Calculating the B-matrix                .... done
Calculating the G,G- and P matrices     .... done
Transforming gradient to internals      .... done
Projecting the internal gradient        .... done
Number of atoms                         ....  24
Number of internal coordinates          .... 102
Current Energy                          ....   -43.536823912 Eh
Current gradient norm                   ....     0.015606573 Eh/bohr
Maximum allowed component of the step   ....  0.300
Current trust radius                    ....  0.700
Updating the Hessian (BFGS)             .... done
Forming the augmented Hessian           .... done
Diagonalizing the augmented Hessian     .... done
Last element of RFO vector              ....  0.882986765
Lowest eigenvalues of augmented Hessian:
 -0.002994273  0.004050033  0.011140061  0.013307267  0.014878115
Length of the computed step             ....  0.531602399
The final length of the internal step   ....  0.531602399
Converting the step to Cartesian space:
 Initial RMS(Int)=    0.0526364810
Transforming coordinates:
 Iter   0:  RMS(Cart)=    0.3519379094 RMS(Int)=    0.0546442526
 Iter   5:  RMS(Cart)=    0.0001491337 RMS(Int)=    0.0000529058
 Iter  10:  RMS(Cart)=    0.0000002601 RMS(Int)=    0.0000001369
done
Storing new coordinates                 .... done
The predicted energy change is          ....    -0.001920229
Previously predicted energy change      ....    -0.001830574
Actually observed energy change         ....    -0.002252034
Ratio of predicted to observed change   ....     1.230233968
New trust radius                        ....     0.700000000

                                .--------------------.
          ----------------------|Geometry convergence|-------------------------
          Item                value                   Tolerance       Converged
          ---------------------------------------------------------------------
          Energy change      -0.0022520338            0.0000050000      NO
          RMS gradient        0.0015305153            0.0001000000      NO
          MAX gradient        0.0050376126            0.0003000000      NO
          RMS step            0.0526364810            0.0020000000      NO
          MAX step            0.1843370606            0.0040000000      NO
          -------------------------------------------------------------------------
          ........................................................
          Max(Bonds)      0.0241      Max(Angles)    2.59
          Max(Dihed)       10.56      Max(Improp)    0.00
          ---------------------------------------------------------------------

The optimization has not yet converged - more geometry cycles are needed


    ---------------------------------------------------------------------------
                         Redundant Internal Coordinates
                            (Angstroem and degrees)

        Definition                    Value    dE/dq     Step     New-Value
    ----------------------------------------------------------------------------
     1. B(C   1,N   0)                1.4713 -0.000642  0.0013    1.4727   
     2. B(C   2,C   1)                1.5316  0.001332 -0.0037    1.5279   
     3. B(O   3,C   2)                1.2290  0.001351  0.0013    1.2303   
     4. B(N   4,C   2)                1.3295 -0.001655 -0.0006    1.3289   
     5. B(C   5,N   4)                1.4414 -0.001411  0.0051    1.4465   
     6. B(C   6,C   5)                1.5262 -0.002588 -0.0012    1.5250   
     7. B(O   7,C   6)                1.2281  0.001933 -0.0019    1.2263   
     8. B(N   8,C   6)                1.3502  0.000020  0.0035    1.3537   
     9. B(C   9,N   8)                1.4430 -0.000824  0.0073    1.4503   
    10. B(C  10,C   9)                1.5684 -0.001948 -0.0039    1.5645   
    11. B(O  11,C  10)                1.2472 -0.000799  0.0041    1.2513   
    12. B(O  12,C  10)                1.2411  0.000156  0.0011    1.2422   
    13. B(H  13,N   0)                1.0225 -0.000478 -0.0001    1.0224   
    14. B(H  14,N   0)                1.0252 -0.000219 -0.0009    1.0242   
    15. B(H  15,N   0)                1.0528  0.001583 -0.0022    1.0506   
    16. B(H  15,O   3)                1.8545 -0.000730  0.0241    1.8786   
    17. B(H  16,C   1)                1.0931 -0.000745  0.0018    1.0949   
    18. B(H  17,C   1)                1.0879  0.000022 -0.0013    1.0866   
    19. B(H  18,N   4)                1.0084 -0.000401 -0.0007    1.0078   
    20. B(H  19,C   5)                1.0923 -0.000700 -0.0002    1.0921   
    21. B(H  20,C   5)                1.0923  0.000347 -0.0013    1.0910   
    22. B(H  21,N   8)                1.0133 -0.001223  0.0025    1.0158   
    23. B(H  22,C   9)                1.0896 -0.000055 -0.0010    1.0886   
    24. B(H  23,C   9)                1.0905 -0.000644  0.0010    1.0915   
    25. A(H  14,N   0,H  15)          107.53 -0.000831    0.83    108.36   
    26. A(H  13,N   0,H  15)          110.18 -0.000090   -0.41    109.78   
    27. A(C   1,N   0,H  13)          113.48  0.000659   -0.28    113.20   
    28. A(C   1,N   0,H  14)          112.55  0.000357    0.43    112.98   
    29. A(H  13,N   0,H  14)          109.51 -0.000767   -0.45    109.05   
    30. A(C   1,N   0,H  15)          103.27  0.000663   -0.02    103.24   
    31. A(N   0,C   1,H  17)          112.63  0.000349    0.13    112.76   
    32. A(N   0,C   1,C   2)          106.45  0.000471    0.44    106.88   
    33. A(C   2,C   1,H  16)          106.02  0.001399   -1.54    104.48   
    34. A(N   0,C   1,H  16)          110.20 -0.001905    0.64    110.84   
    35. A(C   2,C   1,H  17)          111.87  0.000103    0.44    112.31   
    36. A(H  16,C   1,H  17)          109.44 -0.000374   -0.19    109.25   
    37. A(C   1,C   2,N   4)          117.36  0.005038   -0.67    116.70   
    38. A(C   1,C   2,O   3)          117.98 -0.001525    0.46    118.44   
    39. A(O   3,C   2,N   4)          124.64 -0.003516    0.20    124.84   
    40. A(C   2,N   4,H  18)          120.48  0.003273   -1.38    119.10   
    41. A(C   2,N   4,C   5)          120.27 -0.004523    0.44    120.71   
    42. A(C   5,N   4,H  18)          118.37  0.001452   -0.19    118.18   
    43. A(N   4,C   5,H  20)          111.97  0.001208   -0.09    111.87   
    44. A(C   6,C   5,H  19)          105.93  0.000070   -0.13    105.79   
    45. A(N   4,C   5,H  19)          107.98 -0.001086   -0.26    107.72   
    46. A(N   4,C   5,C   6)          112.78  0.001911   -0.65    112.13   
    47. A(H  19,C   5,H  20)          108.63 -0.000246   -0.13    108.51   
    48. A(C   6,C   5,H  20)          109.30 -0.001969    1.28    110.58   
    49. A(C   5,C   6,O   7)          120.71  0.000103    0.39    121.10   
    50. A(O   7,C   6,N   8)          122.94 -0.003659    0.19    123.13   
    51. A(C   5,C   6,N   8)          116.27  0.003532   -0.45    115.81   
    52. A(C   6,N   8,C   9)          119.60 -0.004344    0.39    119.99   
    53. A(C   9,N   8,H  21)          111.11  0.004680   -2.59    108.52   
    54. A(C   6,N   8,H  21)          114.73 -0.001340   -0.68    114.05   
    55. A(H  22,C   9,H  23)          109.83  0.000481   -0.36    109.48   
    56. A(N   8,C   9,C  10)          108.38  0.000204   -0.77    107.61   
    57. A(C  10,C   9,H  23)          109.08  0.000710   -0.35    108.73   
    58. A(N   8,C   9,H  23)          110.46 -0.000595   -0.40    110.06   
    59. A(C  10,C   9,H  22)          109.21 -0.000143    1.71    110.92   
    60. A(N   8,C   9,H  22)          109.84 -0.000650    0.18    110.02   
    61. A(O  11,C  10,O  12)          127.02 -0.000749   -0.35    126.67   
    62. A(C   9,C  10,O  12)          117.26  0.000624    0.40    117.66   
    63. A(C   9,C  10,O  11)          115.72  0.000093   -0.01    115.71   
    64. D(H  16,C   1,N   0,H  15)    -99.67 -0.000707   -0.32    -99.99   
    65. D(C   2,C   1,N   0,H  15)     14.86  0.000250   -1.56     13.31   
    66. D(H  16,C   1,N   0,H  13)     19.60 -0.000059   -1.00     18.60   
    67. D(H  16,C   1,N   0,H  14)    144.67 -0.000274   -1.47    143.20   
    68. D(C   2,C   1,N   0,H  14)   -100.80  0.000683   -2.71   -103.51   
    69. D(C   2,C   1,N   0,H  13)    134.13  0.000898   -2.24    131.89   
    70. D(N   4,C   2,C   1,H  16)    -72.18 -0.000710    1.03    -71.15   
    71. D(N   4,C   2,C   1,N   0)    170.48  0.000577    0.85    171.33   
    72. D(O   3,C   2,C   1,H  17)   -134.37 -0.000427    0.33   -134.05   
    73. D(O   3,C   2,C   1,N   0)    -10.95  0.000388    1.08     -9.87   
    74. D(O   3,C   2,C   1,H  16)    106.39 -0.000899    1.27    107.66   
    75. D(H  18,N   4,C   2,C   1)     -0.80 -0.000263    2.89      2.08   
    76. D(C   5,N   4,C   2,O   3)    -10.16  0.001297   -6.22    -16.38   
    77. D(H  18,N   4,C   2,O   3)   -179.27 -0.000103    2.71   -176.56   
    78. D(C   5,N   4,C   2,C   1)    168.30  0.001137   -6.04    162.27   
    79. D(H  20,C   5,N   4,C   2)    138.72 -0.002375    7.08    145.80   
    80. D(H  19,C   5,N   4,H  18)   -171.49 -0.000510   -1.41   -172.89   
    81. D(H  19,C   5,N   4,C   2)     19.18 -0.002095    7.49     26.67   
    82. D(C   6,C   5,N   4,H  18)     71.82 -0.001005   -0.69     71.14   
    83. D(C   6,C   5,N   4,C   2)    -97.51 -0.002590    8.21    -89.30   
    84. D(N   8,C   6,C   5,H  19)   -149.86 -0.000403   -0.92   -150.79   
    85. D(N   8,C   6,C   5,N   4)    -31.97 -0.000636   -1.70    -33.66   
    86. D(O   7,C   6,C   5,H  20)    -83.41  0.001390   -4.63    -88.04   
    87. D(O   7,C   6,C   5,H  19)     33.46  0.000161   -4.23     29.22   
    88. D(O   7,C   6,C   5,N   4)    151.36 -0.000072   -5.01    146.35   
    89. D(H  21,N   8,C   6,O   7)   -166.47  0.000512   -3.10   -169.56   
    90. D(H  21,N   8,C   6,C   5)     16.94  0.000945   -6.44     10.49   
    91. D(C   9,N   8,C   6,O   7)    -30.60  0.001305   -6.06    -36.66   
    92. D(C   9,N   8,C   6,C   5)    152.81  0.001738   -9.41    143.40   
    93. D(C  10,C   9,N   8,H  21)     46.15  0.000241  -10.56     35.58   
    94. D(C  10,C   9,N   8,C   6)    -91.17  0.001723   -8.23    -99.40   
    95. D(H  23,C   9,N   8,C   6)    149.38  0.001082   -7.09    142.28   
    96. D(H  22,C   9,N   8,H  21)    165.39 -0.000189   -8.82    156.57   
    97. D(H  22,C   9,N   8,C   6)     28.07  0.001293   -6.49     21.58   
    98. D(O  12,C  10,C   9,H  22)     47.04 -0.000942   -2.30     44.74   
    99. D(O  12,C  10,C   9,N   8)    166.68 -0.001689   -1.55    165.13   
   100. D(O  11,C  10,C   9,H  23)    107.82  0.000370    0.79    108.61   
   101. D(O  11,C  10,C   9,H  22)   -132.13  0.001298    1.20   -130.93   
   102. D(O  11,C  10,C   9,N   8)    -12.49  0.000551    1.95    -10.54   
    ----------------------------------------------------------------------------

Geometry step timings:
Preparation and reading OPT file:      0.000 s ( 0.761 %)
Internal coordinates            :      0.000 s ( 0.761 %)
B/P matrices and projection     :      0.001 s (40.664 %)
Hessian update/contruction      :      0.000 s ( 9.613 %)
Making the step                 :      0.000 s (30.498 %)
Converting the step to Cartesian:      0.000 s ( 4.564 %)
Storing new data                :      0.000 s ( 0.761 %)
Checking convergence            :      0.000 s ( 0.968 %)
Final printing                  :      0.000 s (11.411 %)
Total time                      :      0.001 s

Time for energy+gradient        :      0.021 s
Time for complete geometry iter :      0.023 s

         *************************************************************
         *                GEOMETRY OPTIMIZATION CYCLE  11            *
         *************************************************************
---------------------------------
CARTESIAN COORDINATES (ANGSTROEM)
---------------------------------
  N    -2.926768   -0.929725   -1.255802
  C    -2.074917   -0.715004   -0.073452
  C    -1.348464    0.613456   -0.280929
  O    -1.419183    1.155671   -1.383030
  N    -0.659904    1.084441    0.753439
  C     0.349721    2.101827    0.558617
  C     1.722129    1.501655    0.272526
  O     2.514630    2.062317   -0.476698
  N     1.994133    0.330334    0.894178
  C     2.761631   -0.696941    0.216639
  C     1.750306   -1.749307   -0.346618
  O     0.569792   -1.632946    0.051517
  O     2.169942   -2.553908   -1.194972
  H    -2.835717   -1.867594   -1.652508
  H    -3.916534   -0.737424   -1.075745
  H    -2.571318   -0.218251   -1.941952
  H    -1.274277   -1.460637   -0.030526
  H    -2.635336   -0.737327    0.857169
  H    -0.622284    0.539418    1.600255
  H     0.081418    2.669060   -0.335216
  H     0.400850    2.790537    1.403158
  H     1.193039   -0.100795    1.346100
  H     3.349693   -0.254480   -0.585503
  H     3.427420   -1.194378    0.924193

----------------------------
CARTESIAN COORDINATES (A.U.)
----------------------------
  NO LB    ZA    FRAG    MASS        X           Y           Z
   0 N   7.0000    0    14.007   -5.530790   -1.756925   -2.373122
   1 C   6.0000    0    12.011   -3.921025   -1.351162   -0.138805
   2 C   6.0000    0    12.011   -2.548228    1.159264   -0.530879
   3 O   8.0000    0    15.999   -2.681867    2.183901   -2.613547
   4 N   7.0000    0    14.007   -1.247038    2.049296    1.423794
   5 C   6.0000    0    12.011    0.660876    3.971878    1.055633
   6 C   6.0000    0    12.011    3.254351    2.837716    0.514999
   7 O   8.0000    0    15.999    4.751962    3.897214   -0.900828
   8 N   7.0000    0    14.007    3.768364    0.624241    1.689752
   9 C   6.0000    0    12.011    5.218726   -1.317027    0.409389
  10 C   6.0000    0    12.011    3.307598   -3.305710   -0.655014
  11 O   8.0000    0    15.999    1.076751   -3.085822    0.097353
  12 O   8.0000    0    15.999    4.100597   -4.826186   -2.258170
  13 H   1.0000    0     1.008   -5.358729   -3.529240   -3.122787
  14 H   1.0000    0     1.008   -7.401176   -1.393529   -2.032864
  15 H   1.0000    0     1.008   -4.859087   -0.412434   -3.669757
  16 H   1.0000    0     1.008   -2.408035   -2.760204   -0.057686
  17 H   1.0000    0     1.008   -4.980063   -1.393346    1.619815
  18 H   1.0000    0     1.008   -1.175946    1.019352    3.024044
  19 H   1.0000    0     1.008    0.153858    5.043793   -0.633466
  20 H   1.0000    0     1.008    0.757497    5.273351    2.651585
  21 H   1.0000    0     1.008    2.254517   -0.190475    2.543760
  22 H   1.0000    0     1.008    6.330002   -0.480898   -1.106439
  23 H   1.0000    0     1.008    6.476885   -2.257048    1.746472

      -----------------------------------------------------------      
     |                   =====================                   |     
     |                           x T B                           |     
     |                   =====================                   |     
     |                         S. Grimme                         |     
     |          Mulliken Center for Theoretical Chemistry        |     
     |                    University of Bonn                     |     
      -----------------------------------------------------------      

   * xtb version 6.7.1 (edcfbbe) compiled by 'albert@albert-system' on 2024-07-22

   xtb is free software: you can redistribute it and/or modify it under
   the terms of the GNU Lesser General Public License as published by
   the Free Software Foundation, either version 3 of the License, or
   (at your option) any later version.
   
   xtb is distributed in the hope that it will be useful,
   but WITHOUT ANY WARRANTY; without even the implied warranty of
   MERCHANTABILITY or FITNESS FOR A PARTICULAR PURPOSE.  See the
   GNU Lesser General Public License for more details.
   
   Cite this work as:
   * C. Bannwarth, E. Caldeweyher, S. Ehlert, A. Hansen, P. Pracht,
     J. Seibert, S. Spicher, S. Grimme, WIREs Comput. Mol. Sci., 2020, 11,
     e01493. DOI: 10.1002/wcms.1493
   
   for GFN2-xTB:
   * C. Bannwarth, S. Ehlert and S. Grimme., J. Chem. Theory Comput., 2019,
     15, 1652-1671. DOI: 10.1021/acs.jctc.8b01176
   for GFN1-xTB:
   * S. Grimme, C. Bannwarth, P. Shushkov, J. Chem. Theory Comput., 2017,
     13, 1989-2009. DOI: 10.1021/acs.jctc.7b00118
   for GFN0-xTB:
   * P. Pracht, E. Caldeweyher, S. Ehlert, S. Grimme, ChemRxiv, 2019, preprint.
     DOI: 10.26434/chemrxiv.8326202.v1
   for GFN-FF:
   * S. Spicher and S. Grimme, Angew. Chem. Int. Ed., 2020, 59, 15665-15673.
     DOI: 10.1002/anie.202004239
   
   for ALPB and GBSA implicit solvation:
   * S. Ehlert, M. Stahn, S. Spicher, S. Grimme, J. Chem. Theory Comput.,
     2021, 17, 4250-4261. DOI: 10.1021/acs.jctc.1c00471
   
   for ddCOSMO and CPCM-X implicit solvation:
   * M. Stahn, S. Ehlert, S. Grimme, J. Phys. Chem. A,
     2023, XX, XXXX-XXXX. DOI: 10.1021/acs.jpca.3c04382
   
   for DFT-D4:
   * E. Caldeweyher, C. Bannwarth and S. Grimme, J. Chem. Phys., 2017,
     147, 034112. DOI: 10.1063/1.4993215
   * E. Caldeweyher, S. Ehlert, A. Hansen, H. Neugebauer, S. Spicher,
     C. Bannwarth and S. Grimme, J. Chem. Phys., 2019, 150, 154122.
     DOI: 10.1063/1.5090222
   * E. Caldeweyher, J.-M. Mewes, S. Ehlert and S. Grimme, Phys. Chem. Chem. Phys.
     2020, 22, 8499-8512. DOI: 10.1039/D0CP00502A
   
   for sTDA-xTB:
   * S. Grimme and C. Bannwarth, J. Chem. Phys., 2016, 145, 054103.
     DOI: 10.1063/1.4959605
   
   in the mass-spec context:
   * V. Asgeirsson, C. Bauer and S. Grimme, Chem. Sci., 2017, 8, 4879.
     DOI: 10.1039/c7sc00601b
   * J. Koopman and S. Grimme, ACS Omega 2019, 4, 12, 15120-15133.
     DOI: 10.1021/acsomega.9b02011
   
   for metadynamics refer to:
   * S. Grimme, J. Chem. Theory Comput., 2019, 155, 2847-2862
     DOI: 10.1021/acs.jctc.9b00143
   
   for SPH calculations refer to:
   * S. Spicher and S. Grimme, J. Chem. Theory Comput., 2021, 17, 1701-1714
     DOI: 10.1021/acs.jctc.0c01306
   
   for ONIOM refer to:
   * C. Plett, A. Katbashev, S. Ehlert, S. Grimme, M. Bursch,
     Phys. Chem. Chem. Phys., 2023, 25, 17860-17868. DOI: 10.1039/D3CP02178E
   
   for DIPRO refer to:
   * J. Kohn, N. Gildemeister, S. Grimme, D. Fazzi, A. Hansen,
     J. Chem. Phys., 2023, just accepted.
   
   for PTB refer to:
   * S. Grimme, M. Mueller, A. Hansen, J. Chem. Phys., 2023, 158, 124111.
     DOI: 10.1063/5.0137838
   
   with help from (in alphabetical order)
   P. Atkinson, C. Bannwarth, F. Bohle, G. Brandenburg, E. Caldeweyher
   M. Checinski, S. Dohm, S. Ehlert, S. Ehrlich, I. Gerasimov, C. Hölzer
   A. Katbashev, J. Kohn, J. Koopman, C. Lavigne, S. Lehtola, F. März, M. Müller,
   F. Musil, H. Neugebauer, J. Pisarek, C. Plett, P. Pracht, F. Pultar,
   J. Seibert, P. Shushkov, S. Spicher, M. Stahn, M. Steiner, T. Strunk,
   J. Stückrath, T. Rose, and J. Unsleber
   
 * started run on 2026/04/11 at 17:16:35.690     
   ID    Z sym.   atoms
    1    7 N      1, 5, 9
    2    6 C      2, 3, 6, 7, 10, 11
    3    8 O      4, 8, 12, 13
    4    1 H      14-24

           -------------------------------------------------
          |                Calculation Setup                |
           -------------------------------------------------

          program call               : /home/analima/Programs/orca-6.1.0-f.0_linux_x86-64/bin/otool_xtb geo_opt_XTB.xyz --grad -c 0 -u 0 -P 1 --namespace geo_opt --input geo_opt_XTB.input.tmp --alpb WATER --acc 0.200000
          calculation namespace      : geo_opt
          coordinate file            : geo_opt_XTB.xyz
          omp threads                :                     1


           -------------------------------------------------
          |                 G F N 2 - x T B                 |
           -------------------------------------------------

        Reference                      10.1021/acs.jctc.8b01176
      * Hamiltonian:
        H0-scaling (s, p, d)           1.850000    2.230000    2.230000
        zeta-weighting                 0.500000
      * Dispersion:
        s8                             2.700000
        a1                             0.520000
        a2                             5.000000
        s9                             5.000000
      * Repulsion:
        kExp                           1.500000    1.000000
        rExp                           1.000000
      * Coulomb:
        alpha                          2.000000
        third order                    shell-resolved
        anisotropic                    true
        a3                             3.000000
        a5                             4.000000
        cn-shift                       1.200000
        cn-exp                         4.000000
        max-rad                        5.000000

      * Solvation model:               ALPB
        Solvent                        WATER
        Parameter file                 internal GFN2-xTB/ALPB
        Dielectric constant                8.0200E+01
        Reference state                gsolv [1 M gas/solution]
        Free energy shift                  1.0808E-03 Eh       6.7819E-01 kcal/mol
        Temperature                        2.9815E+02 K
        Density                            1.0000E+00 kg/L
        Solvent mass                       1.8000E+01 g/mol
        Interaction kernel             P16
        Born radius scaling (c1)           1.4744E+00
        Born radii integrator          GBOBC
        Born offset                        0.0000E+00 a0       0.0000E+00 AA
        H-bond correction              true
        Ion screening                  false
        Surface tension                    1.0000E-05 Eh       1.5569E+01 dyn/cm
        Grid points                               230 per atom
q/qsh data taken from xtbrestart
CAMM data taken from xtbrestart

          ...................................................
          :                      SETUP                      :
          :.................................................:
          :  # basis functions                  63          :
          :  # atomic orbitals                  63          :
          :  # shells                           37          :
          :  # electrons                        74          :
          :  max. iterations                   250          :
          :  Hamiltonian                  GFN2-xTB          :
          :  restarted?                       true          :
          :  GBSA solvation                   true          :
          :  PC potential                    false          :
          :  electronic temp.          300.0000000     K    :
          :  accuracy                    0.2000000          :
          :  -> integral cutoff          0.3198970E+02      :
          :  -> integral neglect         0.2000000E-08      :
          :  -> SCF convergence          0.2000000E-06 Eh   :
          :  -> wf. convergence          0.2000000E-04 e    :
          :  Broyden damping             0.4000000          :
          :  net charge                          0          :
          :  unpaired electrons                  0          :
          ...................................................

 iter      E             dE          RMSdq      gap      omega  full diag
   1    -43.9590798 -0.439591E+02  0.561E-01    3.71       0.0  T
   2    -43.9593232 -0.243373E-03  0.326E-01    3.75       1.0  T
   3    -43.9593397 -0.165505E-04  0.608E-02    3.81       1.0  T
   4    -43.9593510 -0.112885E-04  0.176E-02    3.80       1.2  T
   5    -43.9593520 -0.959797E-06  0.867E-03    3.80       2.4  T
   6    -43.9593521 -0.142130E-06  0.156E-03    3.80      13.1  T
   7    -43.9593521 -0.313074E-08  0.660E-04    3.80      30.9  T
   8    -43.9593521 -0.784539E-09  0.169E-04    3.80     120.5  T
   9    -43.9593521 -0.627196E-10  0.689E-05    3.80     296.3  T

   *** convergence criteria satisfied after 9 iterations ***

         #    Occupation            Energy/Eh            Energy/eV
      -------------------------------------------------------------
         1        2.0000           -0.7274690             -19.7954
       ...           ...                  ...                  ...
        31        2.0000           -0.4476347             -12.1808
        32        2.0000           -0.4297799             -11.6949
        33        2.0000           -0.4273782             -11.6296
        34        2.0000           -0.4142331             -11.2719
        35        2.0000           -0.4007871             -10.9060
        36        2.0000           -0.3990909             -10.8598
        37        2.0000           -0.3728491             -10.1457 (HOMO)
        38                         -0.2332336              -6.3466 (LUMO)
        39                         -0.2266007              -6.1661
        40                         -0.1877968              -5.1102
        41                         -0.0487977              -1.3279
        42                         -0.0073537              -0.2001
       ...                                ...                  ...
        63                          0.6287542              17.1093
      -------------------------------------------------------------
                  HL-Gap            0.1396155 Eh            3.7991 eV
             Fermi-level           -0.3030413 Eh           -8.2462 eV

 SCC (total)                   0 d,  0 h,  0 min,  0.013 sec
 SCC setup                      ...        0 min,  0.000 sec (  3.495%)
 Dispersion                     ...        0 min,  0.000 sec (  0.949%)
 classical contributions        ...        0 min,  0.000 sec (  0.197%)
 integral evaluation            ...        0 min,  0.002 sec ( 17.797%)
 iterations                     ...        0 min,  0.006 sec ( 46.996%)
 molecular gradient             ...        0 min,  0.004 sec ( 29.921%)
 printout                       ...        0 min,  0.000 sec (  0.540%)

         :::::::::::::::::::::::::::::::::::::::::::::::::::::
         ::                     SUMMARY                     ::
         :::::::::::::::::::::::::::::::::::::::::::::::::::::
         :: total energy             -43.535265459093 Eh    ::
         :: total w/o Gsasa/hb       -43.523869233040 Eh    ::
         :: gradient norm              0.025899939006 Eh/a0 ::
         :: HOMO-LUMO gap              3.799131378094 eV    ::
         ::.................................................::
         :: SCC energy               -43.959124649123 Eh    ::
         :: -> isotropic ES            0.301543415306 Eh    ::
         :: -> anisotropic ES         -0.025153857903 Eh    ::
         :: -> anisotropic XC          0.009050947988 Eh    ::
         :: -> dispersion             -0.019924341667 Eh    ::
         :: -> Gsolv                  -0.115735370756 Eh    ::
         ::    -> Gelec               -0.104339144703 Eh    ::
         ::    -> Gsasa                0.004548043141 Eh    ::
         ::    -> Ghb                 -0.017025028892 Eh    ::
         ::    -> Gshift               0.001080759698 Eh    ::
         :: repulsion energy           0.423859190030 Eh    ::
         :: add. restraining           0.000000000000 Eh    ::
         :: total charge               0.000000000000 e     ::
         :::::::::::::::::::::::::::::::::::::::::::::::::::::


Property printout bound to 'properties.out'

           -------------------------------------------------
          | TOTAL ENERGY              -43.535265459093 Eh   |
          | GRADIENT NORM               0.025899939006 Eh/α |
          | HOMO-LUMO GAP               3.799131378094 eV   |
           -------------------------------------------------

------------------------------------------------------------------------
 * finished run on 2026/04/11 at 17:16:35.709     
------------------------------------------------------------------------
 total:
 * wall-time:     0 d,  0 h,  0 min,  0.019 sec
 *  cpu-time:     0 d,  0 h,  0 min,  0.018 sec
 * ratio c/w:     0.927 speedup
 SCF:
 * wall-time:     0 d,  0 h,  0 min,  0.013 sec
 *  cpu-time:     0 d,  0 h,  0 min,  0.012 sec
 * ratio c/w:     0.898 speedup


-------------------------   --------------------
FINAL SINGLE POINT ENERGY       -43.535265459090
-------------------------   --------------------


-------------
DIPOLE MOMENT
-------------
                                X             Y             Z
Total Dipole Moment    :     -8.04600       0.28200       1.78000
                        -----------------------------------------
Magnitude (a.u.)       :      8.24536
Magnitude (Debye)      :     20.95805


------------------
CARTESIAN GRADIENT
------------------

   1   N   :    0.001447269   -0.002033015    0.002037158
   2   C   :    0.003538292   -0.001778247   -0.000448747
   3   C   :    0.001903256    0.003946169    0.007558800
   4   O   :    0.000206852    0.001292846   -0.002133749
   5   N   :   -0.000979007   -0.005822257   -0.002893099
   6   C   :    0.002037411   -0.001903973   -0.001347869
   7   C   :   -0.006258497    0.003705312    0.002582020
   8   O   :    0.000831403   -0.000073168   -0.001016298
   9   N   :    0.001507560   -0.002836029    0.005470711
  10   C   :    0.000615607   -0.001686544   -0.008274930
  11   C   :    0.001344569   -0.001942554    0.011537477
  12   O   :   -0.009887356    0.004853015   -0.001979818
  13   O   :    0.000534585   -0.000661589   -0.005735262
  14   H   :   -0.001444565    0.000523466   -0.000261703
  15   H   :    0.000188371   -0.000745852   -0.000899214
  16   H   :    0.000666543    0.001035812   -0.001079908
  17   H   :    0.002102030   -0.000052797   -0.000698052
  18   H   :    0.000755036   -0.000857798    0.000142513
  19   H   :    0.001123023    0.000730362   -0.001298120
  20   H   :    0.000439763   -0.001519599    0.000136561
  21   H   :    0.000526551    0.001926641   -0.001562382
  22   H   :   -0.000381087    0.002305237   -0.001466498
  23   H   :    0.000481879    0.000973302    0.001514163
  24   H   :   -0.001299489    0.000621261    0.000116245

Difference to translation invariance:
           :    0.0000000000    0.0000000000   -0.0000000000

Difference to rotation invariance:
           :    0.0000678544   -0.0002754231   -0.0003021566

Norm of the Cartesian gradient     ...    0.0258999390
RMS gradient                       ...    0.0030523371
MAX gradient                       ...    0.0115374771
------------------------------------------------------------------------------
                         ORCA GEOMETRY RELAXATION STEP
------------------------------------------------------------------------------

Reading the OPT-File                    .... done
Getting information on internals        .... done
Copying old internal coords+grads       .... done
Making the new internal coordinates     .... (2022 redundants) done
Validating the new internal coordinates .... (2022 redundants) done
Calculating the B-matrix                .... done
Calculating the G,G- and P matrices     .... done
Transforming gradient to internals      .... done
Projecting the internal gradient        .... done
Number of atoms                         ....  24
Number of internal coordinates          .... 102
Current Energy                          ....   -43.535265459 Eh
Current gradient norm                   ....     0.025899939 Eh/bohr
Maximum allowed component of the step   ....  0.300
Current trust radius                    ....  0.700
Updating the Hessian (BFGS)             .... done
Forming the augmented Hessian           .... done
Diagonalizing the augmented Hessian     .... done
Last element of RFO vector              ....  0.969505648
Lowest eigenvalues of augmented Hessian:
 -0.010307395  0.005170080  0.008153994  0.012812570  0.014541219
Length of the computed step             ....  0.252777244
The final length of the internal step   ....  0.252777244
Converting the step to Cartesian space:
 Initial RMS(Int)=    0.0250286767
Transforming coordinates:
 Iter   0:  RMS(Cart)=    0.2107669502 RMS(Int)=    0.0255264482
 Iter   5:  RMS(Cart)=    0.0000015336 RMS(Int)=    0.0000008496
done
Storing new coordinates                 .... done
The predicted energy change is          ....    -0.005483000
Previously predicted energy change      ....    -0.001920229
Actually observed energy change         ....     0.001558453
Ratio of predicted to observed change   ....     0.811597426
New trust radius                        ....     0.466666667

                                .--------------------.
          ----------------------|Geometry convergence|-------------------------
          Item                value                   Tolerance       Converged
          ---------------------------------------------------------------------
          Energy change       0.0015584530            0.0000050000      NO
          RMS gradient        0.0077509911            0.0001000000      NO
          MAX gradient        0.0429370376            0.0003000000      NO
          RMS step            0.0250286767            0.0020000000      NO
          MAX step            0.1121053661            0.0040000000      NO
          -------------------------------------------------------------------------
          ........................................................
          Max(Bonds)      0.0119      Max(Angles)    1.71
          Max(Dihed)        6.42      Max(Improp)    0.00
          ---------------------------------------------------------------------

The optimization has not yet converged - more geometry cycles are needed


    ---------------------------------------------------------------------------
                         Redundant Internal Coordinates
                            (Angstroem and degrees)

        Definition                    Value    dE/dq     Step     New-Value
    ----------------------------------------------------------------------------
     1. B(C   1,N   0)                1.4730 -0.000393  0.0014    1.4744   
     2. B(C   2,C   1)                1.5283 -0.000486  0.0003    1.5286   
     3. B(O   3,C   2)                1.2303  0.002461 -0.0013    1.2290   
     4. B(N   4,C   2)                1.3289 -0.008616  0.0037    1.3326   
     5. B(C   5,N   4)                1.4465 -0.003966  0.0027    1.4492   
     6. B(C   6,C   5)                1.5250 -0.013842  0.0070    1.5320   
     7. B(O   7,C   6)                1.2263  0.001126 -0.0010    1.2253   
     8. B(N   8,C   6)                1.3537 -0.002310 -0.0009    1.3527   
     9. B(C   9,N   8)                1.4503 -0.004553  0.0019    1.4522   
    10. B(C  10,C   9)                1.5645  0.002283  0.0025    1.5669   
    11. B(O  11,C  10)                1.2513  0.009148 -0.0008    1.2505   
    12. B(O  12,C  10)                1.2422  0.004526 -0.0004    1.2418   
    13. B(H  13,N   0)                1.0224 -0.000506  0.0008    1.0232   
    14. B(H  14,N   0)                1.0242 -0.000480  0.0003    1.0246   
    15. B(H  15,N   0)                1.0504  0.001795 -0.0032    1.0472   
    16. B(H  15,O   3)                1.8782  0.000329  0.0119    1.8901   
    17. B(H  16,C   1)                1.0949  0.001548 -0.0003    1.0946   
    18. B(H  17,C   1)                1.0866 -0.000248 -0.0000    1.0865   
    19. B(H  18,N   4)                1.0078 -0.001443  0.0010    1.0088   
    20. B(H  19,C   5)                1.0921 -0.001008  0.0011    1.0932   
    21. B(H  20,C   5)                1.0910  0.000031 -0.0009    1.0901   
    22. B(H  21,N   8)                1.0158 -0.001333  0.0011    1.0169   
    23. B(H  22,C   9)                1.0886 -0.000456  0.0004    1.0890   
    24. B(H  23,C   9)                1.0915 -0.001003  0.0006    1.0921   
    25. A(H  14,N   0,H  15)          108.34 -0.000084    0.10    108.45   
    26. A(H  13,N   0,H  15)          109.74 -0.000135   -0.05    109.69   
    27. A(C   1,N   0,H  13)          113.18  0.001494   -0.20    112.98   
    28. A(C   1,N   0,H  14)          112.98  0.000969   -0.12    112.86   
    29. A(H  13,N   0,H  14)          109.06 -0.001505    0.26    109.32   
    30. A(C   1,N   0,H  15)          103.29 -0.000751    0.04    103.33   
    31. A(N   0,C   1,H  17)          112.72 -0.000169   -0.23    112.49   
    32. A(N   0,C   1,C   2)          107.02 -0.000068    0.03    107.04   
    33. A(C   2,C   1,H  16)          104.46 -0.000885    0.03    104.49   
    34. A(N   0,C   1,H  16)          110.80 -0.000425    0.40    111.20   
    35. A(C   2,C   1,H  17)          112.29  0.001164   -0.25    112.04   
    36. A(H  16,C   1,H  17)          109.24  0.000319    0.03    109.27   
    37. A(C   1,C   2,N   4)          116.66 -0.003134   -0.63    116.03   
    38. A(C   1,C   2,O   3)          118.52  0.001476    0.28    118.79   
    39. A(O   3,C   2,N   4)          124.81  0.001535    0.36    125.17   
    40. A(C   2,N   4,H  18)          118.80  0.003200   -0.58    118.22   
    41. A(C   2,N   4,C   5)          120.41 -0.004955    0.70    121.11   
    42. A(C   5,N   4,H  18)          117.87 -0.000531   -0.32    117.55   
    43. A(N   4,C   5,H  20)          111.87  0.014677   -0.96    110.91   
    44. A(C   6,C   5,H  19)          105.78  0.008179   -0.13    105.65   
    45. A(N   4,C   5,H  19)          107.70  0.011200   -0.14    107.56   
    46. A(N   4,C   5,C   6)          112.12 -0.042937    1.71    113.84   
    47. A(H  19,C   5,H  20)          108.49 -0.005079   -0.02    108.48   
    48. A(C   6,C   5,H  20)          110.58  0.014516   -0.63    109.95   
    49. A(C   5,C   6,O   7)          121.08  0.014668   -0.63    120.46   
    50. A(O   7,C   6,N   8)          123.12  0.013626    0.04    123.16   
    51. A(C   5,C   6,N   8)          115.80 -0.028289    0.38    116.18   
    52. A(C   6,N   8,C   9)          120.31 -0.000124    0.72    121.03   
    53. A(C   9,N   8,H  21)          108.94 -0.003739    0.14    109.08   
    54. A(C   6,N   8,H  21)          114.40 -0.002515    0.74    115.14   
    55. A(H  22,C   9,H  23)          109.47 -0.000588   -0.22    109.25   
    56. A(N   8,C   9,C  10)          107.61 -0.019975    1.05    108.67   
    57. A(C  10,C   9,H  23)          108.73  0.007518   -0.57    108.16   
    58. A(N   8,C   9,H  23)          110.05  0.001277   -0.09    109.95   
    59. A(C  10,C   9,H  22)          110.94  0.006105   -0.24    110.69   
    60. A(N   8,C   9,H  22)          110.01  0.005476    0.03    110.04   
    61. A(O  11,C  10,O  12)          126.60 -0.000219    0.18    126.78   
    62. A(C   9,C  10,O  12)          117.59 -0.000043   -0.26    117.33   
    63. A(C   9,C  10,O  11)          115.64 -0.000534   -0.13    115.51   
    64. D(H  16,C   1,N   0,H  15)    -99.99  0.000686   -0.03   -100.02   
    65. D(C   2,C   1,N   0,H  15)     13.31 -0.000606    0.25     13.56   
    66. D(H  16,C   1,N   0,H  13)     18.61  0.000812   -0.23     18.38   
    67. D(H  16,C   1,N   0,H  14)    143.18  0.000767   -0.14    143.04   
    68. D(C   2,C   1,N   0,H  14)   -103.52 -0.000524    0.14   -103.37   
    69. D(C   2,C   1,N   0,H  13)    131.91 -0.000480    0.05    131.96   
    70. D(N   4,C   2,C   1,H  16)    -71.11  0.003212   -1.22    -72.33   
    71. D(N   4,C   2,C   1,N   0)    171.34  0.004150   -1.70    169.64   
    72. D(O   3,C   2,C   1,H  17)   -134.08 -0.002281    1.77   -132.31   
    73. D(O   3,C   2,C   1,N   0)     -9.89 -0.001787    1.36     -8.53   
    74. D(O   3,C   2,C   1,H  16)    107.66 -0.002725    1.84    109.50   
    75. D(H  18,N   4,C   2,C   1)      2.07 -0.005616    2.90      4.97   
    76. D(C   5,N   4,C   2,O   3)    -16.37 -0.006793    2.04    -14.33   
    77. D(H  18,N   4,C   2,O   3)   -176.61  0.000745   -0.36   -176.98   
    78. D(C   5,N   4,C   2,C   1)    162.32 -0.013153    5.30    167.62   
    79. D(H  20,C   5,N   4,C   2)    145.81  0.009349    1.10    146.91   
    80. D(H  19,C   5,N   4,H  18)   -172.90 -0.006939    4.14   -168.76   
    81. D(H  19,C   5,N   4,C   2)     26.68 -0.000200    1.77     28.44   
    82. D(C   6,C   5,N   4,H  18)     71.13  0.000082    3.14     74.26   
    83. D(C   6,C   5,N   4,C   2)    -89.30  0.006821    0.77    -88.53   
    84. D(N   8,C   6,C   5,H  19)   -150.80  0.010955   -2.50   -153.30   
    85. D(N   8,C   6,C   5,N   4)    -33.67  0.006745   -1.60    -35.27   
    86. D(O   7,C   6,C   5,H  20)    -88.04 -0.005037    0.18    -87.86   
    87. D(O   7,C   6,C   5,H  19)     29.23  0.001020   -0.18     29.06   
    88. D(O   7,C   6,C   5,N   4)    146.36 -0.003189    0.72    147.08   
    89. D(H  21,N   8,C   6,O   7)   -169.44  0.001629   -1.50   -170.94   
    90. D(H  21,N   8,C   6,C   5)     10.59 -0.008529    0.97     11.56   
    91. D(C   9,N   8,C   6,O   7)    -36.76 -0.007688    3.96    -32.80   
    92. D(C   9,N   8,C   6,C   5)    143.28 -0.017846    6.42    149.70   
    93. D(C  10,C   9,N   8,H  21)     35.57 -0.002623    2.21     37.78   
    94. D(C  10,C   9,N   8,C   6)    -99.38  0.005843   -3.22   -102.60   
    95. D(H  23,C   9,N   8,C   6)    142.29  0.007796   -3.13    139.16   
    96. D(H  22,C   9,N   8,H  21)    156.54 -0.004265    2.58    159.12   
    97. D(H  22,C   9,N   8,C   6)     21.59  0.004201   -2.85     18.74   
    98. D(O  12,C  10,C   9,H  22)     44.74 -0.002633   -0.07     44.67   
    99. D(O  12,C  10,C   9,N   8)    165.13 -0.004894    0.50    165.63   
   100. D(O  11,C  10,C   9,H  23)    108.62  0.000072   -0.50    108.13   
   101. D(O  11,C  10,C   9,H  22)   -130.94  0.007953   -1.25   -132.19   
   102. D(O  11,C  10,C   9,N   8)    -10.55  0.005691   -0.68    -11.22   
    ----------------------------------------------------------------------------

Geometry step timings:
Preparation and reading OPT file:      0.000 s ( 1.311 %)
Internal coordinates            :      0.000 s ( 1.311 %)
B/P matrices and projection     :      0.001 s (46.544 %)
Hessian update/contruction      :      0.000 s ( 9.356 %)
Making the step                 :      0.000 s (26.758 %)
Converting the step to Cartesian:      0.000 s ( 3.337 %)
Storing new data                :      0.000 s ( 0.775 %)
Checking convergence            :      0.000 s ( 0.715 %)
Final printing                  :      0.000 s ( 9.893 %)
Total time                      :      0.002 s

Time for energy+gradient        :      0.024 s
Time for complete geometry iter :      0.026 s

         *************************************************************
         *                GEOMETRY OPTIMIZATION CYCLE  12            *
         *************************************************************
---------------------------------
CARTESIAN COORDINATES (ANGSTROEM)
---------------------------------
  N    -3.107943   -0.849697   -1.241947
  C    -2.239382   -0.661910   -0.065318
  C    -1.398101    0.588138   -0.323230
  O    -1.435747    1.107932   -1.436251
  N    -0.701554    1.048398    0.715412
  C     0.330169    2.052097    0.547268
  C     1.716290    1.472442    0.247924
  O     2.501606    2.077925   -0.471756
  N     2.020469    0.304253    0.858440
  C     2.911703   -0.665389    0.246492
  C     2.051031   -1.826920   -0.357951
  O     0.844826   -1.833904   -0.028229
  O     2.611059   -2.600550   -1.151697
  H    -3.097973   -1.809406   -1.596493
  H    -4.076240   -0.561230   -1.071931
  H    -2.690910   -0.206311   -1.955171
  H    -1.507871   -1.471753    0.019779
  H    -2.803687   -0.589693    0.860374
  H    -0.705680    0.515829    1.572110
  H     0.066069    2.655727   -0.325114
  H     0.380870    2.706549    1.417583
  H     1.245971   -0.175932    1.309820
  H     3.509318   -0.186291   -0.527574
  H     3.575706   -1.090306    1.002301

----------------------------
CARTESIAN COORDINATES (A.U.)
----------------------------
  NO LB    ZA    FRAG    MASS        X           Y           Z
   0 N   7.0000    0    14.007   -5.873161   -1.605694   -2.346939
   1 C   6.0000    0    12.011   -4.231818   -1.250828   -0.123432
   2 C   6.0000    0    12.011   -2.642029    1.111420   -0.610816
   3 O   8.0000    0    15.999   -2.713169    2.093689   -2.714121
   4 N   7.0000    0    14.007   -1.325745    1.981185    1.351933
   5 C   6.0000    0    12.011    0.623930    3.877901    1.034186
   6 C   6.0000    0    12.011    3.243318    2.782513    0.468509
   7 O   8.0000    0    15.999    4.727350    3.926710   -0.891490
   8 N   7.0000    0    14.007    3.818132    0.574955    1.622216
   9 C   6.0000    0    12.011    5.502322   -1.257404    0.465802
  10 C   6.0000    0    12.011    3.875886   -3.452378   -0.676429
  11 O   8.0000    0    15.999    1.596490   -3.465576   -0.053345
  12 O   8.0000    0    15.999    4.934187   -4.914327   -2.176393
  13 H   1.0000    0     1.008   -5.854320   -3.419283   -3.016934
  14 H   1.0000    0     1.008   -7.702978   -1.060571   -2.025656
  15 H   1.0000    0     1.008   -5.085083   -0.389872   -3.694738
  16 H   1.0000    0     1.008   -2.849462   -2.781210    0.037378
  17 H   1.0000    0     1.008   -5.298201   -1.114358    1.625872
  18 H   1.0000    0     1.008   -1.333542    0.974776    2.970858
  19 H   1.0000    0     1.008    0.124853    5.018596   -0.614376
  20 H   1.0000    0     1.008    0.719740    5.114637    2.678843
  21 H   1.0000    0     1.008    2.354543   -0.332464    2.475202
  22 H   1.0000    0     1.008    6.631650   -0.352039   -0.996971
  23 H   1.0000    0     1.008    6.757105   -2.060379    1.894075

      -----------------------------------------------------------      
     |                   =====================                   |     
     |                           x T B                           |     
     |                   =====================                   |     
     |                         S. Grimme                         |     
     |          Mulliken Center for Theoretical Chemistry        |     
     |                    University of Bonn                     |     
      -----------------------------------------------------------      

   * xtb version 6.7.1 (edcfbbe) compiled by 'albert@albert-system' on 2024-07-22

   xtb is free software: you can redistribute it and/or modify it under
   the terms of the GNU Lesser General Public License as published by
   the Free Software Foundation, either version 3 of the License, or
   (at your option) any later version.
   
   xtb is distributed in the hope that it will be useful,
   but WITHOUT ANY WARRANTY; without even the implied warranty of
   MERCHANTABILITY or FITNESS FOR A PARTICULAR PURPOSE.  See the
   GNU Lesser General Public License for more details.
   
   Cite this work as:
   * C. Bannwarth, E. Caldeweyher, S. Ehlert, A. Hansen, P. Pracht,
     J. Seibert, S. Spicher, S. Grimme, WIREs Comput. Mol. Sci., 2020, 11,
     e01493. DOI: 10.1002/wcms.1493
   
   for GFN2-xTB:
   * C. Bannwarth, S. Ehlert and S. Grimme., J. Chem. Theory Comput., 2019,
     15, 1652-1671. DOI: 10.1021/acs.jctc.8b01176
   for GFN1-xTB:
   * S. Grimme, C. Bannwarth, P. Shushkov, J. Chem. Theory Comput., 2017,
     13, 1989-2009. DOI: 10.1021/acs.jctc.7b00118
   for GFN0-xTB:
   * P. Pracht, E. Caldeweyher, S. Ehlert, S. Grimme, ChemRxiv, 2019, preprint.
     DOI: 10.26434/chemrxiv.8326202.v1
   for GFN-FF:
   * S. Spicher and S. Grimme, Angew. Chem. Int. Ed., 2020, 59, 15665-15673.
     DOI: 10.1002/anie.202004239
   
   for ALPB and GBSA implicit solvation:
   * S. Ehlert, M. Stahn, S. Spicher, S. Grimme, J. Chem. Theory Comput.,
     2021, 17, 4250-4261. DOI: 10.1021/acs.jctc.1c00471
   
   for ddCOSMO and CPCM-X implicit solvation:
   * M. Stahn, S. Ehlert, S. Grimme, J. Phys. Chem. A,
     2023, XX, XXXX-XXXX. DOI: 10.1021/acs.jpca.3c04382
   
   for DFT-D4:
   * E. Caldeweyher, C. Bannwarth and S. Grimme, J. Chem. Phys., 2017,
     147, 034112. DOI: 10.1063/1.4993215
   * E. Caldeweyher, S. Ehlert, A. Hansen, H. Neugebauer, S. Spicher,
     C. Bannwarth and S. Grimme, J. Chem. Phys., 2019, 150, 154122.
     DOI: 10.1063/1.5090222
   * E. Caldeweyher, J.-M. Mewes, S. Ehlert and S. Grimme, Phys. Chem. Chem. Phys.
     2020, 22, 8499-8512. DOI: 10.1039/D0CP00502A
   
   for sTDA-xTB:
   * S. Grimme and C. Bannwarth, J. Chem. Phys., 2016, 145, 054103.
     DOI: 10.1063/1.4959605
   
   in the mass-spec context:
   * V. Asgeirsson, C. Bauer and S. Grimme, Chem. Sci., 2017, 8, 4879.
     DOI: 10.1039/c7sc00601b
   * J. Koopman and S. Grimme, ACS Omega 2019, 4, 12, 15120-15133.
     DOI: 10.1021/acsomega.9b02011
   
   for metadynamics refer to:
   * S. Grimme, J. Chem. Theory Comput., 2019, 155, 2847-2862
     DOI: 10.1021/acs.jctc.9b00143
   
   for SPH calculations refer to:
   * S. Spicher and S. Grimme, J. Chem. Theory Comput., 2021, 17, 1701-1714
     DOI: 10.1021/acs.jctc.0c01306
   
   for ONIOM refer to:
   * C. Plett, A. Katbashev, S. Ehlert, S. Grimme, M. Bursch,
     Phys. Chem. Chem. Phys., 2023, 25, 17860-17868. DOI: 10.1039/D3CP02178E
   
   for DIPRO refer to:
   * J. Kohn, N. Gildemeister, S. Grimme, D. Fazzi, A. Hansen,
     J. Chem. Phys., 2023, just accepted.
   
   for PTB refer to:
   * S. Grimme, M. Mueller, A. Hansen, J. Chem. Phys., 2023, 158, 124111.
     DOI: 10.1063/5.0137838
   
   with help from (in alphabetical order)
   P. Atkinson, C. Bannwarth, F. Bohle, G. Brandenburg, E. Caldeweyher
   M. Checinski, S. Dohm, S. Ehlert, S. Ehrlich, I. Gerasimov, C. Hölzer
   A. Katbashev, J. Kohn, J. Koopman, C. Lavigne, S. Lehtola, F. März, M. Müller,
   F. Musil, H. Neugebauer, J. Pisarek, C. Plett, P. Pracht, F. Pultar,
   J. Seibert, P. Shushkov, S. Spicher, M. Stahn, M. Steiner, T. Strunk,
   J. Stückrath, T. Rose, and J. Unsleber
   
 * started run on 2026/04/11 at 17:16:35.716     
   ID    Z sym.   atoms
    1    7 N      1, 5, 9
    2    6 C      2, 3, 6, 7, 10, 11
    3    8 O      4, 8, 12, 13
    4    1 H      14-24

           -------------------------------------------------
          |                Calculation Setup                |
           -------------------------------------------------

          program call               : /home/analima/Programs/orca-6.1.0-f.0_linux_x86-64/bin/otool_xtb geo_opt_XTB.xyz --grad -c 0 -u 0 -P 1 --namespace geo_opt --input geo_opt_XTB.input.tmp --alpb WATER --acc 0.200000
          calculation namespace      : geo_opt
          coordinate file            : geo_opt_XTB.xyz
          omp threads                :                     1


           -------------------------------------------------
          |                 G F N 2 - x T B                 |
           -------------------------------------------------

        Reference                      10.1021/acs.jctc.8b01176
      * Hamiltonian:
        H0-scaling (s, p, d)           1.850000    2.230000    2.230000
        zeta-weighting                 0.500000
      * Dispersion:
        s8                             2.700000
        a1                             0.520000
        a2                             5.000000
        s9                             5.000000
      * Repulsion:
        kExp                           1.500000    1.000000
        rExp                           1.000000
      * Coulomb:
        alpha                          2.000000
        third order                    shell-resolved
        anisotropic                    true
        a3                             3.000000
        a5                             4.000000
        cn-shift                       1.200000
        cn-exp                         4.000000
        max-rad                        5.000000

      * Solvation model:               ALPB
        Solvent                        WATER
        Parameter file                 internal GFN2-xTB/ALPB
        Dielectric constant                8.0200E+01
        Reference state                gsolv [1 M gas/solution]
        Free energy shift                  1.0808E-03 Eh       6.7819E-01 kcal/mol
        Temperature                        2.9815E+02 K
        Density                            1.0000E+00 kg/L
        Solvent mass                       1.8000E+01 g/mol
        Interaction kernel             P16
        Born radius scaling (c1)           1.4744E+00
        Born radii integrator          GBOBC
        Born offset                        0.0000E+00 a0       0.0000E+00 AA
        H-bond correction              true
        Ion screening                  false
        Surface tension                    1.0000E-05 Eh       1.5569E+01 dyn/cm
        Grid points                               230 per atom
q/qsh data taken from xtbrestart
CAMM data taken from xtbrestart

          ...................................................
          :                      SETUP                      :
          :.................................................:
          :  # basis functions                  63          :
          :  # atomic orbitals                  63          :
          :  # shells                           37          :
          :  # electrons                        74          :
          :  max. iterations                   250          :
          :  Hamiltonian                  GFN2-xTB          :
          :  restarted?                       true          :
          :  GBSA solvation                   true          :
          :  PC potential                    false          :
          :  electronic temp.          300.0000000     K    :
          :  accuracy                    0.2000000          :
          :  -> integral cutoff          0.3198970E+02      :
          :  -> integral neglect         0.2000000E-08      :
          :  -> SCF convergence          0.2000000E-06 Eh   :
          :  -> wf. convergence          0.2000000E-04 e    :
          :  Broyden damping             0.4000000          :
          :  net charge                          0          :
          :  unpaired electrons                  0          :
          ...................................................

 iter      E             dE          RMSdq      gap      omega  full diag
   1    -43.9609819 -0.439610E+02  0.320E-01    3.78       0.0  T
   2    -43.9610746 -0.926833E-04  0.186E-01    3.77       1.0  T
   3    -43.9610772 -0.259835E-05  0.404E-02    3.73       1.0  T
   4    -43.9610845 -0.732149E-05  0.103E-02    3.74       2.0  T
   5    -43.9610850 -0.501421E-06  0.509E-03    3.74       4.0  T
   6    -43.9610850 -0.380590E-07  0.117E-03    3.74      17.4  T
   7    -43.9610850 -0.263736E-08  0.507E-04    3.74      40.2  T
   8    -43.9610850 -0.591967E-09  0.209E-04    3.74      97.5  T
   9    -43.9610850 -0.127166E-09  0.662E-05    3.74     308.2  T
  10    -43.9610850 -0.194191E-10  0.305E-05    3.74     669.6  T

   *** convergence criteria satisfied after 10 iterations ***

         #    Occupation            Energy/Eh            Energy/eV
      -------------------------------------------------------------
         1        2.0000           -0.7306764             -19.8827
       ...           ...                  ...                  ...
        31        2.0000           -0.4482192             -12.1967
        32        2.0000           -0.4311445             -11.7320
        33        2.0000           -0.4277191             -11.6388
        34        2.0000           -0.4104795             -11.1697
        35        2.0000           -0.3996158             -10.8741
        36        2.0000           -0.3958306             -10.7711
        37        2.0000           -0.3702292             -10.0744 (HOMO)
        38                         -0.2327236              -6.3327 (LUMO)
        39                         -0.2267639              -6.1706
        40                         -0.1838012              -5.0015
        41                         -0.0535032              -1.4559
        42                         -0.0103910              -0.2828
       ...                                ...                  ...
        63                          0.6265701              17.0498
      -------------------------------------------------------------
                  HL-Gap            0.1375056 Eh            3.7417 eV
             Fermi-level           -0.3014764 Eh           -8.2036 eV

 SCC (total)                   0 d,  0 h,  0 min,  0.014 sec
 SCC setup                      ...        0 min,  0.000 sec (  3.459%)
 Dispersion                     ...        0 min,  0.000 sec (  0.891%)
 classical contributions        ...        0 min,  0.000 sec (  0.194%)
 integral evaluation            ...        0 min,  0.002 sec ( 16.593%)
 iterations                     ...        0 min,  0.007 sec ( 48.846%)
 molecular gradient             ...        0 min,  0.004 sec ( 29.555%)
 printout                       ...        0 min,  0.000 sec (  0.364%)

         :::::::::::::::::::::::::::::::::::::::::::::::::::::
         ::                     SUMMARY                     ::
         :::::::::::::::::::::::::::::::::::::::::::::::::::::
         :: total energy             -43.538397177433 Eh    ::
         :: total w/o Gsasa/hb       -43.526863697085 Eh    ::
         :: gradient norm              0.018628491780 Eh/a0 ::
         :: HOMO-LUMO gap              3.741718413651 eV    ::
         ::.................................................::
         :: SCC energy               -43.960866269767 Eh    ::
         :: -> isotropic ES            0.319539433379 Eh    ::
         :: -> anisotropic ES         -0.023492029272 Eh    ::
         :: -> anisotropic XC          0.009007636240 Eh    ::
         :: -> dispersion             -0.019066893706 Eh    ::
         :: -> Gsolv                  -0.129837718518 Eh    ::
         ::    -> Gelec               -0.118304238170 Eh    ::
         ::    -> Gsasa                0.004972318498 Eh    ::
         ::    -> Ghb                 -0.017586558545 Eh    ::
         ::    -> Gshift               0.001080759698 Eh    ::
         :: repulsion energy           0.422469092334 Eh    ::
         :: add. restraining           0.000000000000 Eh    ::
         :: total charge               0.000000000000 e     ::
         :::::::::::::::::::::::::::::::::::::::::::::::::::::


Property printout bound to 'properties.out'

           -------------------------------------------------
          | TOTAL ENERGY              -43.538397177433 Eh   |
          | GRADIENT NORM               0.018628491780 Eh/α |
          | HOMO-LUMO GAP               3.741718413651 eV   |
           -------------------------------------------------

------------------------------------------------------------------------
 * finished run on 2026/04/11 at 17:16:35.737     
------------------------------------------------------------------------
 total:
 * wall-time:     0 d,  0 h,  0 min,  0.020 sec
 *  cpu-time:     0 d,  0 h,  0 min,  0.018 sec
 * ratio c/w:     0.921 speedup
 SCF:
 * wall-time:     0 d,  0 h,  0 min,  0.014 sec
 *  cpu-time:     0 d,  0 h,  0 min,  0.013 sec
 * ratio c/w:     0.894 speedup


-------------------------   --------------------
FINAL SINGLE POINT ENERGY       -43.538397177430
-------------------------   --------------------


-------------
DIPOLE MOMENT
-------------
                                X             Y             Z
Total Dipole Moment    :     -9.16800       0.72600       1.88900
                        -----------------------------------------
Magnitude (a.u.)       :      9.38870
Magnitude (Debye)      :     23.86417


------------------
CARTESIAN GRADIENT
------------------

   1   N   :   -0.000795117   -0.000112504   -0.000040783
   2   C   :   -0.001763899    0.001924559    0.000535099
   3   C   :    0.001532331   -0.002962219    0.003143503
   4   O   :   -0.001030870    0.002383386   -0.002341000
   5   N   :   -0.003450784   -0.002334893   -0.000241474
   6   C   :    0.002573484    0.000642736    0.000758103
   7   C   :   -0.003614826    0.004793137   -0.001418877
   8   O   :    0.000187005   -0.000090837    0.000756814
   9   N   :    0.003334431   -0.001531044    0.005297650
  10   C   :    0.001353448   -0.003222755   -0.007146091
  11   C   :    0.005260857   -0.002769457    0.007466266
  12   O   :   -0.002947412    0.001036800   -0.000897663
  13   O   :   -0.000102776   -0.000458336   -0.004362154
  14   H   :   -0.000797436    0.000369974   -0.000018275
  15   H   :    0.000222449   -0.000696280   -0.000802334
  16   H   :    0.000583997   -0.000345575    0.000308836
  17   H   :    0.000173894    0.001168132   -0.000302225
  18   H   :    0.000542536   -0.000670070   -0.000208718
  19   H   :   -0.000031746    0.000244240   -0.000818497
  20   H   :   -0.000133186   -0.000798491   -0.000163197
  21   H   :   -0.000115019    0.001336812   -0.001524290
  22   H   :   -0.000603668    0.001246189    0.000820353
  23   H   :    0.000678214    0.000638672    0.001297126
  24   H   :   -0.001055908    0.000207824   -0.000098174

Difference to translation invariance:
           :   -0.0000000000    0.0000000000    0.0000000000

Difference to rotation invariance:
           :    0.0000063296   -0.0000684598    0.0002131782

Norm of the Cartesian gradient     ...    0.0186284918
RMS gradient                       ...    0.0021953888
MAX gradient                       ...    0.0074662661
------------------------------------------------------------------------------
                         ORCA GEOMETRY RELAXATION STEP
------------------------------------------------------------------------------

Reading the OPT-File                    .... done
Getting information on internals        .... done
Copying old internal coords+grads       .... done
Making the new internal coordinates     .... (2022 redundants) done
Validating the new internal coordinates .... (2022 redundants) done
Calculating the B-matrix                .... done
Calculating the G,G- and P matrices     .... done
Transforming gradient to internals      .... done
Projecting the internal gradient        .... done
Number of atoms                         ....  24
Number of internal coordinates          .... 102
Current Energy                          ....   -43.538397177 Eh
Current gradient norm                   ....     0.018628492 Eh/bohr
Maximum allowed component of the step   ....  0.300
Current trust radius                    ....  0.467
Updating the Hessian (BFGS)             .... done
Forming the augmented Hessian           .... done
Diagonalizing the augmented Hessian     .... done
Last element of RFO vector              ....  0.965216187
Lowest eigenvalues of augmented Hessian:
 -0.001681232  0.005429946  0.008148337  0.012803426  0.014562103
Length of the computed step             ....  0.270875148
The final length of the internal step   ....  0.270875148
Converting the step to Cartesian space:
 Initial RMS(Int)=    0.0268206362
Transforming coordinates:
 Iter   0:  RMS(Cart)=    0.1366750457 RMS(Int)=    0.0271737358
 Iter   5:  RMS(Cart)=    0.0000047989 RMS(Int)=    0.0000029757
done
Storing new coordinates                 .... done
The predicted energy change is          ....    -0.000902295
Previously predicted energy change      ....    -0.005483000
Actually observed energy change         ....    -0.003131718
Ratio of predicted to observed change   ....     0.571168801
New trust radius                        ....     0.466666667

                                .--------------------.
          ----------------------|Geometry convergence|-------------------------
          Item                value                   Tolerance       Converged
          ---------------------------------------------------------------------
          Energy change      -0.0031317183            0.0000050000      NO
          RMS gradient        0.0020787589            0.0001000000      NO
          MAX gradient        0.0088479721            0.0003000000      NO
          RMS step            0.0268206362            0.0020000000      NO
          MAX step            0.0839190484            0.0040000000      NO
          -------------------------------------------------------------------------
          ........................................................
          Max(Bonds)      0.0084      Max(Angles)    0.97
          Max(Dihed)        4.81      Max(Improp)    0.00
          ---------------------------------------------------------------------

The optimization has not yet converged - more geometry cycles are needed


    ---------------------------------------------------------------------------
                         Redundant Internal Coordinates
                            (Angstroem and degrees)

        Definition                    Value    dE/dq     Step     New-Value
    ----------------------------------------------------------------------------
     1. B(C   1,N   0)                1.4745  0.000959  0.0004    1.4749   
     2. B(C   2,C   1)                1.5287 -0.000481  0.0034    1.5321   
     3. B(O   3,C   2)                1.2290  0.003158 -0.0026    1.2264   
     4. B(N   4,C   2)                1.3326  0.000110  0.0008    1.3334   
     5. B(C   5,N   4)                1.4492  0.004043 -0.0036    1.4456   
     6. B(C   6,C   5)                1.5320  0.001978  0.0015    1.5335   
     7. B(O   7,C   6)                1.2253 -0.000369  0.0001    1.2254   
     8. B(N   8,C   6)                1.3527  0.006602 -0.0084    1.3444   
     9. B(C   9,N   8)                1.4522  0.006585 -0.0073    1.4449   
    10. B(C  10,C   9)                1.5669 -0.000436  0.0038    1.5707   
    11. B(O  11,C  10)                1.2505  0.002602 -0.0026    1.2479   
    12. B(O  12,C  10)                1.2418  0.003028 -0.0015    1.2403   
    13. B(H  13,N   0)                1.0232 -0.000350  0.0001    1.0233   
    14. B(H  14,N   0)                1.0246 -0.000538  0.0004    1.0250   
    15. B(H  15,N   0)                1.0472 -0.000159 -0.0004    1.0468   
    16. B(H  15,O   3)                1.8900  0.000062 -0.0045    1.8855   
    17. B(H  16,C   1)                1.0946 -0.000773 -0.0005    1.0942   
    18. B(H  17,C   1)                1.0865 -0.000503  0.0007    1.0872   
    19. B(H  18,N   4)                1.0088 -0.000824  0.0012    1.0100   
    20. B(H  19,C   5)                1.0932 -0.000279 -0.0002    1.0930   
    21. B(H  20,C   5)                1.0901 -0.000420  0.0003    1.0904   
    22. B(H  21,N   8)                1.0169  0.000235 -0.0016    1.0153   
    23. B(H  22,C   9)                1.0890 -0.000270  0.0006    1.0896   
    24. B(H  23,C   9)                1.0921 -0.000791  0.0001    1.0922   
    25. A(H  14,N   0,H  15)          108.45  0.000218   -0.32    108.13   
    26. A(H  13,N   0,H  15)          109.66  0.000010    0.14    109.80   
    27. A(C   1,N   0,H  13)          112.97  0.000608   -0.06    112.91   
    28. A(C   1,N   0,H  14)          112.86  0.001180   -0.37    112.49   
    29. A(H  13,N   0,H  14)          109.32 -0.001009    0.38    109.70   
    30. A(C   1,N   0,H  15)          103.34 -0.001012    0.16    103.50   
    31. A(N   0,C   1,H  17)          112.48  0.000277   -0.36    112.12   
    32. A(N   0,C   1,C   2)          107.08  0.000814   -0.17    106.91   
    33. A(C   2,C   1,H  16)          104.50 -0.000855    0.88    105.37   
    34. A(N   0,C   1,H  16)          111.19 -0.000194    0.02    111.21   
    35. A(C   2,C   1,H  17)          112.04  0.000696   -0.48    111.56   
    36. A(H  16,C   1,H  17)          109.27 -0.000784    0.17    109.44   
    37. A(C   1,C   2,N   4)          116.01  0.001887   -0.35    115.67   
    38. A(C   1,C   2,O   3)          118.80 -0.000678    0.15    118.95   
    39. A(O   3,C   2,N   4)          125.16 -0.001259    0.20    125.36   
    40. A(C   2,N   4,H  18)          118.52  0.000597    0.18    118.70   
    41. A(C   2,N   4,C   5)          121.39 -0.001204    0.28    121.67   
    42. A(C   5,N   4,H  18)          117.85  0.000803   -0.23    117.61   
    43. A(N   4,C   5,H  20)          110.87 -0.000798   -0.48    110.39   
    44. A(C   6,C   5,H  19)          105.76 -0.001621    0.29    106.04   
    45. A(N   4,C   5,H  19)          107.64 -0.003838    0.73    108.37   
    46. A(N   4,C   5,C   6)          113.88  0.008848   -0.34    113.54   
    47. A(H  19,C   5,H  20)          108.47 -0.000157    0.44    108.91   
    48. A(C   6,C   5,H  20)          109.94 -0.002844   -0.50    109.44   
    49. A(C   5,C   6,O   7)          120.51 -0.003473    0.15    120.66   
    50. A(O   7,C   6,N   8)          123.21 -0.004203    0.67    123.88   
    51. A(C   5,C   6,N   8)          116.23  0.007653   -0.83    115.40   
    52. A(C   6,N   8,C   9)          121.63 -0.001181    0.54    122.17   
    53. A(C   9,N   8,H  21)          109.83  0.001716    0.97    110.79   
    54. A(C   6,N   8,H  21)          115.90 -0.000459    0.87    116.77   
    55. A(H  22,C   9,H  23)          109.24  0.000832    0.12    109.35   
    56. A(N   8,C   9,C  10)          108.69  0.002760    0.29    108.98   
    57. A(C  10,C   9,H  23)          108.21 -0.001234    0.07    108.28   
    58. A(N   8,C   9,H  23)          109.96 -0.001792    0.30    110.26   
    59. A(C  10,C   9,H  22)          110.69  0.001125   -0.92    109.78   
    60. A(N   8,C   9,H  22)          110.03 -0.001703    0.14    110.17   
    61. A(O  11,C  10,O  12)          126.87 -0.000760    0.46    127.34   
    62. A(C   9,C  10,O  12)          117.43  0.001057   -0.39    117.04   
    63. A(C   9,C  10,O  11)          115.61 -0.000567   -0.07    115.55   
    64. D(H  16,C   1,N   0,H  15)   -100.03  0.000712   -0.62   -100.65   
    65. D(C   2,C   1,N   0,H  15)     13.55  0.000054    0.34     13.89   
    66. D(H  16,C   1,N   0,H  13)     18.39  0.000410   -0.37     18.02   
    67. D(H  16,C   1,N   0,H  14)    143.05  0.000487   -0.17    142.88   
    68. D(C   2,C   1,N   0,H  14)   -103.38 -0.000170    0.80   -102.58   
    69. D(C   2,C   1,N   0,H  13)    131.97 -0.000248    0.59    132.56   
    70. D(N   4,C   2,C   1,H  16)    -72.33 -0.000829    1.30    -71.02   
    71. D(N   4,C   2,C   1,N   0)    169.64 -0.000564    0.90    170.54   
    72. D(O   3,C   2,C   1,H  17)   -132.31 -0.000236   -1.17   -133.48   
    73. D(O   3,C   2,C   1,N   0)     -8.54  0.001121   -2.04    -10.58   
    74. D(O   3,C   2,C   1,H  16)    109.50  0.000856   -1.64    107.86   
    75. D(H  18,N   4,C   2,C   1)      4.98  0.000778   -1.14      3.84   
    76. D(C   5,N   4,C   2,O   3)    -14.35 -0.000121    3.36    -10.98   
    77. D(H  18,N   4,C   2,O   3)   -176.97 -0.001011    1.96   -175.01   
    78. D(C   5,N   4,C   2,C   1)    167.61  0.001668    0.26    167.87   
    79. D(H  20,C   5,N   4,C   2)    146.92 -0.003842    2.91    149.83   
    80. D(H  19,C   5,N   4,H  18)   -168.83 -0.000018    3.49   -165.34   
    81. D(H  19,C   5,N   4,C   2)     28.43 -0.000871    2.21     30.64   
    82. D(C   6,C   5,N   4,H  18)     74.27 -0.000628    2.91     77.18   
    83. D(C   6,C   5,N   4,C   2)    -88.47 -0.001481    1.62    -86.84   
    84. D(N   8,C   6,C   5,H  19)   -153.30 -0.001338    2.65   -150.65   
    85. D(N   8,C   6,C   5,N   4)    -35.32 -0.002192    3.50    -31.82   
    86. D(O   7,C   6,C   5,H  20)    -87.83  0.001884    2.69    -85.14   
    87. D(O   7,C   6,C   5,H  19)     29.08 -0.000615    3.07     32.16   
    88. D(O   7,C   6,C   5,N   4)    147.07 -0.001469    3.92    150.99   
    89. D(H  21,N   8,C   6,O   7)   -170.79 -0.001038    1.85   -168.94   
    90. D(H  21,N   8,C   6,C   5)     11.66 -0.000323    2.29     13.95   
    91. D(C   9,N   8,C   6,O   7)    -32.90 -0.000223    3.91    -28.99   
    92. D(C   9,N   8,C   6,C   5)    149.55  0.000491    4.35    153.90   
    93. D(C  10,C   9,N   8,H  21)     37.63 -0.001191    4.81     42.43   
    94. D(C  10,C   9,N   8,C   6)   -102.50 -0.001241    2.96    -99.54   
    95. D(H  23,C   9,N   8,C   6)    139.22 -0.000348    2.49    141.71   
    96. D(H  22,C   9,N   8,H  21)    158.98  0.000889    3.93    162.92   
    97. D(H  22,C   9,N   8,C   6)     18.86  0.000839    2.08     20.94   
    98. D(O  12,C  10,C   9,H  22)     44.67 -0.003371    2.64     47.31   
    99. D(O  12,C  10,C   9,N   8)    165.62 -0.003002    2.38    168.00   
   100. D(O  11,C  10,C   9,H  23)    108.14  0.000635    0.53    108.68   
   101. D(O  11,C  10,C   9,H  22)   -132.19  0.001553    0.19   -132.00   
   102. D(O  11,C  10,C   9,N   8)    -11.23  0.001923   -0.07    -11.30   
    ----------------------------------------------------------------------------

Geometry step timings:
Preparation and reading OPT file:      0.000 s ( 0.628 %)
Internal coordinates            :      0.000 s ( 0.768 %)
B/P matrices and projection     :      0.001 s (40.475 %)
Hessian update/contruction      :      0.000 s ( 9.770 %)
Making the step                 :      0.000 s (31.333 %)
Converting the step to Cartesian:      0.000 s ( 4.047 %)
Storing new data                :      0.000 s ( 0.698 %)
Checking convergence            :      0.000 s ( 0.907 %)
Final printing                  :      0.000 s (11.375 %)
Total time                      :      0.001 s

Time for energy+gradient        :      0.024 s
Time for complete geometry iter :      0.026 s

         *************************************************************
         *                GEOMETRY OPTIMIZATION CYCLE  13            *
         *************************************************************
---------------------------------
CARTESIAN COORDINATES (ANGSTROEM)
---------------------------------
  N    -3.085571   -0.886272   -1.195372
  C    -2.253202   -0.641397   -0.003243
  C    -1.391444    0.586532   -0.311802
  O    -1.362119    1.015457   -1.460349
  N    -0.708446    1.087751    0.717848
  C     0.335194    2.070407    0.531103
  C     1.711635    1.455678    0.249691
  O     2.539734    2.058818   -0.422594
  N     1.943078    0.267632    0.834774
  C     2.878967   -0.684744    0.282603
  C     2.083351   -1.777078   -0.518006
  O     0.845892   -1.768164   -0.357164
  O     2.742624   -2.537227   -1.243190
  H    -3.082637   -1.866436   -1.489311
  H    -4.051106   -0.565116   -1.072350
  H    -2.635865   -0.293168   -1.931817
  H    -1.545513   -1.459445    0.161601
  H    -2.852060   -0.495040    0.892297
  H    -0.747497    0.608107    1.605808
  H     0.088250    2.672173   -0.347314
  H     0.401132    2.724945    1.400720
  H     1.134077   -0.211851    1.217527
  H     3.580993   -0.180120   -0.380460
  H     3.430533   -1.181442    1.083846

----------------------------
CARTESIAN COORDINATES (A.U.)
----------------------------
  NO LB    ZA    FRAG    MASS        X           Y           Z
   0 N   7.0000    0    14.007   -5.830884   -1.674811   -2.258926
   1 C   6.0000    0    12.011   -4.257934   -1.212064   -0.006129
   2 C   6.0000    0    12.011   -2.629447    1.108385   -0.589220
   3 O   8.0000    0    15.999   -2.574032    1.918936   -2.759660
   4 N   7.0000    0    14.007   -1.338769    2.055552    1.356537
   5 C   6.0000    0    12.011    0.633424    3.912502    1.003640
   6 C   6.0000    0    12.011    3.234522    2.750833    0.471848
   7 O   8.0000    0    15.999    4.799402    3.890602   -0.798588
   8 N   7.0000    0    14.007    3.671886    0.505750    1.577493
   9 C   6.0000    0    12.011    5.440458   -1.293979    0.534042
  10 C   6.0000    0    12.011    3.936963   -3.358191   -0.978890
  11 O   8.0000    0    15.999    1.598504   -3.341346   -0.674943
  12 O   8.0000    0    15.999    5.182808   -4.794664   -2.349289
  13 H   1.0000    0     1.008   -5.825339   -3.527053   -2.814390
  14 H   1.0000    0     1.008   -7.655481   -1.067915   -2.026448
  15 H   1.0000    0     1.008   -4.981064   -0.554008   -3.650606
  16 H   1.0000    0     1.008   -2.920596   -2.757952    0.305381
  17 H   1.0000    0     1.008   -5.389612   -0.935491    1.686198
  18 H   1.0000    0     1.008   -1.412565    1.149155    3.034536
  19 H   1.0000    0     1.008    0.166768    5.049676   -0.656329
  20 H   1.0000    0     1.008    0.758030    5.149400    2.646977
  21 H   1.0000    0     1.008    2.143094   -0.400340    2.300792
  22 H   1.0000    0     1.008    6.767096   -0.340377   -0.718966
  23 H   1.0000    0     1.008    6.482768   -2.232602    2.048172

      -----------------------------------------------------------      
     |                   =====================                   |     
     |                           x T B                           |     
     |                   =====================                   |     
     |                         S. Grimme                         |     
     |          Mulliken Center for Theoretical Chemistry        |     
     |                    University of Bonn                     |     
      -----------------------------------------------------------      

   * xtb version 6.7.1 (edcfbbe) compiled by 'albert@albert-system' on 2024-07-22

   xtb is free software: you can redistribute it and/or modify it under
   the terms of the GNU Lesser General Public License as published by
   the Free Software Foundation, either version 3 of the License, or
   (at your option) any later version.
   
   xtb is distributed in the hope that it will be useful,
   but WITHOUT ANY WARRANTY; without even the implied warranty of
   MERCHANTABILITY or FITNESS FOR A PARTICULAR PURPOSE.  See the
   GNU Lesser General Public License for more details.
   
   Cite this work as:
   * C. Bannwarth, E. Caldeweyher, S. Ehlert, A. Hansen, P. Pracht,
     J. Seibert, S. Spicher, S. Grimme, WIREs Comput. Mol. Sci., 2020, 11,
     e01493. DOI: 10.1002/wcms.1493
   
   for GFN2-xTB:
   * C. Bannwarth, S. Ehlert and S. Grimme., J. Chem. Theory Comput., 2019,
     15, 1652-1671. DOI: 10.1021/acs.jctc.8b01176
   for GFN1-xTB:
   * S. Grimme, C. Bannwarth, P. Shushkov, J. Chem. Theory Comput., 2017,
     13, 1989-2009. DOI: 10.1021/acs.jctc.7b00118
   for GFN0-xTB:
   * P. Pracht, E. Caldeweyher, S. Ehlert, S. Grimme, ChemRxiv, 2019, preprint.
     DOI: 10.26434/chemrxiv.8326202.v1
   for GFN-FF:
   * S. Spicher and S. Grimme, Angew. Chem. Int. Ed., 2020, 59, 15665-15673.
     DOI: 10.1002/anie.202004239
   
   for ALPB and GBSA implicit solvation:
   * S. Ehlert, M. Stahn, S. Spicher, S. Grimme, J. Chem. Theory Comput.,
     2021, 17, 4250-4261. DOI: 10.1021/acs.jctc.1c00471
   
   for ddCOSMO and CPCM-X implicit solvation:
   * M. Stahn, S. Ehlert, S. Grimme, J. Phys. Chem. A,
     2023, XX, XXXX-XXXX. DOI: 10.1021/acs.jpca.3c04382
   
   for DFT-D4:
   * E. Caldeweyher, C. Bannwarth and S. Grimme, J. Chem. Phys., 2017,
     147, 034112. DOI: 10.1063/1.4993215
   * E. Caldeweyher, S. Ehlert, A. Hansen, H. Neugebauer, S. Spicher,
     C. Bannwarth and S. Grimme, J. Chem. Phys., 2019, 150, 154122.
     DOI: 10.1063/1.5090222
   * E. Caldeweyher, J.-M. Mewes, S. Ehlert and S. Grimme, Phys. Chem. Chem. Phys.
     2020, 22, 8499-8512. DOI: 10.1039/D0CP00502A
   
   for sTDA-xTB:
   * S. Grimme and C. Bannwarth, J. Chem. Phys., 2016, 145, 054103.
     DOI: 10.1063/1.4959605
   
   in the mass-spec context:
   * V. Asgeirsson, C. Bauer and S. Grimme, Chem. Sci., 2017, 8, 4879.
     DOI: 10.1039/c7sc00601b
   * J. Koopman and S. Grimme, ACS Omega 2019, 4, 12, 15120-15133.
     DOI: 10.1021/acsomega.9b02011
   
   for metadynamics refer to:
   * S. Grimme, J. Chem. Theory Comput., 2019, 155, 2847-2862
     DOI: 10.1021/acs.jctc.9b00143
   
   for SPH calculations refer to:
   * S. Spicher and S. Grimme, J. Chem. Theory Comput., 2021, 17, 1701-1714
     DOI: 10.1021/acs.jctc.0c01306
   
   for ONIOM refer to:
   * C. Plett, A. Katbashev, S. Ehlert, S. Grimme, M. Bursch,
     Phys. Chem. Chem. Phys., 2023, 25, 17860-17868. DOI: 10.1039/D3CP02178E
   
   for DIPRO refer to:
   * J. Kohn, N. Gildemeister, S. Grimme, D. Fazzi, A. Hansen,
     J. Chem. Phys., 2023, just accepted.
   
   for PTB refer to:
   * S. Grimme, M. Mueller, A. Hansen, J. Chem. Phys., 2023, 158, 124111.
     DOI: 10.1063/5.0137838
   
   with help from (in alphabetical order)
   P. Atkinson, C. Bannwarth, F. Bohle, G. Brandenburg, E. Caldeweyher
   M. Checinski, S. Dohm, S. Ehlert, S. Ehrlich, I. Gerasimov, C. Hölzer
   A. Katbashev, J. Kohn, J. Koopman, C. Lavigne, S. Lehtola, F. März, M. Müller,
   F. Musil, H. Neugebauer, J. Pisarek, C. Plett, P. Pracht, F. Pultar,
   J. Seibert, P. Shushkov, S. Spicher, M. Stahn, M. Steiner, T. Strunk,
   J. Stückrath, T. Rose, and J. Unsleber
   
 * started run on 2026/04/11 at 17:16:35.742     
   ID    Z sym.   atoms
    1    7 N      1, 5, 9
    2    6 C      2, 3, 6, 7, 10, 11
    3    8 O      4, 8, 12, 13
    4    1 H      14-24

           -------------------------------------------------
          |                Calculation Setup                |
           -------------------------------------------------

          program call               : /home/analima/Programs/orca-6.1.0-f.0_linux_x86-64/bin/otool_xtb geo_opt_XTB.xyz --grad -c 0 -u 0 -P 1 --namespace geo_opt --input geo_opt_XTB.input.tmp --alpb WATER --acc 0.200000
          calculation namespace      : geo_opt
          coordinate file            : geo_opt_XTB.xyz
          omp threads                :                     1


           -------------------------------------------------
          |                 G F N 2 - x T B                 |
           -------------------------------------------------

        Reference                      10.1021/acs.jctc.8b01176
      * Hamiltonian:
        H0-scaling (s, p, d)           1.850000    2.230000    2.230000
        zeta-weighting                 0.500000
      * Dispersion:
        s8                             2.700000
        a1                             0.520000
        a2                             5.000000
        s9                             5.000000
      * Repulsion:
        kExp                           1.500000    1.000000
        rExp                           1.000000
      * Coulomb:
        alpha                          2.000000
        third order                    shell-resolved
        anisotropic                    true
        a3                             3.000000
        a5                             4.000000
        cn-shift                       1.200000
        cn-exp                         4.000000
        max-rad                        5.000000

      * Solvation model:               ALPB
        Solvent                        WATER
        Parameter file                 internal GFN2-xTB/ALPB
        Dielectric constant                8.0200E+01
        Reference state                gsolv [1 M gas/solution]
        Free energy shift                  1.0808E-03 Eh       6.7819E-01 kcal/mol
        Temperature                        2.9815E+02 K
        Density                            1.0000E+00 kg/L
        Solvent mass                       1.8000E+01 g/mol
        Interaction kernel             P16
        Born radius scaling (c1)           1.4744E+00
        Born radii integrator          GBOBC
        Born offset                        0.0000E+00 a0       0.0000E+00 AA
        H-bond correction              true
        Ion screening                  false
        Surface tension                    1.0000E-05 Eh       1.5569E+01 dyn/cm
        Grid points                               230 per atom
q/qsh data taken from xtbrestart
CAMM data taken from xtbrestart

          ...................................................
          :                      SETUP                      :
          :.................................................:
          :  # basis functions                  63          :
          :  # atomic orbitals                  63          :
          :  # shells                           37          :
          :  # electrons                        74          :
          :  max. iterations                   250          :
          :  Hamiltonian                  GFN2-xTB          :
          :  restarted?                       true          :
          :  GBSA solvation                   true          :
          :  PC potential                    false          :
          :  electronic temp.          300.0000000     K    :
          :  accuracy                    0.2000000          :
          :  -> integral cutoff          0.3198970E+02      :
          :  -> integral neglect         0.2000000E-08      :
          :  -> SCF convergence          0.2000000E-06 Eh   :
          :  -> wf. convergence          0.2000000E-04 e    :
          :  Broyden damping             0.4000000          :
          :  net charge                          0          :
          :  unpaired electrons                  0          :
          ...................................................

 iter      E             dE          RMSdq      gap      omega  full diag
   1    -43.9646598 -0.439647E+02  0.376E-01    3.74       0.0  T
   2    -43.9647300 -0.702384E-04  0.218E-01    3.73       1.0  T
   3    -43.9647364 -0.638722E-05  0.279E-02    3.71       1.0  T
   4    -43.9647378 -0.140722E-05  0.817E-03    3.71       2.5  T
   5    -43.9647379 -0.776299E-07  0.414E-03    3.71       4.9  T
   6    -43.9647380 -0.570627E-07  0.762E-04    3.72      26.8  T
   7    -43.9647380 -0.100101E-08  0.340E-04    3.72      60.1  T
   8    -43.9647380 -0.174474E-09  0.106E-04    3.72     192.0  T
   9    -43.9647380 -0.536886E-10  0.456E-05    3.72     447.3  T

   *** convergence criteria satisfied after 9 iterations ***

         #    Occupation            Energy/Eh            Energy/eV
      -------------------------------------------------------------
         1        2.0000           -0.7304154             -19.8756
       ...           ...                  ...                  ...
        31        2.0000           -0.4480058             -12.1909
        32        2.0000           -0.4309652             -11.7272
        33        2.0000           -0.4282336             -11.6528
        34        2.0000           -0.4092750             -11.1369
        35        2.0000           -0.3986587             -10.8481
        36        2.0000           -0.3947320             -10.7412
        37        2.0000           -0.3679262             -10.0118 (HOMO)
        38                         -0.2313932              -6.2965 (LUMO)
        39                         -0.2238444              -6.0911
        40                         -0.1810094              -4.9255
        41                         -0.0524885              -1.4283
        42                         -0.0086193              -0.2345
       ...                                ...                  ...
        63                          0.6371680              17.3382
      -------------------------------------------------------------
                  HL-Gap            0.1365330 Eh            3.7153 eV
             Fermi-level           -0.2996597 Eh           -8.1542 eV

 SCC (total)                   0 d,  0 h,  0 min,  0.012 sec
 SCC setup                      ...        0 min,  0.000 sec (  3.696%)
 Dispersion                     ...        0 min,  0.000 sec (  1.004%)
 classical contributions        ...        0 min,  0.000 sec (  0.212%)
 integral evaluation            ...        0 min,  0.002 sec ( 18.612%)
 iterations                     ...        0 min,  0.006 sec ( 46.659%)
 molecular gradient             ...        0 min,  0.004 sec ( 29.375%)
 printout                       ...        0 min,  0.000 sec (  0.342%)

         :::::::::::::::::::::::::::::::::::::::::::::::::::::
         ::                     SUMMARY                     ::
         :::::::::::::::::::::::::::::::::::::::::::::::::::::
         :: total energy             -43.539094006542 Eh    ::
         :: total w/o Gsasa/hb       -43.527522296011 Eh    ::
         :: gradient norm              0.008970198212 Eh/a0 ::
         :: HOMO-LUMO gap              3.715252675845 eV    ::
         ::.................................................::
         :: SCC energy               -43.964524487118 Eh    ::
         :: -> isotropic ES            0.324825386344 Eh    ::
         :: -> anisotropic ES         -0.023574077153 Eh    ::
         :: -> anisotropic XC          0.009118692699 Eh    ::
         :: -> dispersion             -0.019192045906 Eh    ::
         :: -> Gsolv                  -0.133906181770 Eh    ::
         ::    -> Gelec               -0.122334471240 Eh    ::
         ::    -> Gsasa                0.004978954568 Eh    ::
         ::    -> Ghb                 -0.017631424797 Eh    ::
         ::    -> Gshift               0.001080759698 Eh    ::
         :: repulsion energy           0.425430480576 Eh    ::
         :: add. restraining           0.000000000000 Eh    ::
         :: total charge               0.000000000000 e     ::
         :::::::::::::::::::::::::::::::::::::::::::::::::::::


Property printout bound to 'properties.out'

           -------------------------------------------------
          | TOTAL ENERGY              -43.539094006542 Eh   |
          | GRADIENT NORM               0.008970198212 Eh/α |
          | HOMO-LUMO GAP               3.715252675845 eV   |
           -------------------------------------------------

------------------------------------------------------------------------
 * finished run on 2026/04/11 at 17:16:35.760     
------------------------------------------------------------------------
 total:
 * wall-time:     0 d,  0 h,  0 min,  0.018 sec
 *  cpu-time:     0 d,  0 h,  0 min,  0.016 sec
 * ratio c/w:     0.914 speedup
 SCF:
 * wall-time:     0 d,  0 h,  0 min,  0.012 sec
 *  cpu-time:     0 d,  0 h,  0 min,  0.011 sec
 * ratio c/w:     0.882 speedup


-------------------------   --------------------
FINAL SINGLE POINT ENERGY       -43.539094006540
-------------------------   --------------------


-------------
DIPOLE MOMENT
-------------
                                X             Y             Z
Total Dipole Moment    :     -9.46100       0.68700       2.38600
                        -----------------------------------------
Magnitude (a.u.)       :      9.78138
Magnitude (Debye)      :     24.86230


------------------
CARTESIAN GRADIENT
------------------

   1   N   :   -0.000227069   -0.000189073   -0.000752896
   2   C   :    0.000532050   -0.000203271   -0.000300129
   3   C   :   -0.003812192    0.003391326    0.002386052
   4   O   :    0.001298200   -0.000880021   -0.001547734
   5   N   :   -0.000252682   -0.001771877   -0.000853500
   6   C   :    0.001104770    0.000113297    0.000330625
   7   C   :   -0.000378668    0.000314445   -0.000044013
   8   O   :   -0.000530963   -0.000407708    0.000493674
   9   N   :    0.000941068    0.000878444    0.001630699
  10   C   :    0.000175783   -0.000504847   -0.002691723
  11   C   :    0.002079734   -0.001989906    0.002147553
  12   O   :   -0.000780784    0.000832809   -0.000909286
  13   O   :    0.000212247    0.000320015   -0.001308354
  14   H   :   -0.000741791   -0.000053747    0.000067025
  15   H   :    0.000129379   -0.000031903   -0.000366098
  16   H   :   -0.000129515    0.000377824    0.000608959
  17   H   :    0.000021472    0.000094575    0.001172662
  18   H   :    0.000504037   -0.000275992   -0.000263164
  19   H   :    0.000646144   -0.000949235   -0.000193105
  20   H   :    0.000035364   -0.000561331   -0.000404880
  21   H   :   -0.000114473    0.000446757   -0.000606400
  22   H   :   -0.000356640    0.000787341    0.000638192
  23   H   :    0.000366831    0.000216665    0.000754234
  24   H   :   -0.000722302    0.000045413    0.000011608

Difference to translation invariance:
           :   -0.0000000000    0.0000000000   -0.0000000000

Difference to rotation invariance:
           :    0.0003352703   -0.0002045963   -0.0001585607

Norm of the Cartesian gradient     ...    0.0089701982
RMS gradient                       ...    0.0010571480
MAX gradient                       ...    0.0038121916
------------------------------------------------------------------------------
                         ORCA GEOMETRY RELAXATION STEP
------------------------------------------------------------------------------

Reading the OPT-File                    .... done
Getting information on internals        .... done
Copying old internal coords+grads       .... done
Making the new internal coordinates     .... (2022 redundants) done
Validating the new internal coordinates .... (2022 redundants) done
Calculating the B-matrix                .... done
Calculating the G,G- and P matrices     .... done
Transforming gradient to internals      .... done
Projecting the internal gradient        .... done
Number of atoms                         ....  24
Number of internal coordinates          .... 102
Current Energy                          ....   -43.539094007 Eh
Current gradient norm                   ....     0.008970198 Eh/bohr
Maximum allowed component of the step   ....  0.300
Current trust radius                    ....  0.467
Updating the Hessian (BFGS)             .... done
Forming the augmented Hessian           .... done
Diagonalizing the augmented Hessian     .... done
Last element of RFO vector              ....  0.968856366
Lowest eigenvalues of augmented Hessian:
 -0.001135678  0.006945889  0.009616659  0.012459686  0.014654918
Length of the computed step             ....  0.255583177
The final length of the internal step   ....  0.255583177
Converting the step to Cartesian space:
 Initial RMS(Int)=    0.0253065055
Transforming coordinates:
 Iter   0:  RMS(Cart)=    0.0919306728 RMS(Int)=    0.0252658205
 Iter   5:  RMS(Cart)=    0.0000002783 RMS(Int)=    0.0000001378
done
Storing new coordinates                 .... done
The predicted energy change is          ....    -0.000604932
Previously predicted energy change      ....    -0.000902295
Actually observed energy change         ....    -0.000696829
Ratio of predicted to observed change   ....     0.772285344
New trust radius                        ....     0.700000000

                                .--------------------.
          ----------------------|Geometry convergence|-------------------------
          Item                value                   Tolerance       Converged
          ---------------------------------------------------------------------
          Energy change      -0.0006968291            0.0000050000      NO
          RMS gradient        0.0011874735            0.0001000000      NO
          MAX gradient        0.0062464822            0.0003000000      NO
          RMS step            0.0253065055            0.0020000000      NO
          MAX step            0.0911337334            0.0040000000      NO
          -------------------------------------------------------------------------
          ........................................................
          Max(Bonds)      0.0040      Max(Angles)    0.90
          Max(Dihed)        5.22      Max(Improp)    0.00
          ---------------------------------------------------------------------

The optimization has not yet converged - more geometry cycles are needed


    ---------------------------------------------------------------------------
                         Redundant Internal Coordinates
                            (Angstroem and degrees)

        Definition                    Value    dE/dq     Step     New-Value
    ----------------------------------------------------------------------------
     1. B(C   1,N   0)                1.4744  0.000966 -0.0010    1.4735   
     2. B(C   2,C   1)                1.5315  0.000339  0.0001    1.5316   
     3. B(O   3,C   2)                1.2264  0.001176 -0.0012    1.2251   
     4. B(N   4,C   2)                1.3334 -0.000383  0.0014    1.3348   
     5. B(C   5,N   4)                1.4456  0.001810 -0.0022    1.4434   
     6. B(C   6,C   5)                1.5335  0.000572  0.0003    1.5338   
     7. B(O   7,C   6)                1.2254 -0.000827  0.0003    1.2257   
     8. B(N   8,C   6)                1.3444 -0.000074 -0.0029    1.3415   
     9. B(C   9,N   8)                1.4449  0.002333 -0.0040    1.4410   
    10. B(C  10,C   9)                1.5707 -0.000151 -0.0003    1.5704   
    11. B(O  11,C  10)                1.2479  0.000663 -0.0006    1.2473   
    12. B(O  12,C  10)                1.2403  0.000680 -0.0011    1.2392   
    13. B(H  13,N   0)                1.0233  0.000032  0.0001    1.0234   
    14. B(H  14,N   0)                1.0250 -0.000176  0.0004    1.0253   
    15. B(H  15,N   0)                1.0471 -0.000339  0.0001    1.0471   
    16. B(H  15,O   3)                1.8861 -0.000125 -0.0004    1.8857   
    17. B(H  16,C   1)                1.0942  0.000121  0.0000    1.0942   
    18. B(H  17,C   1)                1.0872 -0.000529  0.0007    1.0879   
    19. B(H  18,N   4)                1.0100  0.000253  0.0007    1.0106   
    20. B(H  19,C   5)                1.0930  0.000013 -0.0001    1.0930   
    21. B(H  20,C   5)                1.0904 -0.000225  0.0002    1.0906   
    22. B(H  21,N   8)                1.0153  0.000150  0.0001    1.0155   
    23. B(H  22,C   9)                1.0896 -0.000121  0.0004    1.0899   
    24. B(H  23,C   9)                1.0922 -0.000378  0.0010    1.0932   
    25. A(H  14,N   0,H  15)          108.15 -0.000202    0.21    108.36   
    26. A(H  13,N   0,H  15)          109.83  0.000391   -0.15    109.69   
    27. A(C   1,N   0,H  13)          112.94  0.000615   -0.22    112.71   
    28. A(C   1,N   0,H  14)          112.50  0.000233   -0.04    112.46   
    29. A(H  13,N   0,H  14)          109.71 -0.000504    0.17    109.89   
    30. A(C   1,N   0,H  15)          103.42 -0.000543    0.04    103.46   
    31. A(N   0,C   1,H  17)          112.17 -0.000118   -0.03    112.14   
    32. A(N   0,C   1,C   2)          106.73 -0.000235   -0.05    106.68   
    33. A(C   2,C   1,H  16)          105.42  0.000056   -0.09    105.32   
    34. A(N   0,C   1,H  16)          111.27  0.000865   -0.04    111.23   
    35. A(C   2,C   1,H  17)          111.59 -0.000085    0.02    111.61   
    36. A(H  16,C   1,H  17)          109.44 -0.000452    0.19    109.63   
    37. A(C   1,C   2,N   4)          115.72 -0.000598   -0.05    115.67   
    38. A(C   1,C   2,O   3)          118.85  0.000165    0.05    118.90   
    39. A(O   3,C   2,N   4)          125.41  0.000421    0.01    125.43   
    40. A(C   2,N   4,H  18)          118.72 -0.000913   -0.32    118.40   
    41. A(C   2,N   4,C   5)          121.71  0.001610   -0.14    121.57   
    42. A(C   5,N   4,H  18)          117.67 -0.000464   -0.14    117.53   
    43. A(N   4,C   5,H  20)          110.41 -0.001451   -0.25    110.16   
    44. A(C   6,C   5,H  19)          106.02 -0.001239    0.15    106.17   
    45. A(N   4,C   5,H  19)          108.36 -0.001798    0.29    108.64   
    46. A(N   4,C   5,C   6)          113.53  0.006246   -0.73    112.80   
    47. A(H  19,C   5,H  20)          108.91  0.000242    0.34    109.25   
    48. A(C   6,C   5,H  20)          109.43 -0.002144    0.26    109.69   
    49. A(C   5,C   6,O   7)          120.66 -0.001674    0.27    120.94   
    50. A(O   7,C   6,N   8)          123.88 -0.001628    0.25    124.13   
    51. A(C   5,C   6,N   8)          115.40  0.003285   -0.59    114.81   
    52. A(C   6,N   8,C   9)          121.85 -0.001797    0.32    122.17   
    53. A(C   9,N   8,H  21)          110.42  0.002255   -0.90    109.52   
    54. A(C   6,N   8,H  21)          116.37 -0.000488    0.01    116.38   
    55. A(H  22,C   9,H  23)          109.37  0.000608   -0.01    109.37   
    56. A(N   8,C   9,C  10)          108.97  0.003306   -0.48    108.49   
    57. A(C  10,C   9,H  23)          108.27 -0.000585   -0.03    108.23   
    58. A(N   8,C   9,H  23)          110.27 -0.001560    0.28    110.55   
    59. A(C  10,C   9,H  22)          109.77 -0.000772    0.16    109.93   
    60. A(N   8,C   9,H  22)          110.16 -0.000988    0.09    110.25   
    61. A(O  11,C  10,O  12)          127.36 -0.000025    0.07    127.43   
    62. A(C   9,C  10,O  12)          117.06  0.000045    0.02    117.09   
    63. A(C   9,C  10,O  11)          115.57 -0.000046   -0.16    115.41   
    64. D(H  16,C   1,N   0,H  15)   -100.65 -0.000413   -0.67   -101.32   
    65. D(C   2,C   1,N   0,H  15)     13.87 -0.000040   -0.85     13.01   
    66. D(H  16,C   1,N   0,H  13)     18.02  0.000032   -0.99     17.03   
    67. D(H  16,C   1,N   0,H  14)    142.90  0.000032   -0.95    141.95   
    68. D(C   2,C   1,N   0,H  14)   -102.59  0.000405   -1.13   -103.72   
    69. D(C   2,C   1,N   0,H  13)    132.54  0.000405   -1.18    131.36   
    70. D(N   4,C   2,C   1,H  16)    -71.05  0.000845   -1.59    -72.64   
    71. D(N   4,C   2,C   1,N   0)    170.53 -0.000064   -1.46    169.07   
    72. D(O   3,C   2,C   1,H  17)   -133.44 -0.000354    0.50   -132.94   
    73. D(O   3,C   2,C   1,N   0)    -10.56 -0.000709    0.44    -10.13   
    74. D(O   3,C   2,C   1,H  16)    107.85  0.000200    0.31    108.16   
    75. D(H  18,N   4,C   2,C   1)      3.87  0.000221    2.13      6.01   
    76. D(C   5,N   4,C   2,O   3)    -11.02  0.001792   -2.20    -13.21   
    77. D(H  18,N   4,C   2,O   3)   -174.95  0.000918    0.13   -174.82   
    78. D(C   5,N   4,C   2,C   1)    167.81  0.001094   -0.20    167.61   
    79. D(H  20,C   5,N   4,C   2)    149.81 -0.002237    4.28    154.09   
    80. D(H  19,C   5,N   4,H  18)   -165.29  0.000212    1.55   -163.74   
    81. D(H  19,C   5,N   4,C   2)     30.61 -0.000579    3.83     34.45   
    82. D(C   6,C   5,N   4,H  18)     77.22 -0.000804    1.58     78.80   
    83. D(C   6,C   5,N   4,C   2)    -86.88 -0.001595    3.87    -83.01   
    84. D(N   8,C   6,C   5,H  19)   -150.65 -0.000534   -1.47   -152.12   
    85. D(N   8,C   6,C   5,N   4)    -31.80 -0.000010   -1.41    -33.21   
    86. D(O   7,C   6,C   5,H  20)    -85.16  0.001342   -2.14    -87.30   
    87. D(O   7,C   6,C   5,H  19)     32.15 -0.000134   -1.53     30.62   
    88. D(O   7,C   6,C   5,N   4)    151.00  0.000390   -1.47    149.53   
    89. D(H  21,N   8,C   6,O   7)   -168.99  0.000351    0.24   -168.75   
    90. D(H  21,N   8,C   6,C   5)     13.91  0.000761    0.20     14.11   
    91. D(C   9,N   8,C   6,O   7)    -28.96  0.001195    0.66    -28.29   
    92. D(C   9,N   8,C   6,C   5)    153.95  0.001605    0.62    154.57   
    93. D(C  10,C   9,N   8,H  21)     42.51  0.000662   -4.49     38.02   
    94. D(C  10,C   9,N   8,C   6)    -99.60  0.000720   -5.16   -104.76   
    95. D(H  23,C   9,N   8,C   6)    141.69  0.000347   -5.01    136.68   
    96. D(H  22,C   9,N   8,H  21)    162.99  0.001182   -4.56    158.44   
    97. D(H  22,C   9,N   8,C   6)     20.88  0.001240   -5.22     15.66   
    98. D(O  12,C  10,C   9,H  22)     47.29 -0.001413    0.74     48.04   
    99. D(O  12,C  10,C   9,N   8)    168.01 -0.001042    0.65    168.66   
   100. D(O  11,C  10,C   9,H  23)    108.67  0.000837   -0.96    107.71   
   101. D(O  11,C  10,C   9,H  22)   -132.00  0.000775   -0.90   -132.91   
   102. D(O  11,C  10,C   9,N   8)    -11.29  0.001147   -0.99    -12.28   
    ----------------------------------------------------------------------------

Geometry step timings:
Preparation and reading OPT file:      0.000 s ( 0.699 %)
Internal coordinates            :      0.000 s ( 0.769 %)
B/P matrices and projection     :      0.001 s (40.070 %)
Hessian update/contruction      :      0.000 s ( 9.510 %)
Making the step                 :      0.000 s (32.308 %)
Converting the step to Cartesian:      0.000 s ( 3.636 %)
Storing new data                :      0.000 s ( 0.769 %)
Checking convergence            :      0.000 s ( 0.909 %)
Final printing                  :      0.000 s (11.329 %)
Total time                      :      0.001 s

Time for energy+gradient        :      0.022 s
Time for complete geometry iter :      0.024 s

         *************************************************************
         *                GEOMETRY OPTIMIZATION CYCLE  14            *
         *************************************************************
---------------------------------
CARTESIAN COORDINATES (ANGSTROEM)
---------------------------------
  N    -3.028465   -0.891218   -1.221034
  C    -2.206576   -0.650667   -0.021779
  C    -1.353491    0.587918   -0.312593
  O    -1.325531    1.033922   -1.453335
  N    -0.705599    1.102240    0.734928
  C     0.330118    2.094026    0.570321
  C     1.695068    1.478491    0.237658
  O     2.509730    2.084824   -0.448620
  N     1.925627    0.282305    0.799469
  C     2.839173   -0.675871    0.230526
  C     2.003380   -1.816233   -0.452934
  O     0.785782   -1.823692   -0.182249
  O     2.619095   -2.610698   -1.177740
  H    -2.997364   -1.865664   -1.532264
  H    -4.002265   -0.596348   -1.094266
  H    -2.589197   -0.275983   -1.945441
  H    -1.491074   -1.463096    0.137300
  H    -2.813694   -0.518106    0.871169
  H    -0.739304    0.603494    1.613289
  H     0.069930    2.733869   -0.276701
  H     0.412040    2.704638    1.470295
  H     1.123127   -0.198774    1.194100
  H     3.481213   -0.193379   -0.506287
  H     3.458274   -1.126002    1.011030

----------------------------
CARTESIAN COORDINATES (A.U.)
----------------------------
  NO LB    ZA    FRAG    MASS        X           Y           Z
   0 N   7.0000    0    14.007   -5.722969   -1.684158   -2.307420
   1 C   6.0000    0    12.011   -4.169824   -1.229582   -0.041156
   2 C   6.0000    0    12.011   -2.557727    1.111005   -0.590715
   3 O   8.0000    0    15.999   -2.504890    1.953830   -2.746405
   4 N   7.0000    0    14.007   -1.333388    2.082932    1.388812
   5 C   6.0000    0    12.011    0.623834    3.957135    1.077751
   6 C   6.0000    0    12.011    3.203214    2.793943    0.449108
   7 O   8.0000    0    15.999    4.742703    3.939747   -0.847769
   8 N   7.0000    0    14.007    3.638908    0.533480    1.510778
   9 C   6.0000    0    12.011    5.365260   -1.277211    0.435631
  10 C   6.0000    0    12.011    3.785839   -3.432183   -0.855922
  11 O   8.0000    0    15.999    1.484913   -3.446278   -0.344401
  12 O   8.0000    0    15.999    4.949373   -4.933503   -2.225606
  13 H   1.0000    0     1.008   -5.664197   -3.525594   -2.895559
  14 H   1.0000    0     1.008   -7.563185   -1.126934   -2.067862
  15 H   1.0000    0     1.008   -4.892872   -0.521532   -3.676350
  16 H   1.0000    0     1.008   -2.817721   -2.764851    0.259460
  17 H   1.0000    0     1.008   -5.317110   -0.979078    1.646270
  18 H   1.0000    0     1.008   -1.397082    1.140438    3.048675
  19 H   1.0000    0     1.008    0.132149    5.166265   -0.522889
  20 H   1.0000    0     1.008    0.778643    5.111026    2.778454
  21 H   1.0000    0     1.008    2.122402   -0.375628    2.256522
  22 H   1.0000    0     1.008    6.578539   -0.365433   -0.956744
  23 H   1.0000    0     1.008    6.535191   -2.127836    1.910569

      -----------------------------------------------------------      
     |                   =====================                   |     
     |                           x T B                           |     
     |                   =====================                   |     
     |                         S. Grimme                         |     
     |          Mulliken Center for Theoretical Chemistry        |     
     |                    University of Bonn                     |     
      -----------------------------------------------------------      

   * xtb version 6.7.1 (edcfbbe) compiled by 'albert@albert-system' on 2024-07-22

   xtb is free software: you can redistribute it and/or modify it under
   the terms of the GNU Lesser General Public License as published by
   the Free Software Foundation, either version 3 of the License, or
   (at your option) any later version.
   
   xtb is distributed in the hope that it will be useful,
   but WITHOUT ANY WARRANTY; without even the implied warranty of
   MERCHANTABILITY or FITNESS FOR A PARTICULAR PURPOSE.  See the
   GNU Lesser General Public License for more details.
   
   Cite this work as:
   * C. Bannwarth, E. Caldeweyher, S. Ehlert, A. Hansen, P. Pracht,
     J. Seibert, S. Spicher, S. Grimme, WIREs Comput. Mol. Sci., 2020, 11,
     e01493. DOI: 10.1002/wcms.1493
   
   for GFN2-xTB:
   * C. Bannwarth, S. Ehlert and S. Grimme., J. Chem. Theory Comput., 2019,
     15, 1652-1671. DOI: 10.1021/acs.jctc.8b01176
   for GFN1-xTB:
   * S. Grimme, C. Bannwarth, P. Shushkov, J. Chem. Theory Comput., 2017,
     13, 1989-2009. DOI: 10.1021/acs.jctc.7b00118
   for GFN0-xTB:
   * P. Pracht, E. Caldeweyher, S. Ehlert, S. Grimme, ChemRxiv, 2019, preprint.
     DOI: 10.26434/chemrxiv.8326202.v1
   for GFN-FF:
   * S. Spicher and S. Grimme, Angew. Chem. Int. Ed., 2020, 59, 15665-15673.
     DOI: 10.1002/anie.202004239
   
   for ALPB and GBSA implicit solvation:
   * S. Ehlert, M. Stahn, S. Spicher, S. Grimme, J. Chem. Theory Comput.,
     2021, 17, 4250-4261. DOI: 10.1021/acs.jctc.1c00471
   
   for ddCOSMO and CPCM-X implicit solvation:
   * M. Stahn, S. Ehlert, S. Grimme, J. Phys. Chem. A,
     2023, XX, XXXX-XXXX. DOI: 10.1021/acs.jpca.3c04382
   
   for DFT-D4:
   * E. Caldeweyher, C. Bannwarth and S. Grimme, J. Chem. Phys., 2017,
     147, 034112. DOI: 10.1063/1.4993215
   * E. Caldeweyher, S. Ehlert, A. Hansen, H. Neugebauer, S. Spicher,
     C. Bannwarth and S. Grimme, J. Chem. Phys., 2019, 150, 154122.
     DOI: 10.1063/1.5090222
   * E. Caldeweyher, J.-M. Mewes, S. Ehlert and S. Grimme, Phys. Chem. Chem. Phys.
     2020, 22, 8499-8512. DOI: 10.1039/D0CP00502A
   
   for sTDA-xTB:
   * S. Grimme and C. Bannwarth, J. Chem. Phys., 2016, 145, 054103.
     DOI: 10.1063/1.4959605
   
   in the mass-spec context:
   * V. Asgeirsson, C. Bauer and S. Grimme, Chem. Sci., 2017, 8, 4879.
     DOI: 10.1039/c7sc00601b
   * J. Koopman and S. Grimme, ACS Omega 2019, 4, 12, 15120-15133.
     DOI: 10.1021/acsomega.9b02011
   
   for metadynamics refer to:
   * S. Grimme, J. Chem. Theory Comput., 2019, 155, 2847-2862
     DOI: 10.1021/acs.jctc.9b00143
   
   for SPH calculations refer to:
   * S. Spicher and S. Grimme, J. Chem. Theory Comput., 2021, 17, 1701-1714
     DOI: 10.1021/acs.jctc.0c01306
   
   for ONIOM refer to:
   * C. Plett, A. Katbashev, S. Ehlert, S. Grimme, M. Bursch,
     Phys. Chem. Chem. Phys., 2023, 25, 17860-17868. DOI: 10.1039/D3CP02178E
   
   for DIPRO refer to:
   * J. Kohn, N. Gildemeister, S. Grimme, D. Fazzi, A. Hansen,
     J. Chem. Phys., 2023, just accepted.
   
   for PTB refer to:
   * S. Grimme, M. Mueller, A. Hansen, J. Chem. Phys., 2023, 158, 124111.
     DOI: 10.1063/5.0137838
   
   with help from (in alphabetical order)
   P. Atkinson, C. Bannwarth, F. Bohle, G. Brandenburg, E. Caldeweyher
   M. Checinski, S. Dohm, S. Ehlert, S. Ehrlich, I. Gerasimov, C. Hölzer
   A. Katbashev, J. Kohn, J. Koopman, C. Lavigne, S. Lehtola, F. März, M. Müller,
   F. Musil, H. Neugebauer, J. Pisarek, C. Plett, P. Pracht, F. Pultar,
   J. Seibert, P. Shushkov, S. Spicher, M. Stahn, M. Steiner, T. Strunk,
   J. Stückrath, T. Rose, and J. Unsleber
   
 * started run on 2026/04/11 at 17:16:35.765     
   ID    Z sym.   atoms
    1    7 N      1, 5, 9
    2    6 C      2, 3, 6, 7, 10, 11
    3    8 O      4, 8, 12, 13
    4    1 H      14-24

           -------------------------------------------------
          |                Calculation Setup                |
           -------------------------------------------------

          program call               : /home/analima/Programs/orca-6.1.0-f.0_linux_x86-64/bin/otool_xtb geo_opt_XTB.xyz --grad -c 0 -u 0 -P 1 --namespace geo_opt --input geo_opt_XTB.input.tmp --alpb WATER --acc 0.200000
          calculation namespace      : geo_opt
          coordinate file            : geo_opt_XTB.xyz
          omp threads                :                     1


           -------------------------------------------------
          |                 G F N 2 - x T B                 |
           -------------------------------------------------

        Reference                      10.1021/acs.jctc.8b01176
      * Hamiltonian:
        H0-scaling (s, p, d)           1.850000    2.230000    2.230000
        zeta-weighting                 0.500000
      * Dispersion:
        s8                             2.700000
        a1                             0.520000
        a2                             5.000000
        s9                             5.000000
      * Repulsion:
        kExp                           1.500000    1.000000
        rExp                           1.000000
      * Coulomb:
        alpha                          2.000000
        third order                    shell-resolved
        anisotropic                    true
        a3                             3.000000
        a5                             4.000000
        cn-shift                       1.200000
        cn-exp                         4.000000
        max-rad                        5.000000

      * Solvation model:               ALPB
        Solvent                        WATER
        Parameter file                 internal GFN2-xTB/ALPB
        Dielectric constant                8.0200E+01
        Reference state                gsolv [1 M gas/solution]
        Free energy shift                  1.0808E-03 Eh       6.7819E-01 kcal/mol
        Temperature                        2.9815E+02 K
        Density                            1.0000E+00 kg/L
        Solvent mass                       1.8000E+01 g/mol
        Interaction kernel             P16
        Born radius scaling (c1)           1.4744E+00
        Born radii integrator          GBOBC
        Born offset                        0.0000E+00 a0       0.0000E+00 AA
        H-bond correction              true
        Ion screening                  false
        Surface tension                    1.0000E-05 Eh       1.5569E+01 dyn/cm
        Grid points                               230 per atom
q/qsh data taken from xtbrestart
CAMM data taken from xtbrestart

          ...................................................
          :                      SETUP                      :
          :.................................................:
          :  # basis functions                  63          :
          :  # atomic orbitals                  63          :
          :  # shells                           37          :
          :  # electrons                        74          :
          :  max. iterations                   250          :
          :  Hamiltonian                  GFN2-xTB          :
          :  restarted?                       true          :
          :  GBSA solvation                   true          :
          :  PC potential                    false          :
          :  electronic temp.          300.0000000     K    :
          :  accuracy                    0.2000000          :
          :  -> integral cutoff          0.3198970E+02      :
          :  -> integral neglect         0.2000000E-08      :
          :  -> SCF convergence          0.2000000E-06 Eh   :
          :  -> wf. convergence          0.2000000E-04 e    :
          :  Broyden damping             0.4000000          :
          :  net charge                          0          :
          :  unpaired electrons                  0          :
          ...................................................

 iter      E             dE          RMSdq      gap      omega  full diag
   1    -43.9664890 -0.439665E+02  0.234E-01    3.73       0.0  T
   2    -43.9664962 -0.718103E-05  0.137E-01    3.74       1.0  T
   3    -43.9664976 -0.133658E-05  0.969E-03    3.75       2.1  T
   4    -43.9664983 -0.758989E-06  0.442E-03    3.75       4.6  T
   5    -43.9664984 -0.409906E-07  0.196E-03    3.75      10.4  T
   6    -43.9664984 -0.653631E-08  0.496E-04    3.75      41.1  T
   7    -43.9664984 -0.751157E-09  0.171E-04    3.75     119.1  T
   8    -43.9664984 -0.815987E-10  0.618E-05    3.75     330.1  T

   *** convergence criteria satisfied after 8 iterations ***

         #    Occupation            Energy/Eh            Energy/eV
      -------------------------------------------------------------
         1        2.0000           -0.7311037             -19.8943
       ...           ...                  ...                  ...
        31        2.0000           -0.4483679             -12.2007
        32        2.0000           -0.4311930             -11.7334
        33        2.0000           -0.4271424             -11.6231
        34        2.0000           -0.4109991             -11.1839
        35        2.0000           -0.3986567             -10.8480
        36        2.0000           -0.3963799             -10.7860
        37        2.0000           -0.3693522             -10.0506 (HOMO)
        38                         -0.2315784              -6.3016 (LUMO)
        39                         -0.2232537              -6.0750
        40                         -0.1820317              -4.9533
        41                         -0.0510865              -1.3901
        42                         -0.0068223              -0.1856
       ...                                ...                  ...
        63                          0.6404766              17.4283
      -------------------------------------------------------------
                  HL-Gap            0.1377737 Eh            3.7490 eV
             Fermi-level           -0.3004653 Eh           -8.1761 eV

 SCC (total)                   0 d,  0 h,  0 min,  0.014 sec
 SCC setup                      ...        0 min,  0.000 sec (  2.183%)
 Dispersion                     ...        0 min,  0.000 sec (  0.534%)
 classical contributions        ...        0 min,  0.000 sec (  0.107%)
 integral evaluation            ...        0 min,  0.001 sec (  8.795%)
 iterations                     ...        0 min,  0.008 sec ( 56.275%)
 molecular gradient             ...        0 min,  0.004 sec ( 31.686%)
 printout                       ...        0 min,  0.000 sec (  0.339%)

         :::::::::::::::::::::::::::::::::::::::::::::::::::::
         ::                     SUMMARY                     ::
         :::::::::::::::::::::::::::::::::::::::::::::::::::::
         :: total energy             -43.539899387357 Eh    ::
         :: total w/o Gsasa/hb       -43.528447290923 Eh    ::
         :: gradient norm              0.004832629704 Eh/a0 ::
         :: HOMO-LUMO gap              3.749014227076 eV    ::
         ::.................................................::
         :: SCC energy               -43.966277834235 Eh    ::
         :: -> isotropic ES            0.319526435398 Eh    ::
         :: -> anisotropic ES         -0.023888063577 Eh    ::
         :: -> anisotropic XC          0.009123114859 Eh    ::
         :: -> dispersion             -0.019326571194 Eh    ::
         :: -> Gsolv                  -0.129935315527 Eh    ::
         ::    -> Gelec               -0.118483219093 Eh    ::
         ::    -> Gsasa                0.004974077550 Eh    ::
         ::    -> Ghb                 -0.017506933682 Eh    ::
         ::    -> Gshift               0.001080759698 Eh    ::
         :: repulsion energy           0.426378446878 Eh    ::
         :: add. restraining           0.000000000000 Eh    ::
         :: total charge              -0.000000000000 e     ::
         :::::::::::::::::::::::::::::::::::::::::::::::::::::


Property printout bound to 'properties.out'

           -------------------------------------------------
          | TOTAL ENERGY              -43.539899387357 Eh   |
          | GRADIENT NORM               0.004832629704 Eh/α |
          | HOMO-LUMO GAP               3.749014227076 eV   |
           -------------------------------------------------

------------------------------------------------------------------------
 * finished run on 2026/04/11 at 17:16:35.785     
------------------------------------------------------------------------
 total:
 * wall-time:     0 d,  0 h,  0 min,  0.020 sec
 *  cpu-time:     0 d,  0 h,  0 min,  0.017 sec
 * ratio c/w:     0.866 speedup
 SCF:
 * wall-time:     0 d,  0 h,  0 min,  0.014 sec
 *  cpu-time:     0 d,  0 h,  0 min,  0.011 sec
 * ratio c/w:     0.818 speedup


-------------------------   --------------------
FINAL SINGLE POINT ENERGY       -43.539899387360
-------------------------   --------------------


-------------
DIPOLE MOMENT
-------------
                                X             Y             Z
Total Dipole Moment    :     -9.15700       0.74400       2.09500
                        -----------------------------------------
Magnitude (a.u.)       :      9.42301
Magnitude (Debye)      :     23.95140


------------------
CARTESIAN GRADIENT
------------------

   1   N   :    0.000227823    0.000100054   -0.000294987
   2   C   :   -0.000055818   -0.000341519   -0.000407174
   3   C   :   -0.000853318    0.001727173   -0.000812869
   4   O   :    0.000147453   -0.000545435    0.000257062
   5   N   :    0.001189495    0.000296853   -0.000549052
   6   C   :    0.000189848   -0.000635715    0.000401363
   7   C   :   -0.000574430   -0.001726408   -0.000148205
   8   O   :   -0.000439693    0.000112582    0.000397571
   9   N   :    0.000313406    0.000421841    0.000675878
  10   C   :   -0.000981592   -0.000298902   -0.001062136
  11   C   :   -0.000102841    0.000385050   -0.001293489
  12   O   :    0.000528091   -0.000014195    0.000691317
  13   O   :    0.000403201    0.000021296    0.000261171
  14   H   :   -0.000314228   -0.000185199    0.000055446
  15   H   :   -0.000138543    0.000140411   -0.000093703
  16   H   :   -0.000031510    0.000261484    0.000632031
  17   H   :   -0.000025933    0.000262990    0.000471775
  18   H   :   -0.000142428   -0.000169803    0.000091297
  19   H   :    0.000796969   -0.001100678    0.000143452
  20   H   :    0.000119232   -0.000644765   -0.000611762
  21   H   :   -0.000280140    0.000326640    0.000072085
  22   H   :    0.000398120    0.001186631    0.000043351
  23   H   :    0.000055105    0.000331995    0.000595604
  24   H   :   -0.000428267    0.000087618    0.000483974

Difference to translation invariance:
           :    0.0000000000   -0.0000000000    0.0000000000

Difference to rotation invariance:
           :    0.0002315376   -0.0005438219    0.0001288458

Norm of the Cartesian gradient     ...    0.0048326297
RMS gradient                       ...    0.0005695309
MAX gradient                       ...    0.0017271730
------------------------------------------------------------------------------
                         ORCA GEOMETRY RELAXATION STEP
------------------------------------------------------------------------------

Reading the OPT-File                    .... done
Getting information on internals        .... done
Copying old internal coords+grads       .... done
Making the new internal coordinates     .... (2022 redundants) done
Validating the new internal coordinates .... (2022 redundants) done
Calculating the B-matrix                .... done
Calculating the G,G- and P matrices     .... done
Transforming gradient to internals      .... done
Projecting the internal gradient        .... done
Number of atoms                         ....  24
Number of internal coordinates          .... 102
Current Energy                          ....   -43.539899387 Eh
Current gradient norm                   ....     0.004832630 Eh/bohr
Maximum allowed component of the step   ....  0.300
Current trust radius                    ....  0.700
Updating the Hessian (BFGS)             .... done
Forming the augmented Hessian           .... done
Diagonalizing the augmented Hessian     .... done
Last element of RFO vector              ....  0.905118995
Lowest eigenvalues of augmented Hessian:
 -0.001199965  0.004765770  0.009052636  0.012429928  0.014653841
Length of the computed step             ....  0.469726446
The final length of the internal step   ....  0.469726446
Converting the step to Cartesian space:
 Initial RMS(Int)=    0.0465098486
Transforming coordinates:
 Iter   0:  RMS(Cart)=    0.1644613626 RMS(Int)=    0.0464641527
 Iter   5:  RMS(Cart)=    0.0000013554 RMS(Int)=    0.0000004753
done
Storing new coordinates                 .... done
The predicted energy change is          ....    -0.000732365
Previously predicted energy change      ....    -0.000604932
Actually observed energy change         ....    -0.000805381
Ratio of predicted to observed change   ....     1.331358508
New trust radius                        ....     0.700000000

                                .--------------------.
          ----------------------|Geometry convergence|-------------------------
          Item                value                   Tolerance       Converged
          ---------------------------------------------------------------------
          Energy change      -0.0008053808            0.0000050000      NO
          RMS gradient        0.0005959374            0.0001000000      NO
          MAX gradient        0.0019070180            0.0003000000      NO
          RMS step            0.0465098486            0.0020000000      NO
          MAX step            0.1889176889            0.0040000000      NO
          -------------------------------------------------------------------------
          ........................................................
          Max(Bonds)      0.0328      Max(Angles)    1.20
          Max(Dihed)       10.82      Max(Improp)    0.00
          ---------------------------------------------------------------------

The optimization has not yet converged - more geometry cycles are needed


    ---------------------------------------------------------------------------
                         Redundant Internal Coordinates
                            (Angstroem and degrees)

        Definition                    Value    dE/dq     Step     New-Value
    ----------------------------------------------------------------------------
     1. B(C   1,N   0)                1.4736 -0.000019 -0.0003    1.4733   
     2. B(C   2,C   1)                1.5318  0.000503 -0.0012    1.5306   
     3. B(O   3,C   2)                1.2252 -0.000431 -0.0007    1.2244   
     4. B(N   4,C   2)                1.3348  0.000141  0.0023    1.3371   
     5. B(C   5,N   4)                1.4434 -0.000930  0.0014    1.4448   
     6. B(C   6,C   5)                1.5338 -0.001070  0.0016    1.5354   
     7. B(O   7,C   6)                1.2257 -0.000455  0.0006    1.2263   
     8. B(N   8,C   6)                1.3415 -0.001699 -0.0007    1.3408   
     9. B(C   9,N   8)                1.4410 -0.000539 -0.0001    1.4408   
    10. B(C  10,C   9)                1.5704 -0.000570 -0.0034    1.5670   
    11. B(O  11,C  10)                1.2473 -0.000364  0.0005    1.2478   
    12. B(O  12,C  10)                1.2392  0.000035  0.0007    1.2399   
    13. B(H  13,N   0)                1.0234  0.000148  0.0001    1.0235   
    14. B(H  14,N   0)                1.0253  0.000164 -0.0001    1.0252   
    15. B(H  15,N   0)                1.0470 -0.000413 -0.0016    1.0454   
    16. B(H  15,O   3)                1.8854 -0.000215  0.0328    1.9183   
    17. B(H  16,C   1)                1.0942 -0.000144  0.0006    1.0948   
    18. B(H  17,C   1)                1.0879  0.000138 -0.0000    1.0879   
    19. B(H  18,N   4)                1.0106  0.000640 -0.0006    1.0101   
    20. B(H  19,C   5)                1.0930  0.000071 -0.0001    1.0928   
    21. B(H  20,C   5)                1.0906  0.000219 -0.0008    1.0899   
    22. B(H  21,N   8)                1.0155 -0.000863  0.0019    1.0174   
    23. B(H  22,C   9)                1.0899 -0.000220  0.0009    1.0908   
    24. B(H  23,C   9)                1.0932  0.000064  0.0012    1.0944   
    25. A(H  14,N   0,H  15)          108.36 -0.000051    0.48    108.84   
    26. A(H  13,N   0,H  15)          109.65  0.000341   -0.55    109.11   
    27. A(C   1,N   0,H  13)          112.70  0.000266   -0.54    112.17   
    28. A(C   1,N   0,H  14)          112.47  0.000027    0.03    112.50   
    29. A(H  13,N   0,H  14)          109.89 -0.000140   -0.19    109.71   
    30. A(C   1,N   0,H  15)          103.48 -0.000453    0.77    104.26   
    31. A(N   0,C   1,H  17)          112.12 -0.000221   -0.09    112.04   
    32. A(N   0,C   1,C   2)          106.74 -0.000150    0.45    107.19   
    33. A(C   2,C   1,H  16)          105.30 -0.000099   -0.41    104.88   
    34. A(N   0,C   1,H  16)          111.21  0.000577   -0.03    111.18   
    35. A(C   2,C   1,H  17)          111.60  0.000176   -0.05    111.55   
    36. A(H  16,C   1,H  17)          109.64 -0.000259    0.10    109.73   
    37. A(C   1,C   2,N   4)          115.65 -0.000452   -0.28    115.37   
    38. A(C   1,C   2,O   3)          118.94  0.000201    0.39    119.32   
    39. A(O   3,C   2,N   4)          125.41  0.000247   -0.10    125.31   
    40. A(C   2,N   4,H  18)          118.41 -0.000197   -1.13    117.28   
    41. A(C   2,N   4,C   5)          121.57  0.000519   -0.06    121.52   
    42. A(C   5,N   4,H  18)          117.52 -0.000183   -0.33    117.20   
    43. A(N   4,C   5,H  20)          110.15 -0.000503   -0.70    109.45   
    44. A(C   6,C   5,H  19)          106.18 -0.000137    0.08    106.27   
    45. A(N   4,C   5,H  19)          108.65 -0.000935    0.54    109.19   
    46. A(N   4,C   5,C   6)          112.80  0.001907   -0.23    112.57   
    47. A(H  19,C   5,H  20)          109.25  0.000337   -0.03    109.21   
    48. A(C   6,C   5,H  20)          109.68 -0.000682    0.26    109.94   
    49. A(C   5,C   6,O   7)          120.96 -0.000627    0.22    121.18   
    50. A(O   7,C   6,N   8)          124.15  0.000141    0.05    124.20   
    51. A(C   5,C   6,N   8)          114.83  0.000454   -0.22    114.61   
    52. A(C   6,N   8,C   9)          122.45 -0.001210    1.20    123.65   
    53. A(C   9,N   8,H  21)          109.84  0.001535   -0.83    109.02   
    54. A(C   6,N   8,H  21)          116.70 -0.000432    0.81    117.52   
    55. A(H  22,C   9,H  23)          109.35  0.000224   -0.37    108.98   
    56. A(N   8,C   9,C  10)          108.50  0.001764   -0.36    108.14   
    57. A(C  10,C   9,H  23)          108.25 -0.000209   -0.33    107.92   
    58. A(N   8,C   9,H  23)          110.54 -0.000739    0.23    110.78   
    59. A(C  10,C   9,H  22)          109.92 -0.000180    0.61    110.53   
    60. A(N   8,C   9,H  22)          110.24 -0.000842    0.20    110.45   
    61. A(O  11,C  10,O  12)          127.45  0.000669   -0.32    127.14   
    62. A(C   9,C  10,O  12)          117.11 -0.000266    0.03    117.14   
    63. A(C   9,C  10,O  11)          115.43 -0.000415    0.22    115.65   
    64. D(H  16,C   1,N   0,H  15)   -101.34 -0.000214   -0.57   -101.91   
    65. D(C   2,C   1,N   0,H  15)     13.01 -0.000124   -0.84     12.17   
    66. D(H  16,C   1,N   0,H  13)     17.04  0.000051   -1.00     16.04   
    67. D(H  16,C   1,N   0,H  14)    141.94  0.000097   -1.64    140.30   
    68. D(C   2,C   1,N   0,H  14)   -103.71  0.000187   -1.91   -105.63   
    69. D(C   2,C   1,N   0,H  13)    131.39  0.000141   -1.27    130.12   
    70. D(N   4,C   2,C   1,H  16)    -72.63  0.000002    0.03    -72.60   
    71. D(N   4,C   2,C   1,N   0)    169.08 -0.000540    0.03    169.11   
    72. D(O   3,C   2,C   1,H  17)   -132.96  0.000012    1.13   -131.83   
    73. D(O   3,C   2,C   1,N   0)    -10.13 -0.000252    1.31     -8.82   
    74. D(O   3,C   2,C   1,H  16)    108.16  0.000290    1.31    109.47   
    75. D(H  18,N   4,C   2,C   1)      6.01  0.000473    2.36      8.36   
    76. D(C   5,N   4,C   2,O   3)    -13.21  0.000622   -2.14    -15.36   
    77. D(H  18,N   4,C   2,O   3)   -174.84  0.000163    0.96   -173.88   
    78. D(C   5,N   4,C   2,C   1)    167.63  0.000932   -0.75    166.88   
    79. D(H  20,C   5,N   4,C   2)    154.09 -0.001417   10.69    164.78   
    80. D(H  19,C   5,N   4,H  18)   -163.76 -0.000503    7.71   -156.05   
    81. D(H  19,C   5,N   4,C   2)     34.46 -0.000954   10.82     45.28   
    82. D(C   6,C   5,N   4,H  18)     78.79 -0.000868    7.22     86.01   
    83. D(C   6,C   5,N   4,C   2)    -82.99 -0.001319   10.33    -72.66   
    84. D(N   8,C   6,C   5,H  19)   -152.12 -0.000553   -0.23   -152.35   
    85. D(N   8,C   6,C   5,N   4)    -33.23 -0.000709    0.48    -32.75   
    86. D(O   7,C   6,C   5,H  20)    -87.30  0.000182   -1.21    -88.50   
    87. D(O   7,C   6,C   5,H  19)     30.63  0.000150   -1.01     29.62   
    88. D(O   7,C   6,C   5,N   4)    149.53 -0.000006   -0.30    149.23   
    89. D(H  21,N   8,C   6,O   7)   -168.69 -0.000248   -1.31   -170.01   
    90. D(H  21,N   8,C   6,C   5)     14.16  0.000504   -2.12     12.04   
    91. D(C   9,N   8,C   6,O   7)    -28.34  0.000179    2.20    -26.13   
    92. D(C   9,N   8,C   6,C   5)    154.52  0.000931    1.40    155.91   
    93. D(C  10,C   9,N   8,H  21)     37.97  0.000170   -4.05     33.92   
    94. D(C  10,C   9,N   8,C   6)   -104.73  0.000365   -8.09   -112.83   
    95. D(H  23,C   9,N   8,C   6)    136.71 -0.000021   -7.63    129.08   
    96. D(H  22,C   9,N   8,H  21)    158.40  0.000542   -3.41    154.98   
    97. D(H  22,C   9,N   8,C   6)     15.69  0.000737   -7.45      8.23   
    98. D(O  12,C  10,C   9,H  22)     48.04  0.000299    0.36     48.40   
    99. D(O  12,C  10,C   9,N   8)    168.66  0.000254    0.74    169.40   
   100. D(O  11,C  10,C   9,H  23)    107.71 -0.000473    1.01    108.72   
   101. D(O  11,C  10,C   9,H  22)   -132.91 -0.000431    0.74   -132.17   
   102. D(O  11,C  10,C   9,N   8)    -12.29 -0.000477    1.11    -11.18   
    ----------------------------------------------------------------------------

Geometry step timings:
Preparation and reading OPT file:      0.000 s ( 0.566 %)
Internal coordinates            :      0.000 s ( 0.673 %)
B/P matrices and projection     :      0.001 s (42.230 %)
Hessian update/contruction      :      0.000 s ( 9.204 %)
Making the step                 :      0.001 s (31.363 %)
Converting the step to Cartesian:      0.000 s ( 4.212 %)
Storing new data                :      0.000 s ( 0.708 %)
Checking convergence            :      0.000 s ( 0.850 %)
Final printing                  :      0.000 s (10.159 %)
Total time                      :      0.003 s

Time for energy+gradient        :      0.024 s
Time for complete geometry iter :      0.027 s

         *************************************************************
         *                GEOMETRY OPTIMIZATION CYCLE  15            *
         *************************************************************
---------------------------------
CARTESIAN COORDINATES (ANGSTROEM)
---------------------------------
  N    -2.875099   -0.957841   -1.242070
  C    -2.160285   -0.622927    0.002047
  C    -1.281920    0.595321   -0.293596
  O    -1.163322    0.982905   -1.448995
  N    -0.733053    1.178709    0.777033
  C     0.328497    2.150733    0.651462
  C     1.666706    1.514439    0.249069
  O     2.486703    2.131699   -0.422006
  N     1.861029    0.275730    0.723921
  C     2.742779   -0.689200    0.117817
  C     1.868972   -1.857405   -0.454290
  O     0.671044   -1.857703   -0.104930
  O     2.435226   -2.680686   -1.188362
  H    -2.794274   -1.950313   -1.478764
  H    -3.864001   -0.689267   -1.210888
  H    -2.394072   -0.390540   -1.976548
  H    -1.457515   -1.415017    0.280043
  H    -2.843594   -0.432110    0.826744
  H    -0.828526    0.707177    1.665192
  H     0.075134    2.860169   -0.140227
  H     0.440718    2.688754    1.592612
  H     1.065489   -0.206975    1.135304
  H     3.327488   -0.224116   -0.676973
  H     3.425876   -1.111537    0.861248

----------------------------
CARTESIAN COORDINATES (A.U.)
----------------------------
  NO LB    ZA    FRAG    MASS        X           Y           Z
   0 N   7.0000    0    14.007   -5.433150   -1.810056   -2.347172
   1 C   6.0000    0    12.011   -4.082347   -1.177161    0.003868
   2 C   6.0000    0    12.011   -2.422478    1.124994   -0.554816
   3 O   8.0000    0    15.999   -2.198360    1.857421   -2.738204
   4 N   7.0000    0    14.007   -1.385270    2.227438    1.468379
   5 C   6.0000    0    12.011    0.620769    4.064296    1.231084
   6 C   6.0000    0    12.011    3.149617    2.861875    0.470671
   7 O   8.0000    0    15.999    4.699187    4.028328   -0.797475
   8 N   7.0000    0    14.007    3.516835    0.521054    1.368012
   9 C   6.0000    0    12.011    5.183101   -1.302400    0.222642
  10 C   6.0000    0    12.011    3.531846   -3.509987   -0.858484
  11 O   8.0000    0    15.999    1.268090   -3.510550   -0.198290
  12 O   8.0000    0    15.999    4.601911   -5.065763   -2.245680
  13 H   1.0000    0     1.008   -5.280412   -3.685557   -2.794459
  14 H   1.0000    0     1.008   -7.301903   -1.302526   -2.288246
  15 H   1.0000    0     1.008   -4.524141   -0.738014   -3.735135
  16 H   1.0000    0     1.008   -2.754304   -2.673995    0.529205
  17 H   1.0000    0     1.008   -5.373614   -0.816569    1.562320
  18 H   1.0000    0     1.008   -1.565688    1.336371    3.146757
  19 H   1.0000    0     1.008    0.141983    5.404937   -0.264990
  20 H   1.0000    0     1.008    0.832837    5.081008    3.009600
  21 H   1.0000    0     1.008    2.013482   -0.391126    2.145415
  22 H   1.0000    0     1.008    6.288041   -0.423518   -1.279293
  23 H   1.0000    0     1.008    6.473967   -2.100500    1.627523

      -----------------------------------------------------------      
     |                   =====================                   |     
     |                           x T B                           |     
     |                   =====================                   |     
     |                         S. Grimme                         |     
     |          Mulliken Center for Theoretical Chemistry        |     
     |                    University of Bonn                     |     
      -----------------------------------------------------------      

   * xtb version 6.7.1 (edcfbbe) compiled by 'albert@albert-system' on 2024-07-22

   xtb is free software: you can redistribute it and/or modify it under
   the terms of the GNU Lesser General Public License as published by
   the Free Software Foundation, either version 3 of the License, or
   (at your option) any later version.
   
   xtb is distributed in the hope that it will be useful,
   but WITHOUT ANY WARRANTY; without even the implied warranty of
   MERCHANTABILITY or FITNESS FOR A PARTICULAR PURPOSE.  See the
   GNU Lesser General Public License for more details.
   
   Cite this work as:
   * C. Bannwarth, E. Caldeweyher, S. Ehlert, A. Hansen, P. Pracht,
     J. Seibert, S. Spicher, S. Grimme, WIREs Comput. Mol. Sci., 2020, 11,
     e01493. DOI: 10.1002/wcms.1493
   
   for GFN2-xTB:
   * C. Bannwarth, S. Ehlert and S. Grimme., J. Chem. Theory Comput., 2019,
     15, 1652-1671. DOI: 10.1021/acs.jctc.8b01176
   for GFN1-xTB:
   * S. Grimme, C. Bannwarth, P. Shushkov, J. Chem. Theory Comput., 2017,
     13, 1989-2009. DOI: 10.1021/acs.jctc.7b00118
   for GFN0-xTB:
   * P. Pracht, E. Caldeweyher, S. Ehlert, S. Grimme, ChemRxiv, 2019, preprint.
     DOI: 10.26434/chemrxiv.8326202.v1
   for GFN-FF:
   * S. Spicher and S. Grimme, Angew. Chem. Int. Ed., 2020, 59, 15665-15673.
     DOI: 10.1002/anie.202004239
   
   for ALPB and GBSA implicit solvation:
   * S. Ehlert, M. Stahn, S. Spicher, S. Grimme, J. Chem. Theory Comput.,
     2021, 17, 4250-4261. DOI: 10.1021/acs.jctc.1c00471
   
   for ddCOSMO and CPCM-X implicit solvation:
   * M. Stahn, S. Ehlert, S. Grimme, J. Phys. Chem. A,
     2023, XX, XXXX-XXXX. DOI: 10.1021/acs.jpca.3c04382
   
   for DFT-D4:
   * E. Caldeweyher, C. Bannwarth and S. Grimme, J. Chem. Phys., 2017,
     147, 034112. DOI: 10.1063/1.4993215
   * E. Caldeweyher, S. Ehlert, A. Hansen, H. Neugebauer, S. Spicher,
     C. Bannwarth and S. Grimme, J. Chem. Phys., 2019, 150, 154122.
     DOI: 10.1063/1.5090222
   * E. Caldeweyher, J.-M. Mewes, S. Ehlert and S. Grimme, Phys. Chem. Chem. Phys.
     2020, 22, 8499-8512. DOI: 10.1039/D0CP00502A
   
   for sTDA-xTB:
   * S. Grimme and C. Bannwarth, J. Chem. Phys., 2016, 145, 054103.
     DOI: 10.1063/1.4959605
   
   in the mass-spec context:
   * V. Asgeirsson, C. Bauer and S. Grimme, Chem. Sci., 2017, 8, 4879.
     DOI: 10.1039/c7sc00601b
   * J. Koopman and S. Grimme, ACS Omega 2019, 4, 12, 15120-15133.
     DOI: 10.1021/acsomega.9b02011
   
   for metadynamics refer to:
   * S. Grimme, J. Chem. Theory Comput., 2019, 155, 2847-2862
     DOI: 10.1021/acs.jctc.9b00143
   
   for SPH calculations refer to:
   * S. Spicher and S. Grimme, J. Chem. Theory Comput., 2021, 17, 1701-1714
     DOI: 10.1021/acs.jctc.0c01306
   
   for ONIOM refer to:
   * C. Plett, A. Katbashev, S. Ehlert, S. Grimme, M. Bursch,
     Phys. Chem. Chem. Phys., 2023, 25, 17860-17868. DOI: 10.1039/D3CP02178E
   
   for DIPRO refer to:
   * J. Kohn, N. Gildemeister, S. Grimme, D. Fazzi, A. Hansen,
     J. Chem. Phys., 2023, just accepted.
   
   for PTB refer to:
   * S. Grimme, M. Mueller, A. Hansen, J. Chem. Phys., 2023, 158, 124111.
     DOI: 10.1063/5.0137838
   
   with help from (in alphabetical order)
   P. Atkinson, C. Bannwarth, F. Bohle, G. Brandenburg, E. Caldeweyher
   M. Checinski, S. Dohm, S. Ehlert, S. Ehrlich, I. Gerasimov, C. Hölzer
   A. Katbashev, J. Kohn, J. Koopman, C. Lavigne, S. Lehtola, F. März, M. Müller,
   F. Musil, H. Neugebauer, J. Pisarek, C. Plett, P. Pracht, F. Pultar,
   J. Seibert, P. Shushkov, S. Spicher, M. Stahn, M. Steiner, T. Strunk,
   J. Stückrath, T. Rose, and J. Unsleber
   
 * started run on 2026/04/11 at 17:16:35.793     
   ID    Z sym.   atoms
    1    7 N      1, 5, 9
    2    6 C      2, 3, 6, 7, 10, 11
    3    8 O      4, 8, 12, 13
    4    1 H      14-24

           -------------------------------------------------
          |                Calculation Setup                |
           -------------------------------------------------

          program call               : /home/analima/Programs/orca-6.1.0-f.0_linux_x86-64/bin/otool_xtb geo_opt_XTB.xyz --grad -c 0 -u 0 -P 1 --namespace geo_opt --input geo_opt_XTB.input.tmp --alpb WATER --acc 0.200000
          calculation namespace      : geo_opt
          coordinate file            : geo_opt_XTB.xyz
          omp threads                :                     1


           -------------------------------------------------
          |                 G F N 2 - x T B                 |
           -------------------------------------------------

        Reference                      10.1021/acs.jctc.8b01176
      * Hamiltonian:
        H0-scaling (s, p, d)           1.850000    2.230000    2.230000
        zeta-weighting                 0.500000
      * Dispersion:
        s8                             2.700000
        a1                             0.520000
        a2                             5.000000
        s9                             5.000000
      * Repulsion:
        kExp                           1.500000    1.000000
        rExp                           1.000000
      * Coulomb:
        alpha                          2.000000
        third order                    shell-resolved
        anisotropic                    true
        a3                             3.000000
        a5                             4.000000
        cn-shift                       1.200000
        cn-exp                         4.000000
        max-rad                        5.000000

      * Solvation model:               ALPB
        Solvent                        WATER
        Parameter file                 internal GFN2-xTB/ALPB
        Dielectric constant                8.0200E+01
        Reference state                gsolv [1 M gas/solution]
        Free energy shift                  1.0808E-03 Eh       6.7819E-01 kcal/mol
        Temperature                        2.9815E+02 K
        Density                            1.0000E+00 kg/L
        Solvent mass                       1.8000E+01 g/mol
        Interaction kernel             P16
        Born radius scaling (c1)           1.4744E+00
        Born radii integrator          GBOBC
        Born offset                        0.0000E+00 a0       0.0000E+00 AA
        H-bond correction              true
        Ion screening                  false
        Surface tension                    1.0000E-05 Eh       1.5569E+01 dyn/cm
        Grid points                               230 per atom
q/qsh data taken from xtbrestart
CAMM data taken from xtbrestart

          ...................................................
          :                      SETUP                      :
          :.................................................:
          :  # basis functions                  63          :
          :  # atomic orbitals                  63          :
          :  # shells                           37          :
          :  # electrons                        74          :
          :  max. iterations                   250          :
          :  Hamiltonian                  GFN2-xTB          :
          :  restarted?                       true          :
          :  GBSA solvation                   true          :
          :  PC potential                    false          :
          :  electronic temp.          300.0000000     K    :
          :  accuracy                    0.2000000          :
          :  -> integral cutoff          0.3198970E+02      :
          :  -> integral neglect         0.2000000E-08      :
          :  -> SCF convergence          0.2000000E-06 Eh   :
          :  -> wf. convergence          0.2000000E-04 e    :
          :  Broyden damping             0.4000000          :
          :  net charge                          0          :
          :  unpaired electrons                  0          :
          ...................................................

 iter      E             dE          RMSdq      gap      omega  full diag
   1    -43.9664146 -0.439664E+02  0.376E-01    3.78       0.0  T
   2    -43.9664379 -0.232921E-04  0.218E-01    3.79       1.0  T
   3    -43.9664444 -0.644957E-05  0.144E-02    3.80       1.4  T
   4    -43.9664452 -0.854487E-06  0.757E-03    3.80       2.7  T
   5    -43.9664453 -0.820781E-07  0.297E-03    3.80       6.9  T
   6    -43.9664454 -0.370651E-07  0.844E-04    3.80      24.2  T
   7    -43.9664454 -0.132465E-08  0.328E-04    3.80      62.3  T
   8    -43.9664454 -0.133831E-09  0.879E-05    3.80     232.3  T
   9    -43.9664454 -0.191918E-10  0.281E-05    3.80     725.9  T

   *** convergence criteria satisfied after 9 iterations ***

         #    Occupation            Energy/Eh            Energy/eV
      -------------------------------------------------------------
         1        2.0000           -0.7301432             -19.8682
       ...           ...                  ...                  ...
        31        2.0000           -0.4465767             -12.1520
        32        2.0000           -0.4299286             -11.6990
        33        2.0000           -0.4245202             -11.5518
        34        2.0000           -0.4117088             -11.2032
        35        2.0000           -0.3989819             -10.8569
        36        2.0000           -0.3968063             -10.7976
        37        2.0000           -0.3710334             -10.0963 (HOMO)
        38                         -0.2314867              -6.2991 (LUMO)
        39                         -0.2216008              -6.0301
        40                         -0.1831996              -4.9851
        41                         -0.0505314              -1.3750
        42                         -0.0048452              -0.1318
       ...                                ...                  ...
        63                          0.6372725              17.3411
      -------------------------------------------------------------
                  HL-Gap            0.1395467 Eh            3.7973 eV
             Fermi-level           -0.3012600 Eh           -8.1977 eV

 SCC (total)                   0 d,  0 h,  0 min,  0.012 sec
 SCC setup                      ...        0 min,  0.000 sec (  2.435%)
 Dispersion                     ...        0 min,  0.000 sec (  0.590%)
 classical contributions        ...        0 min,  0.000 sec (  0.123%)
 integral evaluation            ...        0 min,  0.001 sec (  9.960%)
 iterations                     ...        0 min,  0.006 sec ( 50.276%)
 molecular gradient             ...        0 min,  0.004 sec ( 35.969%)
 printout                       ...        0 min,  0.000 sec (  0.557%)

         :::::::::::::::::::::::::::::::::::::::::::::::::::::
         ::                     SUMMARY                     ::
         :::::::::::::::::::::::::::::::::::::::::::::::::::::
         :: total energy             -43.540495154118 Eh    ::
         :: total w/o Gsasa/hb       -43.529075587490 Eh    ::
         :: gradient norm              0.005740220622 Eh/a0 ::
         :: HOMO-LUMO gap              3.797257915692 eV    ::
         ::.................................................::
         :: SCC energy               -43.966212461374 Eh    ::
         :: -> isotropic ES            0.315945274964 Eh    ::
         :: -> anisotropic ES         -0.023943980015 Eh    ::
         :: -> anisotropic XC          0.009067390923 Eh    ::
         :: -> dispersion             -0.019629765727 Eh    ::
         :: -> Gsolv                  -0.126703328713 Eh    ::
         ::    -> Gelec               -0.115283762085 Eh    ::
         ::    -> Gsasa                0.004884003387 Eh    ::
         ::    -> Ghb                 -0.017384329713 Eh    ::
         ::    -> Gshift               0.001080759698 Eh    ::
         :: repulsion energy           0.425717307256 Eh    ::
         :: add. restraining           0.000000000000 Eh    ::
         :: total charge              -0.000000000000 e     ::
         :::::::::::::::::::::::::::::::::::::::::::::::::::::


Property printout bound to 'properties.out'

           -------------------------------------------------
          | TOTAL ENERGY              -43.540495154118 Eh   |
          | GRADIENT NORM               0.005740220622 Eh/α |
          | HOMO-LUMO GAP               3.797257915692 eV   |
           -------------------------------------------------

------------------------------------------------------------------------
 * finished run on 2026/04/11 at 17:16:35.811     
------------------------------------------------------------------------
 total:
 * wall-time:     0 d,  0 h,  0 min,  0.017 sec
 *  cpu-time:     0 d,  0 h,  0 min,  0.015 sec
 * ratio c/w:     0.890 speedup
 SCF:
 * wall-time:     0 d,  0 h,  0 min,  0.012 sec
 *  cpu-time:     0 d,  0 h,  0 min,  0.010 sec
 * ratio c/w:     0.851 speedup


-------------------------   --------------------
FINAL SINGLE POINT ENERGY       -43.540495154120
-------------------------   --------------------


-------------
DIPOLE MOMENT
-------------
                                X             Y             Z
Total Dipole Moment    :     -8.76100       0.74300       2.00300
                        -----------------------------------------
Magnitude (a.u.)       :      9.01771
Magnitude (Debye)      :     22.92121


------------------
CARTESIAN GRADIENT
------------------

   1   N   :    0.000133303    0.000928573   -0.000210027
   2   C   :   -0.000718456   -0.000122129   -0.000914548
   3   C   :    0.001509369   -0.001022217   -0.000366640
   4   O   :   -0.000401123    0.000251886    0.000766917
   5   N   :    0.000145609    0.002052450   -0.000451121
   6   C   :    0.000433779   -0.000173497    0.000071859
   7   C   :   -0.000563974   -0.000144122    0.000423983
   8   O   :    0.000066519    0.000608572   -0.000283496
   9   N   :    0.000159689   -0.000187408   -0.000571656
  10   C   :   -0.001100303   -0.001638066   -0.001642066
  11   C   :   -0.000315967    0.001519649    0.001172266
  12   O   :   -0.000666244   -0.000173218    0.000044954
  13   O   :    0.000607949   -0.000472137   -0.000487252
  14   H   :   -0.000285952    0.000062607    0.000294475
  15   H   :   -0.000125212   -0.000467925    0.000116209
  16   H   :   -0.000145823   -0.000346710   -0.000297940
  17   H   :    0.000947211    0.000678669    0.001145511
  18   H   :   -0.000168102   -0.000307815    0.000155761
  19   H   :    0.000268207   -0.001231388   -0.000760957
  20   H   :   -0.000038770   -0.000211786   -0.000265173
  21   H   :   -0.000749153   -0.000050893    0.000340741
  22   H   :    0.000496211   -0.000153469    0.000708069
  23   H   :    0.000662940    0.000696502    0.000597099
  24   H   :   -0.000151708   -0.000096128    0.000413032

Difference to translation invariance:
           :   -0.0000000000    0.0000000000   -0.0000000000

Difference to rotation invariance:
           :   -0.0002931567   -0.0006029494    0.0011013941

Norm of the Cartesian gradient     ...    0.0057402206
RMS gradient                       ...    0.0006764915
MAX gradient                       ...    0.0020524498
------------------------------------------------------------------------------
                         ORCA GEOMETRY RELAXATION STEP
------------------------------------------------------------------------------

Reading the OPT-File                    .... done
Getting information on internals        .... done
Copying old internal coords+grads       .... done
Making the new internal coordinates     .... (2022 redundants) done
Validating the new internal coordinates .... (2022 redundants) done
Calculating the B-matrix                .... done
Calculating the G,G- and P matrices     .... done
Transforming gradient to internals      .... done
Projecting the internal gradient        .... done
Number of atoms                         ....  24
Number of internal coordinates          .... 102
Current Energy                          ....   -43.540495154 Eh
Current gradient norm                   ....     0.005740221 Eh/bohr
Maximum allowed component of the step   ....  0.300
Current trust radius                    ....  0.700
Updating the Hessian (BFGS)             .... done
Forming the augmented Hessian           .... done
Diagonalizing the augmented Hessian     .... done
Last element of RFO vector              ....  0.989312800
Lowest eigenvalues of augmented Hessian:
 -0.000280162  0.003987739  0.010059304  0.012815452  0.014651952
Length of the computed step             ....  0.147383843
The final length of the internal step   ....  0.147383843
Converting the step to Cartesian space:
 Initial RMS(Int)=    0.0145931750
Transforming coordinates:
 Iter   0:  RMS(Cart)=    0.0339292131 RMS(Int)=    0.0145555980
done
Storing new coordinates                 .... done
The predicted energy change is          ....    -0.000143124
Previously predicted energy change      ....    -0.000732365
Actually observed energy change         ....    -0.000595767
Ratio of predicted to observed change   ....     0.813483844
New trust radius                        ....     0.700000000

                                .--------------------.
          ----------------------|Geometry convergence|-------------------------
          Item                value                   Tolerance       Converged
          ---------------------------------------------------------------------
          Energy change      -0.0005957668            0.0000050000      NO
          RMS gradient        0.0006726631            0.0001000000      NO
          MAX gradient        0.0027086998            0.0003000000      NO
          RMS step            0.0145931750            0.0020000000      NO
          MAX step            0.0590409584            0.0040000000      NO
          -------------------------------------------------------------------------
          ........................................................
          Max(Bonds)      0.0178      Max(Angles)    0.36
          Max(Dihed)        3.38      Max(Improp)    0.00
          ---------------------------------------------------------------------

The optimization has not yet converged - more geometry cycles are needed


    ---------------------------------------------------------------------------
                         Redundant Internal Coordinates
                            (Angstroem and degrees)

        Definition                    Value    dE/dq     Step     New-Value
    ----------------------------------------------------------------------------
     1. B(C   1,N   0)                1.4734 -0.000149  0.0001    1.4735   
     2. B(C   2,C   1)                1.5307 -0.000583  0.0007    1.5314   
     3. B(O   3,C   2)                1.2244 -0.000701  0.0000    1.2245   
     4. B(N   4,C   2)                1.3371 -0.000759  0.0009    1.3380   
     5. B(C   5,N   4)                1.4448 -0.001253  0.0009    1.4458   
     6. B(C   6,C   5)                1.5354 -0.000751  0.0020    1.5375   
     7. B(O   7,C   6)                1.2263  0.000507 -0.0003    1.2260   
     8. B(N   8,C   6)                1.3408  0.000537 -0.0012    1.3395   
     9. B(C   9,N   8)                1.4408 -0.000490 -0.0009    1.4399   
    10. B(C  10,C   9)                1.5670 -0.000678  0.0028    1.5698   
    11. B(O  11,C  10)                1.2478  0.000657 -0.0004    1.2474   
    12. B(O  12,C  10)                1.2399  0.000884 -0.0014    1.2385   
    13. B(H  13,N   0)                1.0235 -0.000164  0.0002    1.0237   
    14. B(H  14,N   0)                1.0252  0.000010  0.0000    1.0252   
    15. B(H  15,N   0)                1.0453  0.000220  0.0003    1.0456   
    16. B(H  15,O   3)                1.9182  0.000541 -0.0178    1.9004   
    17. B(H  16,C   1)                1.0948  0.000403 -0.0005    1.0943   
    18. B(H  17,C   1)                1.0879  0.000175 -0.0002    1.0877   
    19. B(H  18,N   4)                1.0101 -0.000118  0.0002    1.0103   
    20. B(H  19,C   5)                1.0928  0.000058 -0.0002    1.0926   
    21. B(H  20,C   5)                1.0899  0.000194 -0.0004    1.0895   
    22. B(H  21,N   8)                1.0174 -0.000029  0.0006    1.0180   
    23. B(H  22,C   9)                1.0908  0.000217 -0.0002    1.0906   
    24. B(H  23,C   9)                1.0944  0.000221 -0.0001    1.0942   
    25. A(H  14,N   0,H  15)          108.85  0.000204   -0.04    108.81   
    26. A(H  13,N   0,H  15)          109.11  0.000141   -0.04    109.07   
    27. A(C   1,N   0,H  13)          112.17 -0.000217    0.03    112.20   
    28. A(C   1,N   0,H  14)          112.50  0.000064   -0.03    112.47   
    29. A(H  13,N   0,H  14)          109.71 -0.000248    0.32    110.03   
    30. A(C   1,N   0,H  15)          104.28  0.000095   -0.22    104.06   
    31. A(N   0,C   1,H  17)          112.04 -0.000244    0.03    112.07   
    32. A(N   0,C   1,C   2)          107.23  0.000089   -0.21    107.02   
    33. A(C   2,C   1,H  16)          104.86 -0.000980    0.30    105.16   
    34. A(N   0,C   1,H  16)          111.18  0.001136   -0.30    110.88   
    35. A(C   2,C   1,H  17)          111.55  0.000376   -0.07    111.48   
    36. A(H  16,C   1,H  17)          109.73 -0.000387    0.27    110.00   
    37. A(C   1,C   2,N   4)          115.35 -0.001550    0.16    115.51   
    38. A(C   1,C   2,O   3)          119.32  0.000374   -0.11    119.21   
    39. A(O   3,C   2,N   4)          125.29  0.001172   -0.06    125.23   
    40. A(C   2,N   4,H  18)          117.49 -0.001636    0.30    117.79   
    41. A(C   2,N   4,C   5)          121.70  0.001465   -0.20    121.51   
    42. A(C   5,N   4,H  18)          117.38 -0.000060   -0.05    117.33   
    43. A(N   4,C   5,H  20)          109.43 -0.000031    0.03    109.47   
    44. A(C   6,C   5,H  19)          106.33  0.000601    0.01    106.34   
    45. A(N   4,C   5,H  19)          109.23  0.000776    0.11    109.34   
    46. A(N   4,C   5,C   6)          112.60 -0.002709   -0.08    112.52   
    47. A(H  19,C   5,H  20)          109.21 -0.000211    0.12    109.33   
    48. A(C   6,C   5,H  20)          109.95  0.001634   -0.16    109.78   
    49. A(C   5,C   6,O   7)          121.17  0.000325    0.13    121.30   
    50. A(O   7,C   6,N   8)          124.19  0.001316    0.07    124.26   
    51. A(C   5,C   6,N   8)          114.61 -0.001623   -0.20    114.41   
    52. A(C   6,N   8,C   9)          123.95  0.000938    0.19    124.14   
    53. A(C   9,N   8,H  21)          109.32 -0.000787   -0.09    109.23   
    54. A(C   6,N   8,H  21)          117.92 -0.000085    0.20    118.12   
    55. A(H  22,C   9,H  23)          108.96 -0.000019    0.04    109.00   
    56. A(N   8,C   9,C  10)          108.16 -0.000962   -0.14    108.02   
    57. A(C  10,C   9,H  23)          107.96  0.000239    0.06    108.02   
    58. A(N   8,C   9,H  23)          110.77 -0.000129    0.27    111.04   
    59. A(C  10,C   9,H  22)          110.53  0.000946   -0.36    110.17   
    60. A(N   8,C   9,H  22)          110.43 -0.000062    0.15    110.58   
    61. A(O  11,C  10,O  12)          127.16 -0.000005    0.12    127.28   
    62. A(C   9,C  10,O  12)          117.16 -0.000528    0.08    117.24   
    63. A(C   9,C  10,O  11)          115.68  0.000535   -0.20    115.48   
    64. D(H  16,C   1,N   0,H  15)   -101.91  0.000345   -0.37   -102.28   
    65. D(C   2,C   1,N   0,H  15)     12.18 -0.000187   -0.31     11.87   
    66. D(H  16,C   1,N   0,H  13)     16.03  0.000461   -0.54     15.49   
    67. D(H  16,C   1,N   0,H  14)    140.29  0.000012   -0.15    140.15   
    68. D(C   2,C   1,N   0,H  14)   -105.62 -0.000521   -0.09   -105.70   
    69. D(C   2,C   1,N   0,H  13)    130.12 -0.000072   -0.48    129.64   
    70. D(N   4,C   2,C   1,H  16)    -72.62  0.000701   -0.84    -73.45   
    71. D(N   4,C   2,C   1,N   0)    169.11 -0.000158   -0.53    168.57   
    72. D(O   3,C   2,C   1,H  17)   -131.83 -0.000045   -1.31   -133.14   
    73. D(O   3,C   2,C   1,N   0)     -8.81 -0.000054   -1.47    -10.28   
    74. D(O   3,C   2,C   1,H  16)    109.47  0.000805   -1.77    107.70   
    75. D(H  18,N   4,C   2,C   1)      8.33  0.000258   -1.42      6.92   
    76. D(C   5,N   4,C   2,O   3)    -15.33 -0.000613    0.45    -14.88   
    77. D(H  18,N   4,C   2,O   3)   -173.89  0.000123   -0.43   -174.32   
    78. D(C   5,N   4,C   2,C   1)    166.90 -0.000478   -0.54    166.36   
    79. D(H  20,C   5,N   4,C   2)    164.80  0.000382    1.34    166.14   
    80. D(H  19,C   5,N   4,H  18)   -156.12 -0.000867    1.99   -154.13   
    81. D(H  19,C   5,N   4,C   2)     45.29  0.000190    1.11     46.40   
    82. D(C   6,C   5,N   4,H  18)     85.98 -0.000458    1.98     87.97   
    83. D(C   6,C   5,N   4,C   2)    -72.60  0.000599    1.10    -71.50   
    84. D(N   8,C   6,C   5,H  19)   -152.35  0.000794   -0.60   -152.95   
    85. D(N   8,C   6,C   5,N   4)    -32.76  0.000580   -0.54    -33.30   
    86. D(O   7,C   6,C   5,H  20)    -88.48 -0.000710   -0.41    -88.89   
    87. D(O   7,C   6,C   5,H  19)     29.62  0.000241   -0.34     29.28   
    88. D(O   7,C   6,C   5,N   4)    149.21  0.000027   -0.27    148.94   
    89. D(H  21,N   8,C   6,O   7)   -170.02 -0.000154    1.21   -168.82   
    90. D(H  21,N   8,C   6,C   5)     12.02 -0.000701    1.49     13.50   
    91. D(C   9,N   8,C   6,O   7)    -26.11 -0.000322    0.40    -25.71   
    92. D(C   9,N   8,C   6,C   5)    155.93 -0.000869    0.68    156.61   
    93. D(C  10,C   9,N   8,H  21)     33.79  0.000162   -2.95     30.85   
    94. D(C  10,C   9,N   8,C   6)   -112.73  0.000163   -2.15   -114.89   
    95. D(H  23,C   9,N   8,C   6)    129.13  0.000529   -2.31    126.83   
    96. D(H  22,C   9,N   8,H  21)    154.86  0.000678   -3.38    151.48   
    97. D(H  22,C   9,N   8,C   6)      8.33  0.000678   -2.59      5.74   
    98. D(O  12,C  10,C   9,H  22)     48.40  0.000060    0.49     48.89   
    99. D(O  12,C  10,C   9,N   8)    169.40 -0.000052    0.34    169.74   
   100. D(O  11,C  10,C   9,H  23)    108.73 -0.000393    0.38    109.11   
   101. D(O  11,C  10,C   9,H  22)   -132.18  0.000279    0.25   -131.93   
   102. D(O  11,C  10,C   9,N   8)    -11.18  0.000167    0.10    -11.08   
    ----------------------------------------------------------------------------

Geometry step timings:
Preparation and reading OPT file:      0.000 s ( 0.664 %)
Internal coordinates            :      0.000 s ( 0.730 %)
B/P matrices and projection     :      0.001 s (38.354 %)
Hessian update/contruction      :      0.000 s ( 9.622 %)
Making the step                 :      0.001 s (34.373 %)
Converting the step to Cartesian:      0.000 s ( 3.650 %)
Storing new data                :      0.000 s ( 0.796 %)
Checking convergence            :      0.000 s ( 0.863 %)
Final printing                  :      0.000 s (10.883 %)
Total time                      :      0.002 s

Time for energy+gradient        :      0.022 s
Time for complete geometry iter :      0.024 s

         *************************************************************
         *                GEOMETRY OPTIMIZATION CYCLE  16            *
         *************************************************************
---------------------------------
CARTESIAN COORDINATES (ANGSTROEM)
---------------------------------
  N    -2.864593   -0.948997   -1.251434
  C    -2.150844   -0.629876   -0.002728
  C    -1.280303    0.596925   -0.288299
  O    -1.148404    0.979090   -1.444078
  N    -0.737424    1.181991    0.785621
  C     0.325530    2.154126    0.661932
  C     1.659848    1.517037    0.240547
  O     2.475398    2.134891   -0.434798
  N     1.854768    0.278189    0.711296
  C     2.736352   -0.683695    0.102250
  C     1.863262   -1.878055   -0.422599
  O     0.675931   -1.883406   -0.040166
  O     2.421143   -2.711790   -1.148841
  H    -2.773181   -1.935818   -1.507814
  H    -3.854862   -0.686197   -1.214812
  H    -2.386500   -0.362463   -1.973240
  H    -1.447032   -1.425878    0.259157
  H    -2.833754   -0.450041    0.824498
  H    -0.846045    0.722713    1.678936
  H     0.068393    2.873778   -0.118965
  H     0.450013    2.678433    1.608795
  H     1.055694   -0.210386    1.110177
  H     3.287601   -0.230024   -0.722229
  H     3.449010   -1.080547    0.831636

----------------------------
CARTESIAN COORDINATES (A.U.)
----------------------------
  NO LB    ZA    FRAG    MASS        X           Y           Z
   0 N   7.0000    0    14.007   -5.413297   -1.793344   -2.364867
   1 C   6.0000    0    12.011   -4.064506   -1.190292   -0.005154
   2 C   6.0000    0    12.011   -2.419422    1.128025   -0.544807
   3 O   8.0000    0    15.999   -2.170169    1.850212   -2.728912
   4 N   7.0000    0    14.007   -1.393529    2.233640    1.484608
   5 C   6.0000    0    12.011    0.615163    4.070708    1.250869
   6 C   6.0000    0    12.011    3.136658    2.866785    0.454568
   7 O   8.0000    0    15.999    4.677824    4.034360   -0.821648
   8 N   7.0000    0    14.007    3.505004    0.525700    1.344154
   9 C   6.0000    0    12.011    5.170955   -1.291997    0.193224
  10 C   6.0000    0    12.011    3.521055   -3.549010   -0.798597
  11 O   8.0000    0    15.999    1.277325   -3.559121   -0.075902
  12 O   8.0000    0    15.999    4.575296   -5.124540   -2.170995
  13 H   1.0000    0     1.008   -5.240554   -3.658166   -2.849355
  14 H   1.0000    0     1.008   -7.284633   -1.296724   -2.295662
  15 H   1.0000    0     1.008   -4.509831   -0.684957   -3.728883
  16 H   1.0000    0     1.008   -2.734494   -2.694520    0.489737
  17 H   1.0000    0     1.008   -5.355019   -0.850455    1.558075
  18 H   1.0000    0     1.008   -1.598793    1.365730    3.172729
  19 H   1.0000    0     1.008    0.129244    5.430653   -0.224812
  20 H   1.0000    0     1.008    0.850402    5.061505    3.040182
  21 H   1.0000    0     1.008    1.994972   -0.397572    2.097931
  22 H   1.0000    0     1.008    6.212665   -0.434682   -1.364816
  23 H   1.0000    0     1.008    6.517684   -2.041937    1.571564

      -----------------------------------------------------------      
     |                   =====================                   |     
     |                           x T B                           |     
     |                   =====================                   |     
     |                         S. Grimme                         |     
     |          Mulliken Center for Theoretical Chemistry        |     
     |                    University of Bonn                     |     
      -----------------------------------------------------------      

   * xtb version 6.7.1 (edcfbbe) compiled by 'albert@albert-system' on 2024-07-22

   xtb is free software: you can redistribute it and/or modify it under
   the terms of the GNU Lesser General Public License as published by
   the Free Software Foundation, either version 3 of the License, or
   (at your option) any later version.
   
   xtb is distributed in the hope that it will be useful,
   but WITHOUT ANY WARRANTY; without even the implied warranty of
   MERCHANTABILITY or FITNESS FOR A PARTICULAR PURPOSE.  See the
   GNU Lesser General Public License for more details.
   
   Cite this work as:
   * C. Bannwarth, E. Caldeweyher, S. Ehlert, A. Hansen, P. Pracht,
     J. Seibert, S. Spicher, S. Grimme, WIREs Comput. Mol. Sci., 2020, 11,
     e01493. DOI: 10.1002/wcms.1493
   
   for GFN2-xTB:
   * C. Bannwarth, S. Ehlert and S. Grimme., J. Chem. Theory Comput., 2019,
     15, 1652-1671. DOI: 10.1021/acs.jctc.8b01176
   for GFN1-xTB:
   * S. Grimme, C. Bannwarth, P. Shushkov, J. Chem. Theory Comput., 2017,
     13, 1989-2009. DOI: 10.1021/acs.jctc.7b00118
   for GFN0-xTB:
   * P. Pracht, E. Caldeweyher, S. Ehlert, S. Grimme, ChemRxiv, 2019, preprint.
     DOI: 10.26434/chemrxiv.8326202.v1
   for GFN-FF:
   * S. Spicher and S. Grimme, Angew. Chem. Int. Ed., 2020, 59, 15665-15673.
     DOI: 10.1002/anie.202004239
   
   for ALPB and GBSA implicit solvation:
   * S. Ehlert, M. Stahn, S. Spicher, S. Grimme, J. Chem. Theory Comput.,
     2021, 17, 4250-4261. DOI: 10.1021/acs.jctc.1c00471
   
   for ddCOSMO and CPCM-X implicit solvation:
   * M. Stahn, S. Ehlert, S. Grimme, J. Phys. Chem. A,
     2023, XX, XXXX-XXXX. DOI: 10.1021/acs.jpca.3c04382
   
   for DFT-D4:
   * E. Caldeweyher, C. Bannwarth and S. Grimme, J. Chem. Phys., 2017,
     147, 034112. DOI: 10.1063/1.4993215
   * E. Caldeweyher, S. Ehlert, A. Hansen, H. Neugebauer, S. Spicher,
     C. Bannwarth and S. Grimme, J. Chem. Phys., 2019, 150, 154122.
     DOI: 10.1063/1.5090222
   * E. Caldeweyher, J.-M. Mewes, S. Ehlert and S. Grimme, Phys. Chem. Chem. Phys.
     2020, 22, 8499-8512. DOI: 10.1039/D0CP00502A
   
   for sTDA-xTB:
   * S. Grimme and C. Bannwarth, J. Chem. Phys., 2016, 145, 054103.
     DOI: 10.1063/1.4959605
   
   in the mass-spec context:
   * V. Asgeirsson, C. Bauer and S. Grimme, Chem. Sci., 2017, 8, 4879.
     DOI: 10.1039/c7sc00601b
   * J. Koopman and S. Grimme, ACS Omega 2019, 4, 12, 15120-15133.
     DOI: 10.1021/acsomega.9b02011
   
   for metadynamics refer to:
   * S. Grimme, J. Chem. Theory Comput., 2019, 155, 2847-2862
     DOI: 10.1021/acs.jctc.9b00143
   
   for SPH calculations refer to:
   * S. Spicher and S. Grimme, J. Chem. Theory Comput., 2021, 17, 1701-1714
     DOI: 10.1021/acs.jctc.0c01306
   
   for ONIOM refer to:
   * C. Plett, A. Katbashev, S. Ehlert, S. Grimme, M. Bursch,
     Phys. Chem. Chem. Phys., 2023, 25, 17860-17868. DOI: 10.1039/D3CP02178E
   
   for DIPRO refer to:
   * J. Kohn, N. Gildemeister, S. Grimme, D. Fazzi, A. Hansen,
     J. Chem. Phys., 2023, just accepted.
   
   for PTB refer to:
   * S. Grimme, M. Mueller, A. Hansen, J. Chem. Phys., 2023, 158, 124111.
     DOI: 10.1063/5.0137838
   
   with help from (in alphabetical order)
   P. Atkinson, C. Bannwarth, F. Bohle, G. Brandenburg, E. Caldeweyher
   M. Checinski, S. Dohm, S. Ehlert, S. Ehrlich, I. Gerasimov, C. Hölzer
   A. Katbashev, J. Kohn, J. Koopman, C. Lavigne, S. Lehtola, F. März, M. Müller,
   F. Musil, H. Neugebauer, J. Pisarek, C. Plett, P. Pracht, F. Pultar,
   J. Seibert, P. Shushkov, S. Spicher, M. Stahn, M. Steiner, T. Strunk,
   J. Stückrath, T. Rose, and J. Unsleber
   
 * started run on 2026/04/11 at 17:16:35.817     
   ID    Z sym.   atoms
    1    7 N      1, 5, 9
    2    6 C      2, 3, 6, 7, 10, 11
    3    8 O      4, 8, 12, 13
    4    1 H      14-24

           -------------------------------------------------
          |                Calculation Setup                |
           -------------------------------------------------

          program call               : /home/analima/Programs/orca-6.1.0-f.0_linux_x86-64/bin/otool_xtb geo_opt_XTB.xyz --grad -c 0 -u 0 -P 1 --namespace geo_opt --input geo_opt_XTB.input.tmp --alpb WATER --acc 0.200000
          calculation namespace      : geo_opt
          coordinate file            : geo_opt_XTB.xyz
          omp threads                :                     1


           -------------------------------------------------
          |                 G F N 2 - x T B                 |
           -------------------------------------------------

        Reference                      10.1021/acs.jctc.8b01176
      * Hamiltonian:
        H0-scaling (s, p, d)           1.850000    2.230000    2.230000
        zeta-weighting                 0.500000
      * Dispersion:
        s8                             2.700000
        a1                             0.520000
        a2                             5.000000
        s9                             5.000000
      * Repulsion:
        kExp                           1.500000    1.000000
        rExp                           1.000000
      * Coulomb:
        alpha                          2.000000
        third order                    shell-resolved
        anisotropic                    true
        a3                             3.000000
        a5                             4.000000
        cn-shift                       1.200000
        cn-exp                         4.000000
        max-rad                        5.000000

      * Solvation model:               ALPB
        Solvent                        WATER
        Parameter file                 internal GFN2-xTB/ALPB
        Dielectric constant                8.0200E+01
        Reference state                gsolv [1 M gas/solution]
        Free energy shift                  1.0808E-03 Eh       6.7819E-01 kcal/mol
        Temperature                        2.9815E+02 K
        Density                            1.0000E+00 kg/L
        Solvent mass                       1.8000E+01 g/mol
        Interaction kernel             P16
        Born radius scaling (c1)           1.4744E+00
        Born radii integrator          GBOBC
        Born offset                        0.0000E+00 a0       0.0000E+00 AA
        H-bond correction              true
        Ion screening                  false
        Surface tension                    1.0000E-05 Eh       1.5569E+01 dyn/cm
        Grid points                               230 per atom
q/qsh data taken from xtbrestart
CAMM data taken from xtbrestart

          ...................................................
          :                      SETUP                      :
          :.................................................:
          :  # basis functions                  63          :
          :  # atomic orbitals                  63          :
          :  # shells                           37          :
          :  # electrons                        74          :
          :  max. iterations                   250          :
          :  Hamiltonian                  GFN2-xTB          :
          :  restarted?                       true          :
          :  GBSA solvation                   true          :
          :  PC potential                    false          :
          :  electronic temp.          300.0000000     K    :
          :  accuracy                    0.2000000          :
          :  -> integral cutoff          0.3198970E+02      :
          :  -> integral neglect         0.2000000E-08      :
          :  -> SCF convergence          0.2000000E-06 Eh   :
          :  -> wf. convergence          0.2000000E-04 e    :
          :  Broyden damping             0.4000000          :
          :  net charge                          0          :
          :  unpaired electrons                  0          :
          ...................................................

 iter      E             dE          RMSdq      gap      omega  full diag
   1    -43.9667694 -0.439668E+02  0.951E-02    3.78       0.0  T
   2    -43.9667728 -0.346523E-05  0.557E-02    3.79       1.0  T
   3    -43.9667728  0.834941E-08  0.673E-03    3.79       3.0  T
   4    -43.9667733 -0.498124E-06  0.202E-03    3.79      10.1  T
   5    -43.9667733 -0.155839E-07  0.100E-03    3.79      20.4  T
   6    -43.9667733 -0.139769E-08  0.270E-04    3.79      75.6  T
   7    -43.9667733 -0.126917E-09  0.821E-05    3.79     248.6  T
   8    -43.9667733 -0.103526E-10  0.348E-05    3.79     586.4  T

   *** convergence criteria satisfied after 8 iterations ***

         #    Occupation            Energy/Eh            Energy/eV
      -------------------------------------------------------------
         1        2.0000           -0.7308282             -19.8868
       ...           ...                  ...                  ...
        31        2.0000           -0.4464481             -12.1485
        32        2.0000           -0.4306327             -11.7181
        33        2.0000           -0.4238404             -11.5333
        34        2.0000           -0.4123889             -11.2217
        35        2.0000           -0.3993353             -10.8665
        36        2.0000           -0.3971757             -10.8077
        37        2.0000           -0.3714997             -10.1090 (HOMO)
        38                         -0.2321539              -6.3172 (LUMO)
        39                         -0.2212560              -6.0207
        40                         -0.1832276              -4.9859
        41                         -0.0502748              -1.3680
        42                         -0.0049228              -0.1340
       ...                                ...                  ...
        63                          0.6405496              17.4302
      -------------------------------------------------------------
                  HL-Gap            0.1393458 Eh            3.7918 eV
             Fermi-level           -0.3018268 Eh           -8.2131 eV

 SCC (total)                   0 d,  0 h,  0 min,  0.014 sec
 SCC setup                      ...        0 min,  0.000 sec (  2.167%)
 Dispersion                     ...        0 min,  0.000 sec (  0.577%)
 classical contributions        ...        0 min,  0.000 sec (  0.111%)
 integral evaluation            ...        0 min,  0.001 sec (  9.016%)
 iterations                     ...        0 min,  0.007 sec ( 48.487%)
 molecular gradient             ...        0 min,  0.005 sec ( 39.154%)
 printout                       ...        0 min,  0.000 sec (  0.413%)

         :::::::::::::::::::::::::::::::::::::::::::::::::::::
         ::                     SUMMARY                     ::
         :::::::::::::::::::::::::::::::::::::::::::::::::::::
         :: total energy             -43.540685084088 Eh    ::
         :: total w/o Gsasa/hb       -43.529307628480 Eh    ::
         :: gradient norm              0.004560665357 Eh/a0 ::
         :: HOMO-LUMO gap              3.791792594086 eV    ::
         ::.................................................::
         :: SCC energy               -43.966538528158 Eh    ::
         :: -> isotropic ES            0.314199107921 Eh    ::
         :: -> anisotropic ES         -0.023919191224 Eh    ::
         :: -> anisotropic XC          0.009087826726 Eh    ::
         :: -> dispersion             -0.019631569308 Eh    ::
         :: -> Gsolv                  -0.125825372744 Eh    ::
         ::    -> Gelec               -0.114447917136 Eh    ::
         ::    -> Gsasa                0.004884805923 Eh    ::
         ::    -> Ghb                 -0.017343021230 Eh    ::
         ::    -> Gshift               0.001080759698 Eh    ::
         :: repulsion energy           0.425853444070 Eh    ::
         :: add. restraining           0.000000000000 Eh    ::
         :: total charge              -0.000000000000 e     ::
         :::::::::::::::::::::::::::::::::::::::::::::::::::::


Property printout bound to 'properties.out'

           -------------------------------------------------
          | TOTAL ENERGY              -43.540685084088 Eh   |
          | GRADIENT NORM               0.004560665357 Eh/α |
          | HOMO-LUMO GAP               3.791792594086 eV   |
           -------------------------------------------------

------------------------------------------------------------------------
 * finished run on 2026/04/11 at 17:16:35.836     
------------------------------------------------------------------------
 total:
 * wall-time:     0 d,  0 h,  0 min,  0.018 sec
 *  cpu-time:     0 d,  0 h,  0 min,  0.017 sec
 * ratio c/w:     0.916 speedup
 SCF:
 * wall-time:     0 d,  0 h,  0 min,  0.014 sec
 *  cpu-time:     0 d,  0 h,  0 min,  0.012 sec
 * ratio c/w:     0.898 speedup


-------------------------   --------------------
FINAL SINGLE POINT ENERGY       -43.540685084090
-------------------------   --------------------


-------------
DIPOLE MOMENT
-------------
                                X             Y             Z
Total Dipole Moment    :     -8.74100       0.82000       1.87700
                        -----------------------------------------
Magnitude (a.u.)       :      8.97778
Magnitude (Debye)      :     22.81971


------------------
CARTESIAN GRADIENT
------------------

   1   N   :    0.000547093    0.000957520   -0.000168119
   2   C   :    0.000037609   -0.001025329   -0.000350878
   3   C   :   -0.000495857   -0.000120424   -0.002080545
   4   O   :   -0.000064023   -0.000464761    0.000862729
   5   N   :    0.000497495    0.001886830    0.000431941
   6   C   :    0.000104564    0.000403865    0.000606060
   7   C   :    0.000216343   -0.000963982   -0.000089436
   8   O   :    0.000083848    0.000226489   -0.000165608
   9   N   :    0.000044536    0.000469107   -0.000397324
  10   C   :   -0.000765744   -0.000514675   -0.000418697
  11   C   :   -0.001089097    0.000429908   -0.000714502
  12   O   :    0.000320191   -0.000128892    0.000366837
  13   O   :    0.000182208    0.000065631    0.000358168
  14   H   :    0.000137660   -0.000170713    0.000178864
  15   H   :   -0.000091161   -0.000044663    0.000240453
  16   H   :   -0.000335294   -0.000226330    0.000210044
  17   H   :    0.000404797    0.000292755    0.000293926
  18   H   :   -0.000227865    0.000054584   -0.000002807
  19   H   :    0.000203752   -0.000961610   -0.000207960
  20   H   :   -0.000002309   -0.000328530   -0.000248793
  21   H   :   -0.000616018   -0.000172866    0.000329479
  22   H   :    0.000707843    0.000130361    0.000160919
  23   H   :    0.000212063    0.000354231    0.000467075
  24   H   :   -0.000012633   -0.000148507    0.000338174

Difference to translation invariance:
           :   -0.0000000000   -0.0000000000    0.0000000000

Difference to rotation invariance:
           :   -0.0001492614   -0.0005578160    0.0012162710

Norm of the Cartesian gradient     ...    0.0045606654
RMS gradient                       ...    0.0005374796
MAX gradient                       ...    0.0020805449
------------------------------------------------------------------------------
                         ORCA GEOMETRY RELAXATION STEP
------------------------------------------------------------------------------

Reading the OPT-File                    .... done
Getting information on internals        .... done
Copying old internal coords+grads       .... done
Making the new internal coordinates     .... (2022 redundants) done
Validating the new internal coordinates .... (2022 redundants) done
Calculating the B-matrix                .... done
Calculating the G,G- and P matrices     .... done
Transforming gradient to internals      .... done
Projecting the internal gradient        .... done
Number of atoms                         ....  24
Number of internal coordinates          .... 102
Current Energy                          ....   -43.540685084 Eh
Current gradient norm                   ....     0.004560665 Eh/bohr
Maximum allowed component of the step   ....  0.300
Current trust radius                    ....  0.700
Updating the Hessian (BFGS)             .... done
Forming the augmented Hessian           .... done
Diagonalizing the augmented Hessian     .... done
Last element of RFO vector              ....  0.984410120
Lowest eigenvalues of augmented Hessian:
 -0.000252032  0.003198927  0.010758440  0.011576808  0.014747046
Length of the computed step             ....  0.178673864
The final length of the internal step   ....  0.178673864
Converting the step to Cartesian space:
 Initial RMS(Int)=    0.0176913488
Transforming coordinates:
 Iter   0:  RMS(Cart)=    0.0330688273 RMS(Int)=    0.0176835595
done
Storing new coordinates                 .... done
The predicted energy change is          ....    -0.000130039
Previously predicted energy change      ....    -0.000143124
Actually observed energy change         ....    -0.000189930
Ratio of predicted to observed change   ....     1.327031188
New trust radius                        ....     0.700000000

                                .--------------------.
          ----------------------|Geometry convergence|-------------------------
          Item                value                   Tolerance       Converged
          ---------------------------------------------------------------------
          Energy change      -0.0001899300            0.0000050000      NO
          RMS gradient        0.0005962705            0.0001000000      NO
          MAX gradient        0.0028106815            0.0003000000      NO
          RMS step            0.0176913488            0.0020000000      NO
          MAX step            0.0690208144            0.0040000000      NO
          -------------------------------------------------------------------------
          ........................................................
          Max(Bonds)      0.0096      Max(Angles)    0.54
          Max(Dihed)        3.95      Max(Improp)    0.00
          ---------------------------------------------------------------------

The optimization has not yet converged - more geometry cycles are needed


    ---------------------------------------------------------------------------
                         Redundant Internal Coordinates
                            (Angstroem and degrees)

        Definition                    Value    dE/dq     Step     New-Value
    ----------------------------------------------------------------------------
     1. B(C   1,N   0)                1.4733 -0.000693  0.0006    1.4739   
     2. B(C   2,C   1)                1.5312 -0.000160  0.0003    1.5315   
     3. B(O   3,C   2)                1.2244 -0.000969  0.0007    1.2251   
     4. B(N   4,C   2)                1.3380  0.000965 -0.0010    1.3370   
     5. B(C   5,N   4)                1.4458 -0.000663  0.0010    1.4467   
     6. B(C   6,C   5)                1.5375  0.000003  0.0004    1.5379   
     7. B(O   7,C   6)                1.2260  0.000263 -0.0003    1.2256   
     8. B(N   8,C   6)                1.3395 -0.000566 -0.0007    1.3388   
     9. B(C   9,N   8)                1.4399 -0.000884 -0.0003    1.4396   
    10. B(C  10,C   9)                1.5698  0.000076  0.0020    1.5718   
    11. B(O  11,C  10)                1.2474 -0.000186  0.0001    1.2475   
    12. B(O  12,C  10)                1.2385 -0.000168 -0.0006    1.2379   
    13. B(H  13,N   0)                1.0237  0.000119 -0.0000    1.0236   
    14. B(H  14,N   0)                1.0252  0.000094 -0.0001    1.0251   
    15. B(H  15,N   0)                1.0458 -0.000389  0.0011    1.0469   
    16. B(H  15,O   3)                1.9007  0.000072 -0.0096    1.8911   
    17. B(H  16,C   1)                1.0943  0.000111 -0.0003    1.0940   
    18. B(H  17,C   1)                1.0877  0.000156 -0.0003    1.0874   
    19. B(H  18,N   4)                1.0103  0.000231 -0.0003    1.0101   
    20. B(H  19,C   5)                1.0926 -0.000042  0.0000    1.0926   
    21. B(H  20,C   5)                1.0895  0.000133 -0.0005    1.0890   
    22. B(H  21,N   8)                1.0180 -0.000555  0.0014    1.0194   
    23. B(H  22,C   9)                1.0906 -0.000100  0.0002    1.0908   
    24. B(H  23,C   9)                1.0942  0.000270 -0.0005    1.0937   
    25. A(H  14,N   0,H  15)          108.81  0.000064   -0.04    108.77   
    26. A(H  13,N   0,H  15)          109.09  0.000117   -0.09    108.99   
    27. A(C   1,N   0,H  13)          112.20 -0.000317    0.09    112.28   
    28. A(C   1,N   0,H  14)          112.47 -0.000268    0.04    112.51   
    29. A(H  13,N   0,H  14)          110.02  0.000187    0.21    110.23   
    30. A(C   1,N   0,H  15)          104.01  0.000240   -0.25    103.76   
    31. A(N   0,C   1,H  17)          112.10 -0.000239    0.13    112.23   
    32. A(N   0,C   1,C   2)          106.91 -0.000188   -0.25    106.66   
    33. A(C   2,C   1,H  16)          105.18 -0.000393    0.38    105.55   
    34. A(N   0,C   1,H  16)          110.91  0.000591   -0.42    110.49   
    35. A(C   2,C   1,H  17)          111.49  0.000017   -0.03    111.46   
    36. A(H  16,C   1,H  17)          110.00  0.000201    0.17    110.18   
    37. A(C   1,C   2,N   4)          115.55 -0.001103    0.32    115.88   
    38. A(C   1,C   2,O   3)          119.17  0.000352   -0.19    118.98   
    39. A(O   3,C   2,N   4)          125.27  0.000760   -0.11    125.16   
    40. A(C   2,N   4,H  18)          117.86 -0.000860    0.54    118.40   
    41. A(C   2,N   4,C   5)          121.58  0.000651   -0.19    121.39   
    42. A(C   5,N   4,H  18)          117.41 -0.000023    0.06    117.47   
    43. A(N   4,C   5,H  20)          109.47  0.000166    0.12    109.58   
    44. A(C   6,C   5,H  19)          106.34  0.000642   -0.00    106.34   
    45. A(N   4,C   5,H  19)          109.33  0.000623    0.21    109.54   
    46. A(N   4,C   5,C   6)          112.51 -0.002811    0.04    112.55   
    47. A(H  19,C   5,H  20)          109.33 -0.000072   -0.02    109.31   
    48. A(C   6,C   5,H  20)          109.78  0.001508   -0.36    109.42   
    49. A(C   5,C   6,O   7)          121.30  0.000904    0.06    121.36   
    50. A(O   7,C   6,N   8)          124.26  0.001139    0.02    124.27   
    51. A(C   5,C   6,N   8)          114.41 -0.002031   -0.07    114.33   
    52. A(C   6,N   8,C   9)          123.93  0.000949   -0.14    123.80   
    53. A(C   9,N   8,H  21)          109.01 -0.000814   -0.11    108.89   
    54. A(C   6,N   8,H  21)          117.86 -0.000164    0.03    117.89   
    55. A(H  22,C   9,H  23)          109.00 -0.000091   -0.00    109.00   
    56. A(N   8,C   9,C  10)          108.01 -0.000976   -0.11    107.90   
    57. A(C  10,C   9,H  23)          108.01  0.000228    0.09    108.09   
    58. A(N   8,C   9,H  23)          111.04  0.000219    0.26    111.31   
    59. A(C  10,C   9,H  22)          110.17  0.000642   -0.45    109.73   
    60. A(N   8,C   9,H  22)          110.57 -0.000009    0.21    110.77   
    61. A(O  11,C  10,O  12)          127.28  0.000255    0.05    127.33   
    62. A(C   9,C  10,O  12)          117.24 -0.000215    0.08    117.32   
    63. A(C   9,C  10,O  11)          115.48 -0.000048   -0.10    115.38   
    64. D(H  16,C   1,N   0,H  15)   -102.28  0.000055   -0.04   -102.32   
    65. D(C   2,C   1,N   0,H  15)     11.87 -0.000216    0.05     11.92   
    66. D(H  16,C   1,N   0,H  13)     15.48  0.000179   -0.24     15.24   
    67. D(H  16,C   1,N   0,H  14)    140.15 -0.000031    0.13    140.28   
    68. D(C   2,C   1,N   0,H  14)   -105.70 -0.000302    0.21   -105.49   
    69. D(C   2,C   1,N   0,H  13)    129.63 -0.000093   -0.15    129.48   
    70. D(N   4,C   2,C   1,H  16)    -73.46  0.000457   -1.23    -74.69   
    71. D(N   4,C   2,C   1,N   0)    168.57  0.000060   -0.82    167.76   
    72. D(O   3,C   2,C   1,H  17)   -133.12 -0.000021   -0.51   -133.63   
    73. D(O   3,C   2,C   1,N   0)    -10.28 -0.000431   -0.52    -10.79   
    74. D(O   3,C   2,C   1,H  16)    107.69 -0.000035   -0.92    106.76   
    75. D(H  18,N   4,C   2,C   1)      6.94 -0.000262   -1.15      5.78   
    76. D(C   5,N   4,C   2,O   3)    -14.89 -0.000488    0.67    -14.23   
    77. D(H  18,N   4,C   2,O   3)   -174.29  0.000257   -1.47   -175.76   
    78. D(C   5,N   4,C   2,C   1)    166.33 -0.001007    0.98    167.31   
    79. D(H  20,C   5,N   4,C   2)    166.14  0.000412    1.91    168.04   
    80. D(H  19,C   5,N   4,H  18)   -154.12 -0.000885    3.95   -150.16   
    81. D(H  19,C   5,N   4,C   2)     46.40  0.000022    1.73     48.13   
    82. D(C   6,C   5,N   4,H  18)     87.97 -0.000361    3.78     91.76   
    83. D(C   6,C   5,N   4,C   2)    -71.51  0.000546    1.56    -69.95   
    84. D(N   8,C   6,C   5,H  19)   -152.96  0.000581    0.21   -152.75   
    85. D(N   8,C   6,C   5,N   4)    -33.30  0.000146    0.50    -32.80   
    86. D(O   7,C   6,C   5,H  20)    -88.89 -0.000843    0.54    -88.35   
    87. D(O   7,C   6,C   5,H  19)     29.28  0.000226    0.34     29.62   
    88. D(O   7,C   6,C   5,N   4)    148.94 -0.000208    0.63    149.57   
    89. D(H  21,N   8,C   6,O   7)   -168.81 -0.000213    1.65   -167.17   
    90. D(H  21,N   8,C   6,C   5)     13.50 -0.000570    1.77     15.27   
    91. D(C   9,N   8,C   6,O   7)    -25.71 -0.000574    0.78    -24.93   
    92. D(C   9,N   8,C   6,C   5)    156.60 -0.000931    0.90    157.50   
    93. D(C  10,C   9,N   8,H  21)     30.92  0.000032   -3.03     27.89   
    94. D(C  10,C   9,N   8,C   6)   -114.93  0.000226   -2.27   -117.21   
    95. D(H  23,C   9,N   8,C   6)    126.81  0.000419   -2.46    124.35   
    96. D(H  22,C   9,N   8,H  21)    151.53  0.000200   -3.52    148.01   
    97. D(H  22,C   9,N   8,C   6)      5.68  0.000394   -2.76      2.92   
    98. D(O  12,C  10,C   9,H  22)     48.88  0.000427    0.87     49.75   
    99. D(O  12,C  10,C   9,N   8)    169.75  0.000193    0.78    170.53   
   100. D(O  11,C  10,C   9,H  23)    109.11 -0.000502    1.36    110.47   
   101. D(O  11,C  10,C   9,H  22)   -131.94 -0.000106    1.15   -130.78   
   102. D(O  11,C  10,C   9,N   8)    -11.07 -0.000340    1.06    -10.01   
    ----------------------------------------------------------------------------

Geometry step timings:
Preparation and reading OPT file:      0.000 s ( 0.755 %)
Internal coordinates            :      0.000 s ( 0.755 %)
B/P matrices and projection     :      0.001 s (40.316 %)
Hessian update/contruction      :      0.000 s (10.165 %)
Making the step                 :      0.000 s (31.662 %)
Converting the step to Cartesian:      0.000 s ( 3.365 %)
Storing new data                :      0.000 s ( 0.824 %)
Checking convergence            :      0.000 s ( 0.962 %)
Final printing                  :      0.000 s (11.195 %)
Total time                      :      0.001 s

Time for energy+gradient        :      0.023 s
Time for complete geometry iter :      0.025 s

         *************************************************************
         *                GEOMETRY OPTIMIZATION CYCLE  17            *
         *************************************************************
---------------------------------
CARTESIAN COORDINATES (ANGSTROEM)
---------------------------------
  N    -2.860058   -0.944719   -1.253196
  C    -2.161645   -0.628224    0.005768
  C    -1.266990    0.582329   -0.277784
  O    -1.105778    0.943603   -1.437276
  N    -0.742011    1.182989    0.795170
  C     0.322837    2.154450    0.671158
  C     1.655174    1.517663    0.241669
  O     2.474164    2.140292   -0.424457
  N     1.844260    0.273323    0.698140
  C     2.736896   -0.675698    0.085807
  C     1.877652   -1.891645   -0.417846
  O     0.690464   -1.902270   -0.034912
  O     2.443271   -2.729508   -1.132306
  H    -2.779712   -1.934067   -1.503372
  H    -3.845354   -0.662143   -1.236950
  H    -2.356878   -0.370505   -1.969234
  H    -1.479572   -1.438722    0.279089
  H    -2.853390   -0.429298    0.820783
  H    -0.886860    0.761970    1.701793
  H     0.065971    2.881512   -0.102957
  H     0.457690    2.671264    1.620142
  H     1.035627   -0.226220    1.066563
  H     3.264071   -0.223827   -0.755441
  H     3.470172   -1.052551    0.804492

----------------------------
CARTESIAN COORDINATES (A.U.)
----------------------------
  NO LB    ZA    FRAG    MASS        X           Y           Z
   0 N   7.0000    0    14.007   -5.404726   -1.785260   -2.368198
   1 C   6.0000    0    12.011   -4.084917   -1.187171    0.010899
   2 C   6.0000    0    12.011   -2.394264    1.100443   -0.524936
   3 O   8.0000    0    15.999   -2.089618    1.783151   -2.716058
   4 N   7.0000    0    14.007   -1.402197    2.235525    1.502653
   5 C   6.0000    0    12.011    0.610073    4.071320    1.268305
   6 C   6.0000    0    12.011    3.127826    2.867967    0.456688
   7 O   8.0000    0    15.999    4.675492    4.044566   -0.802107
   8 N   7.0000    0    14.007    3.485147    0.516506    1.319294
   9 C   6.0000    0    12.011    5.171985   -1.276885    0.162151
  10 C   6.0000    0    12.011    3.548248   -3.574691   -0.789614
  11 O   8.0000    0    15.999    1.304788   -3.594769   -0.065973
  12 O   8.0000    0    15.999    4.617112   -5.158022   -2.139749
  13 H   1.0000    0     1.008   -5.252895   -3.654856   -2.840962
  14 H   1.0000    0     1.008   -7.266665   -1.251268   -2.337497
  15 H   1.0000    0     1.008   -4.453854   -0.700153   -3.721313
  16 H   1.0000    0     1.008   -2.795986   -2.718791    0.527402
  17 H   1.0000    0     1.008   -5.392125   -0.811256    1.551056
  18 H   1.0000    0     1.008   -1.675923    1.439914    3.215923
  19 H   1.0000    0     1.008    0.124667    5.445269   -0.194561
  20 H   1.0000    0     1.008    0.864908    5.047958    3.061625
  21 H   1.0000    0     1.008    1.957052   -0.427494    2.015511
  22 H   1.0000    0     1.008    6.168199   -0.422972   -1.427577
  23 H   1.0000    0     1.008    6.557674   -1.989033    1.520269

      -----------------------------------------------------------      
     |                   =====================                   |     
     |                           x T B                           |     
     |                   =====================                   |     
     |                         S. Grimme                         |     
     |          Mulliken Center for Theoretical Chemistry        |     
     |                    University of Bonn                     |     
      -----------------------------------------------------------      

   * xtb version 6.7.1 (edcfbbe) compiled by 'albert@albert-system' on 2024-07-22

   xtb is free software: you can redistribute it and/or modify it under
   the terms of the GNU Lesser General Public License as published by
   the Free Software Foundation, either version 3 of the License, or
   (at your option) any later version.
   
   xtb is distributed in the hope that it will be useful,
   but WITHOUT ANY WARRANTY; without even the implied warranty of
   MERCHANTABILITY or FITNESS FOR A PARTICULAR PURPOSE.  See the
   GNU Lesser General Public License for more details.
   
   Cite this work as:
   * C. Bannwarth, E. Caldeweyher, S. Ehlert, A. Hansen, P. Pracht,
     J. Seibert, S. Spicher, S. Grimme, WIREs Comput. Mol. Sci., 2020, 11,
     e01493. DOI: 10.1002/wcms.1493
   
   for GFN2-xTB:
   * C. Bannwarth, S. Ehlert and S. Grimme., J. Chem. Theory Comput., 2019,
     15, 1652-1671. DOI: 10.1021/acs.jctc.8b01176
   for GFN1-xTB:
   * S. Grimme, C. Bannwarth, P. Shushkov, J. Chem. Theory Comput., 2017,
     13, 1989-2009. DOI: 10.1021/acs.jctc.7b00118
   for GFN0-xTB:
   * P. Pracht, E. Caldeweyher, S. Ehlert, S. Grimme, ChemRxiv, 2019, preprint.
     DOI: 10.26434/chemrxiv.8326202.v1
   for GFN-FF:
   * S. Spicher and S. Grimme, Angew. Chem. Int. Ed., 2020, 59, 15665-15673.
     DOI: 10.1002/anie.202004239
   
   for ALPB and GBSA implicit solvation:
   * S. Ehlert, M. Stahn, S. Spicher, S. Grimme, J. Chem. Theory Comput.,
     2021, 17, 4250-4261. DOI: 10.1021/acs.jctc.1c00471
   
   for ddCOSMO and CPCM-X implicit solvation:
   * M. Stahn, S. Ehlert, S. Grimme, J. Phys. Chem. A,
     2023, XX, XXXX-XXXX. DOI: 10.1021/acs.jpca.3c04382
   
   for DFT-D4:
   * E. Caldeweyher, C. Bannwarth and S. Grimme, J. Chem. Phys., 2017,
     147, 034112. DOI: 10.1063/1.4993215
   * E. Caldeweyher, S. Ehlert, A. Hansen, H. Neugebauer, S. Spicher,
     C. Bannwarth and S. Grimme, J. Chem. Phys., 2019, 150, 154122.
     DOI: 10.1063/1.5090222
   * E. Caldeweyher, J.-M. Mewes, S. Ehlert and S. Grimme, Phys. Chem. Chem. Phys.
     2020, 22, 8499-8512. DOI: 10.1039/D0CP00502A
   
   for sTDA-xTB:
   * S. Grimme and C. Bannwarth, J. Chem. Phys., 2016, 145, 054103.
     DOI: 10.1063/1.4959605
   
   in the mass-spec context:
   * V. Asgeirsson, C. Bauer and S. Grimme, Chem. Sci., 2017, 8, 4879.
     DOI: 10.1039/c7sc00601b
   * J. Koopman and S. Grimme, ACS Omega 2019, 4, 12, 15120-15133.
     DOI: 10.1021/acsomega.9b02011
   
   for metadynamics refer to:
   * S. Grimme, J. Chem. Theory Comput., 2019, 155, 2847-2862
     DOI: 10.1021/acs.jctc.9b00143
   
   for SPH calculations refer to:
   * S. Spicher and S. Grimme, J. Chem. Theory Comput., 2021, 17, 1701-1714
     DOI: 10.1021/acs.jctc.0c01306
   
   for ONIOM refer to:
   * C. Plett, A. Katbashev, S. Ehlert, S. Grimme, M. Bursch,
     Phys. Chem. Chem. Phys., 2023, 25, 17860-17868. DOI: 10.1039/D3CP02178E
   
   for DIPRO refer to:
   * J. Kohn, N. Gildemeister, S. Grimme, D. Fazzi, A. Hansen,
     J. Chem. Phys., 2023, just accepted.
   
   for PTB refer to:
   * S. Grimme, M. Mueller, A. Hansen, J. Chem. Phys., 2023, 158, 124111.
     DOI: 10.1063/5.0137838
   
   with help from (in alphabetical order)
   P. Atkinson, C. Bannwarth, F. Bohle, G. Brandenburg, E. Caldeweyher
   M. Checinski, S. Dohm, S. Ehlert, S. Ehrlich, I. Gerasimov, C. Hölzer
   A. Katbashev, J. Kohn, J. Koopman, C. Lavigne, S. Lehtola, F. März, M. Müller,
   F. Musil, H. Neugebauer, J. Pisarek, C. Plett, P. Pracht, F. Pultar,
   J. Seibert, P. Shushkov, S. Spicher, M. Stahn, M. Steiner, T. Strunk,
   J. Stückrath, T. Rose, and J. Unsleber
   
 * started run on 2026/04/11 at 17:16:35.842     
   ID    Z sym.   atoms
    1    7 N      1, 5, 9
    2    6 C      2, 3, 6, 7, 10, 11
    3    8 O      4, 8, 12, 13
    4    1 H      14-24

           -------------------------------------------------
          |                Calculation Setup                |
           -------------------------------------------------

          program call               : /home/analima/Programs/orca-6.1.0-f.0_linux_x86-64/bin/otool_xtb geo_opt_XTB.xyz --grad -c 0 -u 0 -P 1 --namespace geo_opt --input geo_opt_XTB.input.tmp --alpb WATER --acc 0.200000
          calculation namespace      : geo_opt
          coordinate file            : geo_opt_XTB.xyz
          omp threads                :                     1


           -------------------------------------------------
          |                 G F N 2 - x T B                 |
           -------------------------------------------------

        Reference                      10.1021/acs.jctc.8b01176
      * Hamiltonian:
        H0-scaling (s, p, d)           1.850000    2.230000    2.230000
        zeta-weighting                 0.500000
      * Dispersion:
        s8                             2.700000
        a1                             0.520000
        a2                             5.000000
        s9                             5.000000
      * Repulsion:
        kExp                           1.500000    1.000000
        rExp                           1.000000
      * Coulomb:
        alpha                          2.000000
        third order                    shell-resolved
        anisotropic                    true
        a3                             3.000000
        a5                             4.000000
        cn-shift                       1.200000
        cn-exp                         4.000000
        max-rad                        5.000000

      * Solvation model:               ALPB
        Solvent                        WATER
        Parameter file                 internal GFN2-xTB/ALPB
        Dielectric constant                8.0200E+01
        Reference state                gsolv [1 M gas/solution]
        Free energy shift                  1.0808E-03 Eh       6.7819E-01 kcal/mol
        Temperature                        2.9815E+02 K
        Density                            1.0000E+00 kg/L
        Solvent mass                       1.8000E+01 g/mol
        Interaction kernel             P16
        Born radius scaling (c1)           1.4744E+00
        Born radii integrator          GBOBC
        Born offset                        0.0000E+00 a0       0.0000E+00 AA
        H-bond correction              true
        Ion screening                  false
        Surface tension                    1.0000E-05 Eh       1.5569E+01 dyn/cm
        Grid points                               230 per atom
q/qsh data taken from xtbrestart
CAMM data taken from xtbrestart

          ...................................................
          :                      SETUP                      :
          :.................................................:
          :  # basis functions                  63          :
          :  # atomic orbitals                  63          :
          :  # shells                           37          :
          :  # electrons                        74          :
          :  max. iterations                   250          :
          :  Hamiltonian                  GFN2-xTB          :
          :  restarted?                       true          :
          :  GBSA solvation                   true          :
          :  PC potential                    false          :
          :  electronic temp.          300.0000000     K    :
          :  accuracy                    0.2000000          :
          :  -> integral cutoff          0.3198970E+02      :
          :  -> integral neglect         0.2000000E-08      :
          :  -> SCF convergence          0.2000000E-06 Eh   :
          :  -> wf. convergence          0.2000000E-04 e    :
          :  Broyden damping             0.4000000          :
          :  net charge                          0          :
          :  unpaired electrons                  0          :
          ...................................................

 iter      E             dE          RMSdq      gap      omega  full diag
   1    -43.9668537 -0.439669E+02  0.922E-02    3.80       0.0  T
   2    -43.9668574 -0.373395E-05  0.538E-02    3.80       1.0  T
   3    -43.9668577 -0.226004E-06  0.671E-03    3.80       3.0  T
   4    -43.9668581 -0.421321E-06  0.235E-03    3.80       8.7  T
   5    -43.9668581 -0.182053E-07  0.118E-03    3.80      17.3  T
   6    -43.9668581 -0.240329E-08  0.261E-04    3.80      78.1  T
   7    -43.9668581 -0.160981E-09  0.108E-04    3.80     188.5  T
   8    -43.9668581 -0.203997E-10  0.327E-05    3.80     624.4  T

   *** convergence criteria satisfied after 8 iterations ***

         #    Occupation            Energy/Eh            Energy/eV
      -------------------------------------------------------------
         1        2.0000           -0.7308807             -19.8883
       ...           ...                  ...                  ...
        31        2.0000           -0.4456411             -12.1265
        32        2.0000           -0.4309095             -11.7256
        33        2.0000           -0.4228556             -11.5065
        34        2.0000           -0.4124123             -11.2223
        35        2.0000           -0.3994498             -10.8696
        36        2.0000           -0.3971961             -10.8083
        37        2.0000           -0.3717493             -10.1158 (HOMO)
        38                         -0.2320608              -6.3147 (LUMO)
        39                         -0.2207632              -6.0073
        40                         -0.1829899              -4.9794
        41                         -0.0509074              -1.3853
        42                         -0.0055667              -0.1515
       ...                                ...                  ...
        63                          0.6410292              17.4433
      -------------------------------------------------------------
                  HL-Gap            0.1396884 Eh            3.8011 eV
             Fermi-level           -0.3019051 Eh           -8.2153 eV

 SCC (total)                   0 d,  0 h,  0 min,  0.012 sec
 SCC setup                      ...        0 min,  0.000 sec (  2.435%)
 Dispersion                     ...        0 min,  0.000 sec (  0.595%)
 classical contributions        ...        0 min,  0.000 sec (  0.132%)
 integral evaluation            ...        0 min,  0.001 sec ( 10.280%)
 iterations                     ...        0 min,  0.007 sec ( 54.769%)
 molecular gradient             ...        0 min,  0.004 sec ( 31.277%)
 printout                       ...        0 min,  0.000 sec (  0.421%)

         :::::::::::::::::::::::::::::::::::::::::::::::::::::
         ::                     SUMMARY                     ::
         :::::::::::::::::::::::::::::::::::::::::::::::::::::
         :: total energy             -43.540845314485 Eh    ::
         :: total w/o Gsasa/hb       -43.529417630604 Eh    ::
         :: gradient norm              0.003784785344 Eh/a0 ::
         :: HOMO-LUMO gap              3.801116018759 eV    ::
         ::.................................................::
         :: SCC energy               -43.966624392029 Eh    ::
         :: -> isotropic ES            0.314972397519 Eh    ::
         :: -> anisotropic ES         -0.023835439925 Eh    ::
         :: -> anisotropic XC          0.009089533344 Eh    ::
         :: -> dispersion             -0.019630191682 Eh    ::
         :: -> Gsolv                  -0.126666261044 Eh    ::
         ::    -> Gelec               -0.115238577163 Eh    ::
         ::    -> Gsasa                0.004883908792 Eh    ::
         ::    -> Ghb                 -0.017392352371 Eh    ::
         ::    -> Gshift               0.001080759698 Eh    ::
         :: repulsion energy           0.425779077544 Eh    ::
         :: add. restraining           0.000000000000 Eh    ::
         :: total charge              -0.000000000000 e     ::
         :::::::::::::::::::::::::::::::::::::::::::::::::::::


Property printout bound to 'properties.out'

           -------------------------------------------------
          | TOTAL ENERGY              -43.540845314485 Eh   |
          | GRADIENT NORM               0.003784785344 Eh/α |
          | HOMO-LUMO GAP               3.801116018759 eV   |
           -------------------------------------------------

------------------------------------------------------------------------
 * finished run on 2026/04/11 at 17:16:35.859     
------------------------------------------------------------------------
 total:
 * wall-time:     0 d,  0 h,  0 min,  0.017 sec
 *  cpu-time:     0 d,  0 h,  0 min,  0.015 sec
 * ratio c/w:     0.903 speedup
 SCF:
 * wall-time:     0 d,  0 h,  0 min,  0.012 sec
 *  cpu-time:     0 d,  0 h,  0 min,  0.011 sec
 * ratio c/w:     0.875 speedup


-------------------------   --------------------
FINAL SINGLE POINT ENERGY       -43.540845314490
-------------------------   --------------------


-------------
DIPOLE MOMENT
-------------
                                X             Y             Z
Total Dipole Moment    :     -8.84000       0.91300       1.84000
                        -----------------------------------------
Magnitude (a.u.)       :      9.07550
Magnitude (Debye)      :     23.06810


------------------
CARTESIAN GRADIENT
------------------

   1   N   :    0.000308140    0.000319630   -0.000198229
   2   C   :   -0.000089994   -0.000559230    0.000453724
   3   C   :    0.000052388   -0.000464451   -0.001561111
   4   O   :   -0.000252425   -0.000207775    0.000543360
   5   N   :   -0.000002389    0.001045804    0.000229504
   6   C   :   -0.000060161    0.000814062    0.000752725
   7   C   :    0.000834769   -0.001015018   -0.000033971
   8   O   :   -0.000132148   -0.000319848   -0.000151632
   9   N   :   -0.000034419    0.001087184   -0.000134891
  10   C   :   -0.000196430    0.000705694    0.000367602
  11   C   :   -0.000798368   -0.000656194   -0.001139132
  12   O   :    0.000631267   -0.000046469    0.000257348
  13   O   :   -0.000137078    0.000304208    0.000420559
  14   H   :    0.000359728   -0.000237460    0.000058445
  15   H   :   -0.000127226    0.000240307    0.000212087
  16   H   :   -0.000224720   -0.000086905    0.000124051
  17   H   :   -0.000092767   -0.000169209   -0.000328751
  18   H   :   -0.000098752    0.000224086   -0.000055691
  19   H   :   -0.000087604   -0.000368946    0.000040270
  20   H   :    0.000082451   -0.000248748   -0.000150808
  21   H   :   -0.000274661   -0.000260397    0.000127676
  22   H   :    0.000405060    0.000100230   -0.000124053
  23   H   :   -0.000019231   -0.000039446    0.000221827
  24   H   :   -0.000045428   -0.000161108    0.000069093

Difference to translation invariance:
           :   -0.0000000000    0.0000000000    0.0000000000

Difference to rotation invariance:
           :   -0.0001857631   -0.0005455016    0.0008347818

Norm of the Cartesian gradient     ...    0.0037847853
RMS gradient                       ...    0.0004460412
MAX gradient                       ...    0.0015611115
------------------------------------------------------------------------------
                         ORCA GEOMETRY RELAXATION STEP
------------------------------------------------------------------------------

Reading the OPT-File                    .... done
Getting information on internals        .... done
Copying old internal coords+grads       .... done
Making the new internal coordinates     .... (2022 redundants) done
Validating the new internal coordinates .... (2022 redundants) done
Calculating the B-matrix                .... done
Calculating the G,G- and P matrices     .... done
Transforming gradient to internals      .... done
Projecting the internal gradient        .... done
Number of atoms                         ....  24
Number of internal coordinates          .... 102
Current Energy                          ....   -43.540845314 Eh
Current gradient norm                   ....     0.003784785 Eh/bohr
Maximum allowed component of the step   ....  0.300
Current trust radius                    ....  0.700
Updating the Hessian (BFGS)             .... done
Forming the augmented Hessian           .... done
Diagonalizing the augmented Hessian     .... done
Last element of RFO vector              ....  0.993237249
Lowest eigenvalues of augmented Hessian:
 -0.000093904  0.002680078  0.010283125  0.011459183  0.013975135
Length of the computed step             ....  0.116892914
The final length of the internal step   ....  0.116892914
Converting the step to Cartesian space:
 Initial RMS(Int)=    0.0115741231
Transforming coordinates:
 Iter   0:  RMS(Cart)=    0.0265201080 RMS(Int)=    0.0115673910
done
Storing new coordinates                 .... done
The predicted energy change is          ....    -0.000047594
Previously predicted energy change      ....    -0.000130039
Actually observed energy change         ....    -0.000160230
Ratio of predicted to observed change   ....     1.232171842
New trust radius                        ....     0.700000000

                                .--------------------.
          ----------------------|Geometry convergence|-------------------------
          Item                value                   Tolerance       Converged
          ---------------------------------------------------------------------
          Energy change      -0.0001602304            0.0000050000      NO
          RMS gradient        0.0003077254            0.0001000000      NO
          MAX gradient        0.0012279336            0.0003000000      NO
          RMS step            0.0115741231            0.0020000000      NO
          MAX step            0.0387564463            0.0040000000      NO
          -------------------------------------------------------------------------
          ........................................................
          Max(Bonds)      0.0019      Max(Angles)    0.41
          Max(Dihed)        2.22      Max(Improp)    0.00
          ---------------------------------------------------------------------

The optimization has not yet converged - more geometry cycles are needed


    ---------------------------------------------------------------------------
                         Redundant Internal Coordinates
                            (Angstroem and degrees)

        Definition                    Value    dE/dq     Step     New-Value
    ----------------------------------------------------------------------------
     1. B(C   1,N   0)                1.4741 -0.000350  0.0003    1.4744   
     2. B(C   2,C   1)                1.5317  0.000262 -0.0005    1.5312   
     3. B(O   3,C   2)                1.2251 -0.000609  0.0008    1.2260   
     4. B(N   4,C   2)                1.3370  0.001046 -0.0014    1.3356   
     5. B(C   5,N   4)                1.4467  0.000299 -0.0002    1.4465   
     6. B(C   6,C   5)                1.5379  0.000553 -0.0015    1.5364   
     7. B(O   7,C   6)                1.2256 -0.000167  0.0002    1.2258   
     8. B(N   8,C   6)                1.3388 -0.001228  0.0012    1.3401   
     9. B(C   9,N   8)                1.4396 -0.000481  0.0002    1.4398   
    10. B(C  10,C   9)                1.5718  0.000646 -0.0010    1.5708   
    11. B(O  11,C  10)                1.2475 -0.000518  0.0005    1.2480   
    12. B(O  12,C  10)                1.2379 -0.000508  0.0004    1.2383   
    13. B(H  13,N   0)                1.0236  0.000234 -0.0002    1.0234   
    14. B(H  14,N   0)                1.0251  0.000199 -0.0002    1.0249   
    15. B(H  15,N   0)                1.0467 -0.000265  0.0007    1.0474   
    16. B(H  15,O   3)                1.8908 -0.000045 -0.0019    1.8889   
    17. B(H  16,C   1)                1.0940 -0.000018 -0.0000    1.0940   
    18. B(H  17,C   1)                1.0874  0.000067 -0.0002    1.0872   
    19. B(H  18,N   4)                1.0101  0.000204 -0.0003    1.0098   
    20. B(H  19,C   5)                1.0926 -0.000082  0.0003    1.0929   
    21. B(H  20,C   5)                1.0890 -0.000045 -0.0000    1.0890   
    22. B(H  21,N   8)                1.0194 -0.000416  0.0012    1.0206   
    23. B(H  22,C   9)                1.0908 -0.000196  0.0004    1.0912   
    24. B(H  23,C   9)                1.0937  0.000068 -0.0002    1.0935   
    25. A(H  14,N   0,H  15)          108.76 -0.000013    0.01    108.77   
    26. A(H  13,N   0,H  15)          108.98  0.000025   -0.08    108.90   
    27. A(C   1,N   0,H  13)          112.28 -0.000307    0.08    112.36   
    28. A(C   1,N   0,H  14)          112.50 -0.000316    0.09    112.58   
    29. A(H  13,N   0,H  14)          110.23  0.000380   -0.06    110.17   
    30. A(C   1,N   0,H  15)          103.81  0.000232   -0.05    103.76   
    31. A(N   0,C   1,H  17)          112.21  0.000038    0.08    112.29   
    32. A(N   0,C   1,C   2)          106.76 -0.000199    0.01    106.76   
    33. A(C   2,C   1,H  16)          105.52  0.000159    0.05    105.57   
    34. A(N   0,C   1,H  16)          110.47 -0.000096   -0.19    110.28   
    35. A(C   2,C   1,H  17)          111.45 -0.000201    0.06    111.51   
    36. A(H  16,C   1,H  17)          110.18  0.000288   -0.01    110.17   
    37. A(C   1,C   2,N   4)          115.84 -0.000352    0.23    116.07   
    38. A(C   1,C   2,O   3)          119.02  0.000083   -0.08    118.94   
    39. A(O   3,C   2,N   4)          125.12  0.000267   -0.16    124.96   
    40. A(C   2,N   4,H  18)          118.47 -0.000540    0.41    118.89   
    41. A(C   2,N   4,C   5)          121.46  0.000590   -0.20    121.26   
    42. A(C   5,N   4,H  18)          117.54 -0.000088    0.15    117.69   
    43. A(N   4,C   5,H  20)          109.58 -0.000061    0.10    109.68   
    44. A(C   6,C   5,H  19)          106.34  0.000043    0.07    106.41   
    45. A(N   4,C   5,H  19)          109.54  0.000097    0.16    109.70   
    46. A(N   4,C   5,C   6)          112.55 -0.000690    0.01    112.57   
    47. A(H  19,C   5,H  20)          109.31  0.000136   -0.15    109.17   
    48. A(C   6,C   5,H  20)          109.43  0.000497   -0.21    109.21   
    49. A(C   5,C   6,O   7)          121.36  0.000524   -0.01    121.35   
    50. A(O   7,C   6,N   8)          124.27  0.000098   -0.06    124.21   
    51. A(C   5,C   6,N   8)          114.33 -0.000616    0.06    114.39   
    52. A(C   6,N   8,C   9)          123.73 -0.000063   -0.12    123.60   
    53. A(C   9,N   8,H  21)          108.82 -0.000166   -0.13    108.68   
    54. A(C   6,N   8,H  21)          117.82  0.000105   -0.10    117.72   
    55. A(H  22,C   9,H  23)          109.00 -0.000027   -0.04    108.96   
    56. A(N   8,C   9,C  10)          107.90  0.000020   -0.14    107.76   
    57. A(C  10,C   9,H  23)          108.09 -0.000090    0.09    108.18   
    58. A(N   8,C   9,H  23)          111.31  0.000193    0.09    111.40   
    59. A(C  10,C   9,H  22)          109.73 -0.000002   -0.11    109.62   
    60. A(N   8,C   9,H  22)          110.77 -0.000095    0.10    110.87   
    61. A(O  11,C  10,O  12)          127.32  0.000187   -0.09    127.22   
    62. A(C   9,C  10,O  12)          117.31  0.000052    0.05    117.36   
    63. A(C   9,C  10,O  11)          115.37 -0.000243    0.05    115.42   
    64. D(H  16,C   1,N   0,H  15)   -102.32 -0.000095    0.13   -102.19   
    65. D(C   2,C   1,N   0,H  15)     11.93 -0.000064    0.10     12.03   
    66. D(H  16,C   1,N   0,H  13)     15.24 -0.000079    0.05     15.29   
    67. D(H  16,C   1,N   0,H  14)    140.27 -0.000062    0.10    140.37   
    68. D(C   2,C   1,N   0,H  14)   -105.48 -0.000031    0.08   -105.40   
    69. D(C   2,C   1,N   0,H  13)    129.49 -0.000048    0.03    129.52   
    70. D(N   4,C   2,C   1,H  16)    -74.68 -0.000280    0.49    -74.19   
    71. D(N   4,C   2,C   1,N   0)    167.76 -0.000153    0.68    168.44   
    72. D(O   3,C   2,C   1,H  17)   -133.65  0.000132   -0.22   -133.87   
    73. D(O   3,C   2,C   1,N   0)    -10.79 -0.000076   -0.09    -10.88   
    74. D(O   3,C   2,C   1,H  16)    106.77 -0.000203   -0.27    106.49   
    75. D(H  18,N   4,C   2,C   1)      5.79 -0.000017   -0.97      4.82   
    76. D(C   5,N   4,C   2,O   3)    -14.23 -0.000261    0.89    -13.34   
    77. D(H  18,N   4,C   2,O   3)   -175.76 -0.000103   -0.16   -175.92   
    78. D(C   5,N   4,C   2,C   1)    167.32 -0.000174    0.08    167.40   
    79. D(H  20,C   5,N   4,C   2)    168.05  0.000110    1.10    169.15   
    80. D(H  19,C   5,N   4,H  18)   -150.17 -0.000316    2.22   -147.95   
    81. D(H  19,C   5,N   4,C   2)     48.13 -0.000079    1.12     49.26   
    82. D(C   6,C   5,N   4,H  18)     91.75 -0.000004    2.01     93.75   
    83. D(C   6,C   5,N   4,C   2)    -69.95  0.000234    0.91    -69.04   
    84. D(N   8,C   6,C   5,H  19)   -152.74  0.000165    0.07   -152.68   
    85. D(N   8,C   6,C   5,N   4)    -32.79 -0.000086    0.33    -32.47   
    86. D(O   7,C   6,C   5,H  20)    -88.34 -0.000450    0.84    -87.51   
    87. D(O   7,C   6,C   5,H  19)     29.62 -0.000007    0.59     30.21   
    88. D(O   7,C   6,C   5,N   4)    149.57 -0.000259    0.85    150.42   
    89. D(H  21,N   8,C   6,O   7)   -167.18  0.000067    0.35   -166.83   
    90. D(H  21,N   8,C   6,C   5)     15.26 -0.000122    0.87     16.13   
    91. D(C   9,N   8,C   6,O   7)    -24.93 -0.000204    0.35    -24.58   
    92. D(C   9,N   8,C   6,C   5)    157.51 -0.000393    0.87    158.38   
    93. D(C  10,C   9,N   8,H  21)     27.90  0.000035   -1.89     26.00   
    94. D(C  10,C   9,N   8,C   6)   -117.21  0.000201   -1.95   -119.16   
    95. D(H  23,C   9,N   8,C   6)    124.35  0.000187   -2.02    122.33   
    96. D(H  22,C   9,N   8,H  21)    148.02 -0.000011   -2.05    145.97   
    97. D(H  22,C   9,N   8,C   6)      2.91  0.000155   -2.11      0.80   
    98. D(O  12,C  10,C   9,H  22)     49.75  0.000202    0.82     50.57   
    99. D(O  12,C  10,C   9,N   8)    170.53  0.000097    0.80    171.32   
   100. D(O  11,C  10,C   9,H  23)    110.47 -0.000191    1.21    111.68   
   101. D(O  11,C  10,C   9,H  22)   -130.79 -0.000277    1.16   -129.63   
   102. D(O  11,C  10,C   9,N   8)    -10.01 -0.000381    1.14     -8.87   
    ----------------------------------------------------------------------------

Geometry step timings:
Preparation and reading OPT file:      0.000 s ( 0.617 %)
Internal coordinates            :      0.000 s ( 0.679 %)
B/P matrices and projection     :      0.001 s (40.531 %)
Hessian update/contruction      :      0.000 s ( 9.315 %)
Making the step                 :      0.001 s (32.511 %)
Converting the step to Cartesian:      0.000 s ( 3.085 %)
Storing new data                :      0.000 s ( 0.802 %)
Checking convergence            :      0.000 s ( 0.864 %)
Final printing                  :      0.000 s (11.598 %)
Total time                      :      0.002 s

Time for energy+gradient        :      0.021 s
Time for complete geometry iter :      0.023 s

         *************************************************************
         *                GEOMETRY OPTIMIZATION CYCLE  18            *
         *************************************************************
---------------------------------
CARTESIAN COORDINATES (ANGSTROEM)
---------------------------------
  N    -2.843111   -0.947290   -1.256701
  C    -2.167785   -0.620515    0.012546
  C    -1.266011    0.585600   -0.264602
  O    -1.081726    0.934436   -1.425355
  N    -0.747003    1.189374    0.807752
  C     0.320837    2.156783    0.680497
  C     1.646361    1.517334    0.239256
  O     2.469804    2.144994   -0.416938
  N     1.831904    0.266509    0.682840
  C     2.730702   -0.674692    0.066904
  C     1.880696   -1.905206   -0.413436
  O     0.692447   -1.916996   -0.032227
  O     2.450369   -2.750797   -1.116166
  H    -2.760988   -1.938599   -1.497351
  H    -3.827623   -0.662462   -1.263413
  H    -2.323606   -0.381139   -1.968444
  H    -1.493004   -1.431227    0.302737
  H    -2.873193   -0.415062    0.813895
  H    -0.908799    0.786992    1.719633
  H     0.062591    2.892149   -0.085681
  H     0.468253    2.667516    1.630894
  H     1.019459   -0.238769    1.038137
  H     3.239200   -0.224767   -0.787363
  H     3.480223   -1.034164    0.777428

----------------------------
CARTESIAN COORDINATES (A.U.)
----------------------------
  NO LB    ZA    FRAG    MASS        X           Y           Z
   0 N   7.0000    0    14.007   -5.372701   -1.790119   -2.374821
   1 C   6.0000    0    12.011   -4.096519   -1.172604    0.023709
   2 C   6.0000    0    12.011   -2.392413    1.106625   -0.500024
   3 O   8.0000    0    15.999   -2.044165    1.765827   -2.693531
   4 N   7.0000    0    14.007   -1.411630    2.247592    1.526430
   5 C   6.0000    0    12.011    0.606293    4.075729    1.285953
   6 C   6.0000    0    12.011    3.111171    2.867346    0.452128
   7 O   8.0000    0    15.999    4.667253    4.053451   -0.787898
   8 N   7.0000    0    14.007    3.461798    0.503630    1.290380
   9 C   6.0000    0    12.011    5.160280   -1.274984    0.126430
  10 C   6.0000    0    12.011    3.554001   -3.600317   -0.781281
  11 O   8.0000    0    15.999    1.308536   -3.622597   -0.060900
  12 O   8.0000    0    15.999    4.630526   -5.198253   -2.109247
  13 H   1.0000    0     1.008   -5.217511   -3.663422   -2.829583
  14 H   1.0000    0     1.008   -7.233158   -1.251873   -2.387504
  15 H   1.0000    0     1.008   -4.390979   -0.720248   -3.719821
  16 H   1.0000    0     1.008   -2.821369   -2.704627    0.572090
  17 H   1.0000    0     1.008   -5.429549   -0.784354    1.538038
  18 H   1.0000    0     1.008   -1.717381    1.487198    3.249636
  19 H   1.0000    0     1.008    0.118281    5.465370   -0.161914
  20 H   1.0000    0     1.008    0.884869    5.040874    3.081944
  21 H   1.0000    0     1.008    1.926499   -0.451207    1.961794
  22 H   1.0000    0     1.008    6.121202   -0.424748   -1.487900
  23 H   1.0000    0     1.008    6.576668   -1.954287    1.469127

      -----------------------------------------------------------      
     |                   =====================                   |     
     |                           x T B                           |     
     |                   =====================                   |     
     |                         S. Grimme                         |     
     |          Mulliken Center for Theoretical Chemistry        |     
     |                    University of Bonn                     |     
      -----------------------------------------------------------      

   * xtb version 6.7.1 (edcfbbe) compiled by 'albert@albert-system' on 2024-07-22

   xtb is free software: you can redistribute it and/or modify it under
   the terms of the GNU Lesser General Public License as published by
   the Free Software Foundation, either version 3 of the License, or
   (at your option) any later version.
   
   xtb is distributed in the hope that it will be useful,
   but WITHOUT ANY WARRANTY; without even the implied warranty of
   MERCHANTABILITY or FITNESS FOR A PARTICULAR PURPOSE.  See the
   GNU Lesser General Public License for more details.
   
   Cite this work as:
   * C. Bannwarth, E. Caldeweyher, S. Ehlert, A. Hansen, P. Pracht,
     J. Seibert, S. Spicher, S. Grimme, WIREs Comput. Mol. Sci., 2020, 11,
     e01493. DOI: 10.1002/wcms.1493
   
   for GFN2-xTB:
   * C. Bannwarth, S. Ehlert and S. Grimme., J. Chem. Theory Comput., 2019,
     15, 1652-1671. DOI: 10.1021/acs.jctc.8b01176
   for GFN1-xTB:
   * S. Grimme, C. Bannwarth, P. Shushkov, J. Chem. Theory Comput., 2017,
     13, 1989-2009. DOI: 10.1021/acs.jctc.7b00118
   for GFN0-xTB:
   * P. Pracht, E. Caldeweyher, S. Ehlert, S. Grimme, ChemRxiv, 2019, preprint.
     DOI: 10.26434/chemrxiv.8326202.v1
   for GFN-FF:
   * S. Spicher and S. Grimme, Angew. Chem. Int. Ed., 2020, 59, 15665-15673.
     DOI: 10.1002/anie.202004239
   
   for ALPB and GBSA implicit solvation:
   * S. Ehlert, M. Stahn, S. Spicher, S. Grimme, J. Chem. Theory Comput.,
     2021, 17, 4250-4261. DOI: 10.1021/acs.jctc.1c00471
   
   for ddCOSMO and CPCM-X implicit solvation:
   * M. Stahn, S. Ehlert, S. Grimme, J. Phys. Chem. A,
     2023, XX, XXXX-XXXX. DOI: 10.1021/acs.jpca.3c04382
   
   for DFT-D4:
   * E. Caldeweyher, C. Bannwarth and S. Grimme, J. Chem. Phys., 2017,
     147, 034112. DOI: 10.1063/1.4993215
   * E. Caldeweyher, S. Ehlert, A. Hansen, H. Neugebauer, S. Spicher,
     C. Bannwarth and S. Grimme, J. Chem. Phys., 2019, 150, 154122.
     DOI: 10.1063/1.5090222
   * E. Caldeweyher, J.-M. Mewes, S. Ehlert and S. Grimme, Phys. Chem. Chem. Phys.
     2020, 22, 8499-8512. DOI: 10.1039/D0CP00502A
   
   for sTDA-xTB:
   * S. Grimme and C. Bannwarth, J. Chem. Phys., 2016, 145, 054103.
     DOI: 10.1063/1.4959605
   
   in the mass-spec context:
   * V. Asgeirsson, C. Bauer and S. Grimme, Chem. Sci., 2017, 8, 4879.
     DOI: 10.1039/c7sc00601b
   * J. Koopman and S. Grimme, ACS Omega 2019, 4, 12, 15120-15133.
     DOI: 10.1021/acsomega.9b02011
   
   for metadynamics refer to:
   * S. Grimme, J. Chem. Theory Comput., 2019, 155, 2847-2862
     DOI: 10.1021/acs.jctc.9b00143
   
   for SPH calculations refer to:
   * S. Spicher and S. Grimme, J. Chem. Theory Comput., 2021, 17, 1701-1714
     DOI: 10.1021/acs.jctc.0c01306
   
   for ONIOM refer to:
   * C. Plett, A. Katbashev, S. Ehlert, S. Grimme, M. Bursch,
     Phys. Chem. Chem. Phys., 2023, 25, 17860-17868. DOI: 10.1039/D3CP02178E
   
   for DIPRO refer to:
   * J. Kohn, N. Gildemeister, S. Grimme, D. Fazzi, A. Hansen,
     J. Chem. Phys., 2023, just accepted.
   
   for PTB refer to:
   * S. Grimme, M. Mueller, A. Hansen, J. Chem. Phys., 2023, 158, 124111.
     DOI: 10.1063/5.0137838
   
   with help from (in alphabetical order)
   P. Atkinson, C. Bannwarth, F. Bohle, G. Brandenburg, E. Caldeweyher
   M. Checinski, S. Dohm, S. Ehlert, S. Ehrlich, I. Gerasimov, C. Hölzer
   A. Katbashev, J. Kohn, J. Koopman, C. Lavigne, S. Lehtola, F. März, M. Müller,
   F. Musil, H. Neugebauer, J. Pisarek, C. Plett, P. Pracht, F. Pultar,
   J. Seibert, P. Shushkov, S. Spicher, M. Stahn, M. Steiner, T. Strunk,
   J. Stückrath, T. Rose, and J. Unsleber
   
 * started run on 2026/04/11 at 17:16:35.865     
   ID    Z sym.   atoms
    1    7 N      1, 5, 9
    2    6 C      2, 3, 6, 7, 10, 11
    3    8 O      4, 8, 12, 13
    4    1 H      14-24

           -------------------------------------------------
          |                Calculation Setup                |
           -------------------------------------------------

          program call               : /home/analima/Programs/orca-6.1.0-f.0_linux_x86-64/bin/otool_xtb geo_opt_XTB.xyz --grad -c 0 -u 0 -P 1 --namespace geo_opt --input geo_opt_XTB.input.tmp --alpb WATER --acc 0.200000
          calculation namespace      : geo_opt
          coordinate file            : geo_opt_XTB.xyz
          omp threads                :                     1


           -------------------------------------------------
          |                 G F N 2 - x T B                 |
           -------------------------------------------------

        Reference                      10.1021/acs.jctc.8b01176
      * Hamiltonian:
        H0-scaling (s, p, d)           1.850000    2.230000    2.230000
        zeta-weighting                 0.500000
      * Dispersion:
        s8                             2.700000
        a1                             0.520000
        a2                             5.000000
        s9                             5.000000
      * Repulsion:
        kExp                           1.500000    1.000000
        rExp                           1.000000
      * Coulomb:
        alpha                          2.000000
        third order                    shell-resolved
        anisotropic                    true
        a3                             3.000000
        a5                             4.000000
        cn-shift                       1.200000
        cn-exp                         4.000000
        max-rad                        5.000000

      * Solvation model:               ALPB
        Solvent                        WATER
        Parameter file                 internal GFN2-xTB/ALPB
        Dielectric constant                8.0200E+01
        Reference state                gsolv [1 M gas/solution]
        Free energy shift                  1.0808E-03 Eh       6.7819E-01 kcal/mol
        Temperature                        2.9815E+02 K
        Density                            1.0000E+00 kg/L
        Solvent mass                       1.8000E+01 g/mol
        Interaction kernel             P16
        Born radius scaling (c1)           1.4744E+00
        Born radii integrator          GBOBC
        Born offset                        0.0000E+00 a0       0.0000E+00 AA
        H-bond correction              true
        Ion screening                  false
        Surface tension                    1.0000E-05 Eh       1.5569E+01 dyn/cm
        Grid points                               230 per atom
q/qsh data taken from xtbrestart
CAMM data taken from xtbrestart

          ...................................................
          :                      SETUP                      :
          :.................................................:
          :  # basis functions                  63          :
          :  # atomic orbitals                  63          :
          :  # shells                           37          :
          :  # electrons                        74          :
          :  max. iterations                   250          :
          :  Hamiltonian                  GFN2-xTB          :
          :  restarted?                       true          :
          :  GBSA solvation                   true          :
          :  PC potential                    false          :
          :  electronic temp.          300.0000000     K    :
          :  accuracy                    0.2000000          :
          :  -> integral cutoff          0.3198970E+02      :
          :  -> integral neglect         0.2000000E-08      :
          :  -> SCF convergence          0.2000000E-06 Eh   :
          :  -> wf. convergence          0.2000000E-04 e    :
          :  Broyden damping             0.4000000          :
          :  net charge                          0          :
          :  unpaired electrons                  0          :
          ...................................................

 iter      E             dE          RMSdq      gap      omega  full diag
   1    -43.9665178 -0.439665E+02  0.721E-02    3.81       0.0  T
   2    -43.9665206 -0.273714E-05  0.420E-02    3.81       1.0  T
   3    -43.9665207 -0.106542E-06  0.563E-03    3.81       3.6  T
   4    -43.9665209 -0.213636E-06  0.170E-03    3.81      12.0  T
   5    -43.9665209 -0.129888E-07  0.887E-04    3.81      23.0  T
   6    -43.9665209 -0.132955E-08  0.181E-04    3.81     112.6  T
   7    -43.9665209 -0.711893E-10  0.742E-05    3.81     275.0  T

   *** convergence criteria satisfied after 7 iterations ***

         #    Occupation            Energy/Eh            Energy/eV
      -------------------------------------------------------------
         1        2.0000           -0.7307196             -19.8839
       ...           ...                  ...                  ...
        31        2.0000           -0.4451167             -12.1122
        32        2.0000           -0.4308972             -11.7253
        33        2.0000           -0.4219486             -11.4818
        34        2.0000           -0.4122413             -11.2177
        35        2.0000           -0.3994930             -10.8708
        36        2.0000           -0.3970957             -10.8055
        37        2.0000           -0.3720934             -10.1252 (HOMO)
        38                         -0.2320052              -6.3132 (LUMO)
        39                         -0.2206309              -6.0037
        40                         -0.1831154              -4.9828
        41                         -0.0512565              -1.3948
        42                         -0.0055177              -0.1501
       ...                                ...                  ...
        63                          0.6388246              17.3833
      -------------------------------------------------------------
                  HL-Gap            0.1400881 Eh            3.8120 eV
             Fermi-level           -0.3020493 Eh           -8.2192 eV

 SCC (total)                   0 d,  0 h,  0 min,  0.013 sec
 SCC setup                      ...        0 min,  0.000 sec (  3.418%)
 Dispersion                     ...        0 min,  0.000 sec (  0.927%)
 classical contributions        ...        0 min,  0.000 sec (  0.195%)
 integral evaluation            ...        0 min,  0.002 sec ( 17.417%)
 iterations                     ...        0 min,  0.006 sec ( 44.838%)
 molecular gradient             ...        0 min,  0.004 sec ( 32.687%)
 printout                       ...        0 min,  0.000 sec (  0.416%)

         :::::::::::::::::::::::::::::::::::::::::::::::::::::
         ::                     SUMMARY                     ::
         :::::::::::::::::::::::::::::::::::::::::::::::::::::
         :: total energy             -43.540898880450 Eh    ::
         :: total w/o Gsasa/hb       -43.529463401213 Eh    ::
         :: gradient norm              0.001957974691 Eh/a0 ::
         :: HOMO-LUMO gap              3.811991696559 eV    ::
         ::.................................................::
         :: SCC energy               -43.966286627872 Eh    ::
         :: -> isotropic ES            0.315431760128 Eh    ::
         :: -> anisotropic ES         -0.023699254574 Eh    ::
         :: -> anisotropic XC          0.009073075807 Eh    ::
         :: -> dispersion             -0.019634266863 Eh    ::
         :: -> Gsolv                  -0.126914108604 Eh    ::
         ::    -> Gelec               -0.115478629368 Eh    ::
         ::    -> Gsasa                0.004886231823 Eh    ::
         ::    -> Ghb                 -0.017402470758 Eh    ::
         ::    -> Gshift               0.001080759698 Eh    ::
         :: repulsion energy           0.425387747421 Eh    ::
         :: add. restraining           0.000000000000 Eh    ::
         :: total charge              -0.000000000000 e     ::
         :::::::::::::::::::::::::::::::::::::::::::::::::::::


Property printout bound to 'properties.out'

           -------------------------------------------------
          | TOTAL ENERGY              -43.540898880450 Eh   |
          | GRADIENT NORM               0.001957974691 Eh/α |
          | HOMO-LUMO GAP               3.811991696559 eV   |
           -------------------------------------------------

------------------------------------------------------------------------
 * finished run on 2026/04/11 at 17:16:35.885     
------------------------------------------------------------------------
 total:
 * wall-time:     0 d,  0 h,  0 min,  0.019 sec
 *  cpu-time:     0 d,  0 h,  0 min,  0.018 sec
 * ratio c/w:     0.924 speedup
 SCF:
 * wall-time:     0 d,  0 h,  0 min,  0.014 sec
 *  cpu-time:     0 d,  0 h,  0 min,  0.012 sec
 * ratio c/w:     0.899 speedup


-------------------------   --------------------
FINAL SINGLE POINT ENERGY       -43.540898880450
-------------------------   --------------------


-------------
DIPOLE MOMENT
-------------
                                X             Y             Z
Total Dipole Moment    :     -8.86400       0.97000       1.80500
                        -----------------------------------------
Magnitude (a.u.)       :      9.09777
Magnitude (Debye)      :     23.12469


------------------
CARTESIAN GRADIENT
------------------

   1   N   :    0.000060649   -0.000138299   -0.000048621
   2   C   :    0.000058062   -0.000195631    0.000506747
   3   C   :   -0.000604495    0.000236063    0.000154940
   4   O   :    0.000228219   -0.000186279    0.000037557
   5   N   :    0.000090789    0.000286225   -0.000387657
   6   C   :    0.000111057    0.000467716    0.000552592
   7   C   :   -0.000342778   -0.000171003   -0.000579450
   8   O   :    0.000135326   -0.000122617   -0.000082871
   9   N   :    0.000281997    0.000037109    0.000381463
  10   C   :    0.000230459    0.000659681    0.000247369
  11   C   :   -0.000223036   -0.000336422   -0.000304102
  12   O   :    0.000246795   -0.000024968    0.000071540
  13   O   :   -0.000117274    0.000075912    0.000006881
  14   H   :    0.000237084   -0.000039886   -0.000030170
  15   H   :    0.000023898    0.000121630    0.000125689
  16   H   :   -0.000048903   -0.000041123   -0.000152064
  17   H   :   -0.000194072   -0.000240678   -0.000412659
  18   H   :    0.000075904    0.000204123   -0.000061348
  19   H   :   -0.000101116   -0.000104813    0.000016368
  20   H   :    0.000076683   -0.000022917   -0.000077696
  21   H   :   -0.000119947   -0.000183335    0.000033795
  22   H   :   -0.000063144   -0.000052396    0.000029448
  23   H   :    0.000032576   -0.000085500   -0.000006295
  24   H   :   -0.000074731   -0.000142593   -0.000021456

Difference to translation invariance:
           :    0.0000000000    0.0000000000   -0.0000000000

Difference to rotation invariance:
           :   -0.0002463325   -0.0005241586    0.0007506975

Norm of the Cartesian gradient     ...    0.0019579747
RMS gradient                       ...    0.0002307495
MAX gradient                       ...    0.0006596811
------------------------------------------------------------------------------
                         ORCA GEOMETRY RELAXATION STEP
------------------------------------------------------------------------------

Reading the OPT-File                    .... done
Getting information on internals        .... done
Copying old internal coords+grads       .... done
Making the new internal coordinates     .... (2022 redundants) done
Validating the new internal coordinates .... (2022 redundants) done
Calculating the B-matrix                .... done
Calculating the G,G- and P matrices     .... done
Transforming gradient to internals      .... done
Projecting the internal gradient        .... done
Number of atoms                         ....  24
Number of internal coordinates          .... 102
Current Energy                          ....   -43.540898880 Eh
Current gradient norm                   ....     0.001957975 Eh/bohr
Maximum allowed component of the step   ....  0.300
Current trust radius                    ....  0.700
Updating the Hessian (BFGS)             .... done
Forming the augmented Hessian           .... done
Diagonalizing the augmented Hessian     .... done
Last element of RFO vector              ....  0.998371729
Lowest eigenvalues of augmented Hessian:
 -0.000029027  0.002433163  0.009068802  0.011338093  0.013481628
Length of the computed step             ....  0.057135920
The final length of the internal step   ....  0.057135920
Converting the step to Cartesian space:
 Initial RMS(Int)=    0.0056572991
Transforming coordinates:
 Iter   0:  RMS(Cart)=    0.0097005281 RMS(Int)=    0.0056593205
done
Storing new coordinates                 .... done
The predicted energy change is          ....    -0.000014561
Previously predicted energy change      ....    -0.000047594
Actually observed energy change         ....    -0.000053566
Ratio of predicted to observed change   ....     1.125485577
New trust radius                        ....     0.700000000

                                .--------------------.
          ----------------------|Geometry convergence|-------------------------
          Item                value                   Tolerance       Converged
          ---------------------------------------------------------------------
          Energy change      -0.0000535660            0.0000050000      NO
          RMS gradient        0.0001487687            0.0001000000      NO
          MAX gradient        0.0004631272            0.0003000000      NO
          RMS step            0.0056572991            0.0020000000      NO
          MAX step            0.0187444856            0.0040000000      NO
          -------------------------------------------------------------------------
          ........................................................
          Max(Bonds)      0.0009      Max(Angles)    0.17
          Max(Dihed)        1.07      Max(Improp)    0.00
          ---------------------------------------------------------------------

The optimization has not yet converged - more geometry cycles are needed


    ---------------------------------------------------------------------------
                         Redundant Internal Coordinates
                            (Angstroem and degrees)

        Definition                    Value    dE/dq     Step     New-Value
    ----------------------------------------------------------------------------
     1. B(C   1,N   0)                1.4744 -0.000020  0.0001    1.4745   
     2. B(C   2,C   1)                1.5312  0.000111 -0.0002    1.5311   
     3. B(O   3,C   2)                1.2260 -0.000056  0.0003    1.2262   
     4. B(N   4,C   2)                1.3356  0.000052 -0.0003    1.3353   
     5. B(C   5,N   4)                1.4465  0.000150 -0.0001    1.4464   
     6. B(C   6,C   5)                1.5364  0.000259 -0.0005    1.5359   
     7. B(O   7,C   6)                1.2258  0.000074 -0.0001    1.2257   
     8. B(N   8,C   6)                1.3401  0.000074  0.0001    1.3402   
     9. B(C   9,N   8)                1.4398 -0.000010  0.0001    1.4399   
    10. B(C  10,C   9)                1.5708  0.000365 -0.0005    1.5703   
    11. B(O  11,C  10)                1.2480 -0.000210  0.0003    1.2482   
    12. B(O  12,C  10)                1.2383 -0.000106  0.0001    1.2384   
    13. B(H  13,N   0)                1.0234  0.000056 -0.0001    1.0233   
    14. B(H  14,N   0)                1.0249  0.000016 -0.0001    1.0248   
    15. B(H  15,N   0)                1.0474  0.000052  0.0000    1.0474   
    16. B(H  15,O   3)                1.8889 -0.000009 -0.0009    1.8880   
    17. B(H  16,C   1)                1.0940 -0.000054  0.0000    1.0940   
    18. B(H  17,C   1)                1.0872 -0.000052  0.0000    1.0872   
    19. B(H  18,N   4)                1.0098  0.000075 -0.0001    1.0096   
    20. B(H  19,C   5)                1.0929  0.000017  0.0000    1.0929   
    21. B(H  20,C   5)                1.0890 -0.000071  0.0001    1.0891   
    22. B(H  21,N   8)                1.0206  0.000086  0.0002    1.0208   
    23. B(H  22,C   9)                1.0912 -0.000013  0.0001    1.0913   
    24. B(H  23,C   9)                1.0935 -0.000021 -0.0000    1.0935   
    25. A(H  14,N   0,H  15)          108.77 -0.000028    0.00    108.77   
    26. A(H  13,N   0,H  15)          108.90 -0.000105    0.01    108.92   
    27. A(C   1,N   0,H  13)          112.36 -0.000115    0.05    112.41   
    28. A(C   1,N   0,H  14)          112.58 -0.000215    0.06    112.64   
    29. A(H  13,N   0,H  14)          110.17  0.000217   -0.04    110.13   
    30. A(C   1,N   0,H  15)          103.77  0.000246   -0.09    103.68   
    31. A(N   0,C   1,H  17)          112.29  0.000144   -0.01    112.28   
    32. A(N   0,C   1,C   2)          106.77 -0.000088    0.00    106.77   
    33. A(C   2,C   1,H  16)          105.57  0.000271   -0.03    105.55   
    34. A(N   0,C   1,H  16)          110.28 -0.000350    0.05    110.33   
    35. A(C   2,C   1,H  17)          111.51 -0.000252    0.05    111.56   
    36. A(H  16,C   1,H  17)          110.17  0.000266   -0.06    110.10   
    37. A(C   1,C   2,N   4)          116.08  0.000195    0.04    116.11   
    38. A(C   1,C   2,O   3)          118.95 -0.000074   -0.01    118.94   
    39. A(O   3,C   2,N   4)          124.97 -0.000119   -0.02    124.95   
    40. A(C   2,N   4,H  18)          118.86 -0.000231    0.17    119.03   
    41. A(C   2,N   4,C   5)          121.24  0.000211   -0.12    121.12   
    42. A(C   5,N   4,H  18)          117.66  0.000013    0.01    117.67   
    43. A(N   4,C   5,H  20)          109.68 -0.000113    0.04    109.72   
    44. A(C   6,C   5,H  19)          106.41 -0.000114    0.07    106.48   
    45. A(N   4,C   5,H  19)          109.71 -0.000006    0.07    109.78   
    46. A(N   4,C   5,C   6)          112.57 -0.000052    0.03    112.60   
    47. A(H  19,C   5,H  20)          109.16  0.000123   -0.09    109.07   
    48. A(C   6,C   5,H  20)          109.21  0.000171   -0.13    109.09   
    49. A(C   5,C   6,O   7)          121.34  0.000057   -0.00    121.34   
    50. A(O   7,C   6,N   8)          124.20 -0.000383    0.06    124.26   
    51. A(C   5,C   6,N   8)          114.39  0.000320   -0.07    114.32   
    52. A(C   6,N   8,C   9)          123.71 -0.000463    0.11    123.82   
    53. A(C   9,N   8,H  21)          108.80  0.000189   -0.03    108.76   
    54. A(C   6,N   8,H  21)          117.85  0.000176    0.01    117.86   
    55. A(H  22,C   9,H  23)          108.95  0.000025   -0.03    108.93   
    56. A(N   8,C   9,C  10)          107.76 -0.000024   -0.04    107.73   
    57. A(C  10,C   9,H  23)          108.18 -0.000105    0.05    108.23   
    58. A(N   8,C   9,H  23)          111.39  0.000154   -0.01    111.39   
    59. A(C  10,C   9,H  22)          109.62 -0.000078   -0.02    109.60   
    60. A(N   8,C   9,H  22)          110.87  0.000020    0.04    110.91   
    61. A(O  11,C  10,O  12)          127.22 -0.000017    0.00    127.23   
    62. A(C   9,C  10,O  12)          117.36  0.000142   -0.00    117.35   
    63. A(C   9,C  10,O  11)          115.42 -0.000124    0.00    115.42   
    64. D(H  16,C   1,N   0,H  15)   -102.19 -0.000068    0.09   -102.10   
    65. D(C   2,C   1,N   0,H  15)     12.03  0.000029    0.09     12.12   
    66. D(H  16,C   1,N   0,H  13)     15.29 -0.000104    0.08     15.37   
    67. D(H  16,C   1,N   0,H  14)    140.37 -0.000075    0.11    140.49   
    68. D(C   2,C   1,N   0,H  14)   -105.40  0.000022    0.11   -105.29   
    69. D(C   2,C   1,N   0,H  13)    129.51 -0.000007    0.08    129.59   
    70. D(N   4,C   2,C   1,H  16)    -74.19 -0.000125    0.09    -74.11   
    71. D(N   4,C   2,C   1,N   0)    168.43  0.000187    0.05    168.48   
    72. D(O   3,C   2,C   1,H  17)   -133.87  0.000007    0.28   -133.59   
    73. D(O   3,C   2,C   1,N   0)    -10.88 -0.000030    0.30    -10.57   
    74. D(O   3,C   2,C   1,H  16)    106.50 -0.000342    0.34    106.84   
    75. D(H  18,N   4,C   2,C   1)      4.81 -0.000115   -0.14      4.68   
    76. D(C   5,N   4,C   2,O   3)    -13.33  0.000091    0.10    -13.23   
    77. D(H  18,N   4,C   2,O   3)   -175.92  0.000118   -0.41   -176.33   
    78. D(C   5,N   4,C   2,C   1)    167.40 -0.000142    0.37    167.78   
    79. D(H  20,C   5,N   4,C   2)    169.15  0.000077    0.09    169.24   
    80. D(H  19,C   5,N   4,H  18)   -147.96 -0.000069    0.65   -147.30   
    81. D(H  19,C   5,N   4,C   2)     49.25 -0.000001    0.13     49.39   
    82. D(C   6,C   5,N   4,H  18)     93.75  0.000111    0.49     94.24   
    83. D(C   6,C   5,N   4,C   2)    -69.03  0.000179   -0.03    -69.06   
    84. D(N   8,C   6,C   5,H  19)   -152.67 -0.000139    0.61   -152.06   
    85. D(N   8,C   6,C   5,N   4)    -32.46 -0.000251    0.77    -31.69   
    86. D(O   7,C   6,C   5,H  20)    -87.51 -0.000156    0.55    -86.95   
    87. D(O   7,C   6,C   5,H  19)     30.20  0.000014    0.42     30.63   
    88. D(O   7,C   6,C   5,N   4)    150.41 -0.000098    0.58    150.99   
    89. D(H  21,N   8,C   6,O   7)   -166.83 -0.000014    0.14   -166.68   
    90. D(H  21,N   8,C   6,C   5)     16.14  0.000129   -0.04     16.10   
    91. D(C   9,N   8,C   6,O   7)    -24.59 -0.000102    0.35    -24.24   
    92. D(C   9,N   8,C   6,C   5)    158.38  0.000041    0.17    158.55   
    93. D(C  10,C   9,N   8,H  21)     25.98  0.000059   -0.84     25.14   
    94. D(C  10,C   9,N   8,C   6)   -119.14  0.000118   -1.05   -120.18   
    95. D(H  23,C   9,N   8,C   6)    122.34  0.000171   -1.07    121.27   
    96. D(H  22,C   9,N   8,H  21)    145.94 -0.000040   -0.86    145.08   
    97. D(H  22,C   9,N   8,C   6)      0.83  0.000019   -1.07     -0.24   
    98. D(O  12,C  10,C   9,H  22)     50.57 -0.000056    0.60     51.17   
    99. D(O  12,C  10,C   9,N   8)    171.32 -0.000092    0.62    171.94   
   100. D(O  11,C  10,C   9,H  23)    111.69 -0.000032    0.74    112.43   
   101. D(O  11,C  10,C   9,H  22)   -129.63 -0.000108    0.73   -128.90   
   102. D(O  11,C  10,C   9,N   8)     -8.87 -0.000144    0.75     -8.13   
    ----------------------------------------------------------------------------

Geometry step timings:
Preparation and reading OPT file:      0.000 s ( 0.760 %)
Internal coordinates            :      0.000 s ( 0.760 %)
B/P matrices and projection     :      0.001 s (40.815 %)
Hessian update/contruction      :      0.000 s ( 9.876 %)
Making the step                 :      0.000 s (31.354 %)
Converting the step to Cartesian:      0.000 s ( 3.039 %)
Storing new data                :      0.000 s ( 0.760 %)
Checking convergence            :      0.000 s ( 0.898 %)
Final printing                  :      0.000 s (11.740 %)
Total time                      :      0.001 s

Time for energy+gradient        :      0.024 s
Time for complete geometry iter :      0.026 s

         *************************************************************
         *                GEOMETRY OPTIMIZATION CYCLE  19            *
         *************************************************************
---------------------------------
CARTESIAN COORDINATES (ANGSTROEM)
---------------------------------
  N    -2.840189   -0.947817   -1.256433
  C    -2.169660   -0.619032    0.015033
  C    -1.262702    0.583192   -0.261280
  O    -1.076168    0.931380   -1.422152
  N    -0.745941    1.188167    0.811119
  C     0.320184    2.157074    0.682193
  C     1.646766    1.519986    0.242500
  O     2.473539    2.151542   -0.405580
  N     1.826494    0.264526    0.675561
  C     2.728550   -0.674230    0.060533
  C     1.883000   -1.909699   -0.413376
  O     0.691621   -1.918190   -0.041086
  O     2.457867   -2.761015   -1.105059
  H    -2.761708   -1.940127   -1.493597
  H    -3.823261   -0.658659   -1.270289
  H    -2.313707   -0.386280   -1.966702
  H    -1.498580   -1.430550    0.311617
  H    -2.878351   -0.409869    0.812542
  H    -0.912531    0.792637    1.724980
  H     0.060735    2.892862   -0.083200
  H     0.468496    2.668803    1.632026
  H     1.010837   -0.242190    1.021894
  H     3.232954   -0.225340   -0.796813
  H     3.481754   -1.027171    0.770408

----------------------------
CARTESIAN COORDINATES (A.U.)
----------------------------
  NO LB    ZA    FRAG    MASS        X           Y           Z
   0 N   7.0000    0    14.007   -5.367180   -1.791115   -2.374313
   1 C   6.0000    0    12.011   -4.100064   -1.169802    0.028409
   2 C   6.0000    0    12.011   -2.386161    1.102073   -0.493747
   3 O   8.0000    0    15.999   -2.033662    1.760054   -2.687478
   4 N   7.0000    0    14.007   -1.409624    2.245309    1.532792
   5 C   6.0000    0    12.011    0.605061    4.076280    1.289158
   6 C   6.0000    0    12.011    3.111936    2.872357    0.458258
   7 O   8.0000    0    15.999    4.674311    4.065826   -0.766435
   8 N   7.0000    0    14.007    3.451573    0.499882    1.276626
   9 C   6.0000    0    12.011    5.156211   -1.274111    0.114390
  10 C   6.0000    0    12.011    3.558355   -3.608807   -0.781167
  11 O   8.0000    0    15.999    1.306974   -3.624853   -0.077641
  12 O   8.0000    0    15.999    4.644696   -5.217563   -2.088258
  13 H   1.0000    0     1.008   -5.218871   -3.666308   -2.822488
  14 H   1.0000    0     1.008   -7.224916   -1.244685   -2.400499
  15 H   1.0000    0     1.008   -4.372272   -0.729963   -3.716528
  16 H   1.0000    0     1.008   -2.831905   -2.703348    0.588870
  17 H   1.0000    0     1.008   -5.439295   -0.774539    1.535482
  18 H   1.0000    0     1.008   -1.724434    1.497867    3.259741
  19 H   1.0000    0     1.008    0.114773    5.466716   -0.157224
  20 H   1.0000    0     1.008    0.885330    5.043306    3.084082
  21 H   1.0000    0     1.008    1.910206   -0.457673    1.931101
  22 H   1.0000    0     1.008    6.109397   -0.425830   -1.505758
  23 H   1.0000    0     1.008    6.579562   -1.941072    1.455860

      -----------------------------------------------------------      
     |                   =====================                   |     
     |                           x T B                           |     
     |                   =====================                   |     
     |                         S. Grimme                         |     
     |          Mulliken Center for Theoretical Chemistry        |     
     |                    University of Bonn                     |     
      -----------------------------------------------------------      

   * xtb version 6.7.1 (edcfbbe) compiled by 'albert@albert-system' on 2024-07-22

   xtb is free software: you can redistribute it and/or modify it under
   the terms of the GNU Lesser General Public License as published by
   the Free Software Foundation, either version 3 of the License, or
   (at your option) any later version.
   
   xtb is distributed in the hope that it will be useful,
   but WITHOUT ANY WARRANTY; without even the implied warranty of
   MERCHANTABILITY or FITNESS FOR A PARTICULAR PURPOSE.  See the
   GNU Lesser General Public License for more details.
   
   Cite this work as:
   * C. Bannwarth, E. Caldeweyher, S. Ehlert, A. Hansen, P. Pracht,
     J. Seibert, S. Spicher, S. Grimme, WIREs Comput. Mol. Sci., 2020, 11,
     e01493. DOI: 10.1002/wcms.1493
   
   for GFN2-xTB:
   * C. Bannwarth, S. Ehlert and S. Grimme., J. Chem. Theory Comput., 2019,
     15, 1652-1671. DOI: 10.1021/acs.jctc.8b01176
   for GFN1-xTB:
   * S. Grimme, C. Bannwarth, P. Shushkov, J. Chem. Theory Comput., 2017,
     13, 1989-2009. DOI: 10.1021/acs.jctc.7b00118
   for GFN0-xTB:
   * P. Pracht, E. Caldeweyher, S. Ehlert, S. Grimme, ChemRxiv, 2019, preprint.
     DOI: 10.26434/chemrxiv.8326202.v1
   for GFN-FF:
   * S. Spicher and S. Grimme, Angew. Chem. Int. Ed., 2020, 59, 15665-15673.
     DOI: 10.1002/anie.202004239
   
   for ALPB and GBSA implicit solvation:
   * S. Ehlert, M. Stahn, S. Spicher, S. Grimme, J. Chem. Theory Comput.,
     2021, 17, 4250-4261. DOI: 10.1021/acs.jctc.1c00471
   
   for ddCOSMO and CPCM-X implicit solvation:
   * M. Stahn, S. Ehlert, S. Grimme, J. Phys. Chem. A,
     2023, XX, XXXX-XXXX. DOI: 10.1021/acs.jpca.3c04382
   
   for DFT-D4:
   * E. Caldeweyher, C. Bannwarth and S. Grimme, J. Chem. Phys., 2017,
     147, 034112. DOI: 10.1063/1.4993215
   * E. Caldeweyher, S. Ehlert, A. Hansen, H. Neugebauer, S. Spicher,
     C. Bannwarth and S. Grimme, J. Chem. Phys., 2019, 150, 154122.
     DOI: 10.1063/1.5090222
   * E. Caldeweyher, J.-M. Mewes, S. Ehlert and S. Grimme, Phys. Chem. Chem. Phys.
     2020, 22, 8499-8512. DOI: 10.1039/D0CP00502A
   
   for sTDA-xTB:
   * S. Grimme and C. Bannwarth, J. Chem. Phys., 2016, 145, 054103.
     DOI: 10.1063/1.4959605
   
   in the mass-spec context:
   * V. Asgeirsson, C. Bauer and S. Grimme, Chem. Sci., 2017, 8, 4879.
     DOI: 10.1039/c7sc00601b
   * J. Koopman and S. Grimme, ACS Omega 2019, 4, 12, 15120-15133.
     DOI: 10.1021/acsomega.9b02011
   
   for metadynamics refer to:
   * S. Grimme, J. Chem. Theory Comput., 2019, 155, 2847-2862
     DOI: 10.1021/acs.jctc.9b00143
   
   for SPH calculations refer to:
   * S. Spicher and S. Grimme, J. Chem. Theory Comput., 2021, 17, 1701-1714
     DOI: 10.1021/acs.jctc.0c01306
   
   for ONIOM refer to:
   * C. Plett, A. Katbashev, S. Ehlert, S. Grimme, M. Bursch,
     Phys. Chem. Chem. Phys., 2023, 25, 17860-17868. DOI: 10.1039/D3CP02178E
   
   for DIPRO refer to:
   * J. Kohn, N. Gildemeister, S. Grimme, D. Fazzi, A. Hansen,
     J. Chem. Phys., 2023, just accepted.
   
   for PTB refer to:
   * S. Grimme, M. Mueller, A. Hansen, J. Chem. Phys., 2023, 158, 124111.
     DOI: 10.1063/5.0137838
   
   with help from (in alphabetical order)
   P. Atkinson, C. Bannwarth, F. Bohle, G. Brandenburg, E. Caldeweyher
   M. Checinski, S. Dohm, S. Ehlert, S. Ehrlich, I. Gerasimov, C. Hölzer
   A. Katbashev, J. Kohn, J. Koopman, C. Lavigne, S. Lehtola, F. März, M. Müller,
   F. Musil, H. Neugebauer, J. Pisarek, C. Plett, P. Pracht, F. Pultar,
   J. Seibert, P. Shushkov, S. Spicher, M. Stahn, M. Steiner, T. Strunk,
   J. Stückrath, T. Rose, and J. Unsleber
   
 * started run on 2026/04/11 at 17:16:35.891     
   ID    Z sym.   atoms
    1    7 N      1, 5, 9
    2    6 C      2, 3, 6, 7, 10, 11
    3    8 O      4, 8, 12, 13
    4    1 H      14-24

           -------------------------------------------------
          |                Calculation Setup                |
           -------------------------------------------------

          program call               : /home/analima/Programs/orca-6.1.0-f.0_linux_x86-64/bin/otool_xtb geo_opt_XTB.xyz --grad -c 0 -u 0 -P 1 --namespace geo_opt --input geo_opt_XTB.input.tmp --alpb WATER --acc 0.200000
          calculation namespace      : geo_opt
          coordinate file            : geo_opt_XTB.xyz
          omp threads                :                     1


           -------------------------------------------------
          |                 G F N 2 - x T B                 |
           -------------------------------------------------

        Reference                      10.1021/acs.jctc.8b01176
      * Hamiltonian:
        H0-scaling (s, p, d)           1.850000    2.230000    2.230000
        zeta-weighting                 0.500000
      * Dispersion:
        s8                             2.700000
        a1                             0.520000
        a2                             5.000000
        s9                             5.000000
      * Repulsion:
        kExp                           1.500000    1.000000
        rExp                           1.000000
      * Coulomb:
        alpha                          2.000000
        third order                    shell-resolved
        anisotropic                    true
        a3                             3.000000
        a5                             4.000000
        cn-shift                       1.200000
        cn-exp                         4.000000
        max-rad                        5.000000

      * Solvation model:               ALPB
        Solvent                        WATER
        Parameter file                 internal GFN2-xTB/ALPB
        Dielectric constant                8.0200E+01
        Reference state                gsolv [1 M gas/solution]
        Free energy shift                  1.0808E-03 Eh       6.7819E-01 kcal/mol
        Temperature                        2.9815E+02 K
        Density                            1.0000E+00 kg/L
        Solvent mass                       1.8000E+01 g/mol
        Interaction kernel             P16
        Born radius scaling (c1)           1.4744E+00
        Born radii integrator          GBOBC
        Born offset                        0.0000E+00 a0       0.0000E+00 AA
        H-bond correction              true
        Ion screening                  false
        Surface tension                    1.0000E-05 Eh       1.5569E+01 dyn/cm
        Grid points                               230 per atom
q/qsh data taken from xtbrestart
CAMM data taken from xtbrestart

          ...................................................
          :                      SETUP                      :
          :.................................................:
          :  # basis functions                  63          :
          :  # atomic orbitals                  63          :
          :  # shells                           37          :
          :  # electrons                        74          :
          :  max. iterations                   250          :
          :  Hamiltonian                  GFN2-xTB          :
          :  restarted?                       true          :
          :  GBSA solvation                   true          :
          :  PC potential                    false          :
          :  electronic temp.          300.0000000     K    :
          :  accuracy                    0.2000000          :
          :  -> integral cutoff          0.3198970E+02      :
          :  -> integral neglect         0.2000000E-08      :
          :  -> SCF convergence          0.2000000E-06 Eh   :
          :  -> wf. convergence          0.2000000E-04 e    :
          :  Broyden damping             0.4000000          :
          :  net charge                          0          :
          :  unpaired electrons                  0          :
          ...................................................

 iter      E             dE          RMSdq      gap      omega  full diag
   1    -43.9665270 -0.439665E+02  0.365E-02    3.82       0.0  T
   2    -43.9665273 -0.299818E-06  0.213E-02    3.82       1.0  T
   3    -43.9665274 -0.650449E-07  0.159E-03    3.82      12.9  T
   4    -43.9665274 -0.130177E-07  0.802E-04    3.82      25.4  T
   5    -43.9665274 -0.106701E-08  0.379E-04    3.82      53.9  T
   6    -43.9665274 -0.521283E-09  0.951E-05    3.82     214.7  T
   7    -43.9665274 -0.146869E-10  0.278E-05    3.82     735.2  T

   *** convergence criteria satisfied after 7 iterations ***

         #    Occupation            Energy/Eh            Energy/eV
      -------------------------------------------------------------
         1        2.0000           -0.7306159             -19.8811
       ...           ...                  ...                  ...
        31        2.0000           -0.4449958             -12.1090
        32        2.0000           -0.4308704             -11.7246
        33        2.0000           -0.4214873             -11.4693
        34        2.0000           -0.4122065             -11.2167
        35        2.0000           -0.3994719             -10.8702
        36        2.0000           -0.3970828             -10.8052
        37        2.0000           -0.3722765             -10.1302 (HOMO)
        38                         -0.2318715              -6.3095 (LUMO)
        39                         -0.2204157              -5.9978
        40                         -0.1831931              -4.9849
        41                         -0.0513622              -1.3976
        42                         -0.0055880              -0.1521
       ...                                ...                  ...
        63                          0.6383259              17.3697
      -------------------------------------------------------------
                  HL-Gap            0.1404050 Eh            3.8206 eV
             Fermi-level           -0.3020740 Eh           -8.2199 eV

 SCC (total)                   0 d,  0 h,  0 min,  0.014 sec
 SCC setup                      ...        0 min,  0.000 sec (  2.470%)
 Dispersion                     ...        0 min,  0.000 sec (  0.714%)
 classical contributions        ...        0 min,  0.000 sec (  0.128%)
 integral evaluation            ...        0 min,  0.001 sec (  8.956%)
 iterations                     ...        0 min,  0.006 sec ( 44.119%)
 molecular gradient             ...        0 min,  0.006 sec ( 42.842%)
 printout                       ...        0 min,  0.000 sec (  0.663%)

         :::::::::::::::::::::::::::::::::::::::::::::::::::::
         ::                     SUMMARY                     ::
         :::::::::::::::::::::::::::::::::::::::::::::::::::::
         :: total energy             -43.540918828723 Eh    ::
         :: total w/o Gsasa/hb       -43.529488032949 Eh    ::
         :: gradient norm              0.001473603035 Eh/a0 ::
         :: HOMO-LUMO gap              3.820615618054 eV    ::
         ::.................................................::
         :: SCC energy               -43.966294033294 Eh    ::
         :: -> isotropic ES            0.315512516529 Eh    ::
         :: -> anisotropic ES         -0.023653464816 Eh    ::
         :: -> anisotropic XC          0.009058205064 Eh    ::
         :: -> dispersion             -0.019635750479 Eh    ::
         :: -> Gsolv                  -0.126963937219 Eh    ::
         ::    -> Gelec               -0.115533141445 Eh    ::
         ::    -> Gsasa                0.004894984838 Eh    ::
         ::    -> Ghb                 -0.017406540310 Eh    ::
         ::    -> Gshift               0.001080759698 Eh    ::
         :: repulsion energy           0.425375204571 Eh    ::
         :: add. restraining           0.000000000000 Eh    ::
         :: total charge               0.000000000000 e     ::
         :::::::::::::::::::::::::::::::::::::::::::::::::::::


Property printout bound to 'properties.out'

           -------------------------------------------------
          | TOTAL ENERGY              -43.540918828723 Eh   |
          | GRADIENT NORM               0.001473603035 Eh/α |
          | HOMO-LUMO GAP               3.820615618054 eV   |
           -------------------------------------------------

------------------------------------------------------------------------
 * finished run on 2026/04/11 at 17:16:35.913     
------------------------------------------------------------------------
 total:
 * wall-time:     0 d,  0 h,  0 min,  0.022 sec
 *  cpu-time:     0 d,  0 h,  0 min,  0.020 sec
 * ratio c/w:     0.926 speedup
 SCF:
 * wall-time:     0 d,  0 h,  0 min,  0.014 sec
 *  cpu-time:     0 d,  0 h,  0 min,  0.013 sec
 * ratio c/w:     0.908 speedup


-------------------------   --------------------
FINAL SINGLE POINT ENERGY       -43.540918828720
-------------------------   --------------------


-------------
DIPOLE MOMENT
-------------
                                X             Y             Z
Total Dipole Moment    :     -8.88000       0.98300       1.79000
                        -----------------------------------------
Magnitude (a.u.)       :      9.11179
Magnitude (Debye)      :     23.16034


------------------
CARTESIAN GRADIENT
------------------

   1   N   :   -0.000193454   -0.000235353   -0.000130411
   2   C   :    0.000007867    0.000121127    0.000414321
   3   C   :    0.000058064   -0.000112105    0.000540947
   4   O   :    0.000058962    0.000081088   -0.000246024
   5   N   :   -0.000014963   -0.000076632   -0.000285892
   6   C   :    0.000071302    0.000216200    0.000086274
   7   C   :   -0.000156768    0.000377193   -0.000257124
   8   O   :   -0.000050448   -0.000103266   -0.000168480
   9   N   :    0.000011720   -0.000275310    0.000490878
  10   C   :    0.000260491    0.000493049    0.000026825
  11   C   :    0.000083419   -0.000342235   -0.000011297
  12   O   :   -0.000055826    0.000111471    0.000023417
  13   O   :   -0.000028438    0.000030485   -0.000136689
  14   H   :    0.000149262    0.000056821   -0.000055026
  15   H   :    0.000051353    0.000060708    0.000037372
  16   H   :    0.000034611   -0.000091744   -0.000075022
  17   H   :   -0.000110706   -0.000159296   -0.000258481
  18   H   :    0.000075837    0.000101652   -0.000043665
  19   H   :   -0.000111358    0.000058264    0.000030565
  20   H   :    0.000072748    0.000092056    0.000021686
  21   H   :   -0.000008382   -0.000172178   -0.000005089
  22   H   :   -0.000113782   -0.000049716    0.000029317
  23   H   :    0.000032407   -0.000106911   -0.000027631
  24   H   :   -0.000123918   -0.000075366   -0.000000773

Difference to translation invariance:
           :    0.0000000000    0.0000000000    0.0000000000

Difference to rotation invariance:
           :   -0.0002501094   -0.0005280757    0.0006365132

Norm of the Cartesian gradient     ...    0.0014736030
RMS gradient                       ...    0.0001736658
MAX gradient                       ...    0.0005409469
------------------------------------------------------------------------------
                         ORCA GEOMETRY RELAXATION STEP
------------------------------------------------------------------------------

Reading the OPT-File                    .... done
Getting information on internals        .... done
Copying old internal coords+grads       .... done
Making the new internal coordinates     .... (2022 redundants) done
Validating the new internal coordinates .... (2022 redundants) done
Calculating the B-matrix                .... done
Calculating the G,G- and P matrices     .... done
Transforming gradient to internals      .... done
Projecting the internal gradient        .... done
Number of atoms                         ....  24
Number of internal coordinates          .... 102
Current Energy                          ....   -43.540918829 Eh
Current gradient norm                   ....     0.001473603 Eh/bohr
Maximum allowed component of the step   ....  0.300
Current trust radius                    ....  0.700
Updating the Hessian (BFGS)             .... done
Forming the augmented Hessian           .... done
Diagonalizing the augmented Hessian     .... done
Last element of RFO vector              ....  0.997799858
Lowest eigenvalues of augmented Hessian:
 -0.000026007  0.002296237  0.005991166  0.011931379  0.013432716
Length of the computed step             ....  0.066444325
The final length of the internal step   ....  0.066444325
Converting the step to Cartesian space:
 Initial RMS(Int)=    0.0065789686
Transforming coordinates:
 Iter   0:  RMS(Cart)=    0.0110513877 RMS(Int)=    0.0065807783
done
Storing new coordinates                 .... done
The predicted energy change is          ....    -0.000013061
Previously predicted energy change      ....    -0.000014561
Actually observed energy change         ....    -0.000019948
Ratio of predicted to observed change   ....     1.370007483
New trust radius                        ....     0.700000000

                                .--------------------.
          ----------------------|Geometry convergence|-------------------------
          Item                value                   Tolerance       Converged
          ---------------------------------------------------------------------
          Energy change      -0.0000199483            0.0000050000      NO
          RMS gradient        0.0001100859            0.0001000000      NO
          MAX gradient        0.0003692972            0.0003000000      NO
          RMS step            0.0065789686            0.0020000000      NO
          MAX step            0.0224622387            0.0040000000      NO
          -------------------------------------------------------------------------
          ........................................................
          Max(Bonds)      0.0017      Max(Angles)    0.16
          Max(Dihed)        1.29      Max(Improp)    0.00
          ---------------------------------------------------------------------

The optimization has not yet converged - more geometry cycles are needed


    ---------------------------------------------------------------------------
                         Redundant Internal Coordinates
                            (Angstroem and degrees)

        Definition                    Value    dE/dq     Step     New-Value
    ----------------------------------------------------------------------------
     1. B(C   1,N   0)                1.4746  0.000191 -0.0002    1.4744   
     2. B(C   2,C   1)                1.5311  0.000052 -0.0003    1.5308   
     3. B(O   3,C   2)                1.2262  0.000262  0.0001    1.2264   
     4. B(N   4,C   2)                1.3353 -0.000158 -0.0002    1.3352   
     5. B(C   5,N   4)                1.4464  0.000103 -0.0002    1.4462   
     6. B(C   6,C   5)                1.5359 -0.000113 -0.0004    1.5355   
     7. B(O   7,C   6)                1.2257  0.000003 -0.0000    1.2257   
     8. B(N   8,C   6)                1.3402  0.000350 -0.0002    1.3400   
     9. B(C   9,N   8)                1.4399  0.000110  0.0000    1.4399   
    10. B(C  10,C   9)                1.5703  0.000215 -0.0010    1.5694   
    11. B(O  11,C  10)                1.2482  0.000061  0.0003    1.2485   
    12. B(O  12,C  10)                1.2384  0.000046  0.0001    1.2385   
    13. B(H  13,N   0)                1.0233 -0.000039  0.0000    1.0233   
    14. B(H  14,N   0)                1.0248 -0.000027  0.0000    1.0248   
    15. B(H  15,N   0)                1.0474  0.000029  0.0001    1.0474   
    16. B(H  15,O   3)                1.8879  0.000022 -0.0017    1.8862   
    17. B(H  16,C   1)                1.0940 -0.000022  0.0002    1.0942   
    18. B(H  17,C   1)                1.0872 -0.000058  0.0001    1.0873   
    19. B(H  18,N   4)                1.0096  0.000026 -0.0001    1.0095   
    20. B(H  19,C   5)                1.0929  0.000025  0.0000    1.0930   
    21. B(H  20,C   5)                1.0891 -0.000084  0.0003    1.0894   
    22. B(H  21,N   8)                1.0208  0.000125  0.0001    1.0208   
    23. B(H  22,C   9)                1.0913 -0.000005  0.0001    1.0914   
    24. B(H  23,C   9)                1.0935 -0.000065  0.0001    1.0937   
    25. A(H  14,N   0,H  15)          108.77  0.000018   -0.01    108.76   
    26. A(H  13,N   0,H  15)          108.92 -0.000099    0.07    108.98   
    27. A(C   1,N   0,H  13)          112.41 -0.000017    0.06    112.47   
    28. A(C   1,N   0,H  14)          112.64 -0.000065    0.06    112.70   
    29. A(H  13,N   0,H  14)          110.12  0.000108   -0.10    110.02   
    30. A(C   1,N   0,H  15)          103.69  0.000048   -0.08    103.60   
    31. A(N   0,C   1,H  17)          112.27  0.000125   -0.03    112.24   
    32. A(N   0,C   1,C   2)          106.79 -0.000005    0.03    106.82   
    33. A(C   2,C   1,H  16)          105.55  0.000169   -0.10    105.44   
    34. A(N   0,C   1,H  16)          110.32 -0.000265    0.15    110.47   
    35. A(C   2,C   1,H  17)          111.56 -0.000140    0.08    111.64   
    36. A(H  16,C   1,H  17)          110.10  0.000110   -0.12    109.99   
    37. A(C   1,C   2,N   4)          116.11  0.000183    0.00    116.11   
    38. A(C   1,C   2,O   3)          118.94 -0.000094    0.01    118.95   
    39. A(O   3,C   2,N   4)          124.94 -0.000089   -0.01    124.94   
    40. A(C   2,N   4,H  18)          119.05 -0.000043    0.16    119.21   
    41. A(C   2,N   4,C   5)          121.14  0.000031   -0.08    121.06   
    42. A(C   5,N   4,H  18)          117.69  0.000023    0.03    117.73   
    43. A(N   4,C   5,H  20)          109.72 -0.000009    0.06    109.78   
    44. A(C   6,C   5,H  19)          106.49 -0.000040    0.07    106.56   
    45. A(N   4,C   5,H  19)          109.78  0.000139   -0.01    109.78   
    46. A(N   4,C   5,C   6)          112.60 -0.000201    0.08    112.68   
    47. A(H  19,C   5,H  20)          109.07  0.000050   -0.13    108.94   
    48. A(C   6,C   5,H  20)          109.08  0.000066   -0.09    108.99   
    49. A(C   5,C   6,O   7)          121.35  0.000070   -0.01    121.33   
    50. A(O   7,C   6,N   8)          124.27 -0.000059    0.03    124.30   
    51. A(C   5,C   6,N   8)          114.32 -0.000010   -0.01    114.32   
    52. A(C   6,N   8,C   9)          123.83 -0.000369    0.14    123.97   
    53. A(C   9,N   8,H  21)          108.78  0.000194   -0.06    108.71   
    54. A(C   6,N   8,H  21)          117.87  0.000101   -0.03    117.85   
    55. A(H  22,C   9,H  23)          108.93  0.000068   -0.05    108.88   
    56. A(N   8,C   9,C  10)          107.73 -0.000045   -0.03    107.70   
    57. A(C  10,C   9,H  23)          108.23 -0.000031    0.06    108.30   
    58. A(N   8,C   9,H  23)          111.39  0.000007   -0.03    111.36   
    59. A(C  10,C   9,H  22)          109.60 -0.000105    0.05    109.65   
    60. A(N   8,C   9,H  22)          110.91  0.000099   -0.01    110.90   
    61. A(O  11,C  10,O  12)          127.23  0.000058   -0.03    127.20   
    62. A(C   9,C  10,O  12)          117.35  0.000111   -0.01    117.34   
    63. A(C   9,C  10,O  11)          115.42 -0.000169    0.04    115.46   
    64. D(H  16,C   1,N   0,H  15)   -102.10  0.000005    0.05   -102.06   
    65. D(C   2,C   1,N   0,H  15)     12.12  0.000069    0.02     12.14   
    66. D(H  16,C   1,N   0,H  13)     15.37 -0.000092    0.11     15.49   
    67. D(H  16,C   1,N   0,H  14)    140.49 -0.000013    0.08    140.57   
    68. D(C   2,C   1,N   0,H  14)   -105.29  0.000051    0.05   -105.24   
    69. D(C   2,C   1,N   0,H  13)    129.59 -0.000029    0.09    129.68   
    70. D(N   4,C   2,C   1,H  16)    -74.10 -0.000152    0.43    -73.67   
    71. D(N   4,C   2,C   1,N   0)    168.48  0.000073    0.30    168.78   
    72. D(O   3,C   2,C   1,H  17)   -133.59  0.000031    0.21   -133.38   
    73. D(O   3,C   2,C   1,N   0)    -10.58  0.000095    0.23    -10.34   
    74. D(O   3,C   2,C   1,H  16)    106.84 -0.000129    0.37    107.21   
    75. D(H  18,N   4,C   2,C   1)      4.68  0.000007   -0.19      4.49   
    76. D(C   5,N   4,C   2,O   3)    -13.24  0.000026    0.11    -13.12   
    77. D(H  18,N   4,C   2,O   3)   -176.33 -0.000017   -0.12   -176.45   
    78. D(C   5,N   4,C   2,C   1)    167.77  0.000050    0.04    167.82   
    79. D(H  20,C   5,N   4,C   2)    169.24  0.000168   -0.61    168.63   
    80. D(H  19,C   5,N   4,H  18)   -147.30  0.000058   -0.23   -147.53   
    81. D(H  19,C   5,N   4,C   2)     49.38  0.000026   -0.48     48.90   
    82. D(C   6,C   5,N   4,H  18)     94.25  0.000142   -0.37     93.88   
    83. D(C   6,C   5,N   4,C   2)    -69.07  0.000110   -0.63    -69.69   
    84. D(N   8,C   6,C   5,H  19)   -152.06 -0.000045    0.72   -151.34   
    85. D(N   8,C   6,C   5,N   4)    -31.69 -0.000018    0.81    -30.88   
    86. D(O   7,C   6,C   5,H  20)    -86.95 -0.000142    0.80    -86.15   
    87. D(O   7,C   6,C   5,H  19)     30.63 -0.000070    0.64     31.27   
    88. D(O   7,C   6,C   5,N   4)    150.99 -0.000043    0.73    151.72   
    89. D(H  21,N   8,C   6,O   7)   -166.68  0.000093   -0.15   -166.83   
    90. D(H  21,N   8,C   6,C   5)     16.10  0.000063   -0.24     15.86   
    91. D(C   9,N   8,C   6,O   7)    -24.23  0.000041    0.12    -24.11   
    92. D(C   9,N   8,C   6,C   5)    158.55  0.000011    0.03    158.58   
    93. D(C  10,C   9,N   8,H  21)     25.14  0.000076   -0.98     24.15   
    94. D(C  10,C   9,N   8,C   6)   -120.18  0.000131   -1.24   -121.42   
    95. D(H  23,C   9,N   8,C   6)    121.27  0.000193   -1.29    119.98   
    96. D(H  22,C   9,N   8,H  21)    145.08 -0.000023   -0.94    144.13   
    97. D(H  22,C   9,N   8,C   6)     -0.24  0.000033   -1.20     -1.44   
    98. D(O  12,C  10,C   9,H  22)     51.17 -0.000165    0.76     51.93   
    99. D(O  12,C  10,C   9,N   8)    171.94 -0.000134    0.77    172.71   
   100. D(O  11,C  10,C   9,H  23)    112.43  0.000026    0.79    113.22   
   101. D(O  11,C  10,C   9,H  22)   -128.90  0.000029    0.80   -128.10   
   102. D(O  11,C  10,C   9,N   8)     -8.13  0.000061    0.81     -7.32   
    ----------------------------------------------------------------------------

Geometry step timings:
Preparation and reading OPT file:      0.000 s ( 0.679 %)
Internal coordinates            :      0.000 s ( 0.679 %)
B/P matrices and projection     :      0.001 s (38.927 %)
Hessian update/contruction      :      0.000 s ( 9.715 %)
Making the step                 :      0.000 s (30.910 %)
Converting the step to Cartesian:      0.000 s ( 3.057 %)
Storing new data                :      0.000 s ( 0.747 %)
Checking convergence            :      0.000 s ( 0.883 %)
Final printing                  :      0.000 s (14.334 %)
Total time                      :      0.001 s

Time for energy+gradient        :      0.027 s
Time for complete geometry iter :      0.029 s

         *************************************************************
         *                GEOMETRY OPTIMIZATION CYCLE  20            *
         *************************************************************
---------------------------------
CARTESIAN COORDINATES (ANGSTROEM)
---------------------------------
  N    -2.842035   -0.944891   -1.257543
  C    -2.171153   -0.617947    0.013963
  C    -1.266286    0.585934   -0.259894
  O    -1.084377    0.939880   -1.419897
  N    -0.744801    1.185257    0.813185
  C     0.319364    2.155659    0.681942
  C     1.648226    1.521896    0.245883
  O     2.479080    2.158593   -0.391811
  N     1.823924    0.262556    0.668681
  C     2.728927   -0.674183    0.054791
  C     1.889071   -1.917385   -0.405673
  O     0.695332   -1.923962   -0.039977
  O     2.469477   -2.776760   -1.082781
  H    -2.764019   -1.936628   -1.497252
  H    -3.825444   -0.656863   -1.271392
  H    -2.315725   -0.380617   -1.965911
  H    -1.497363   -1.427526    0.310373
  H    -2.880091   -0.413319    0.812577
  H    -0.907936    0.788217    1.726871
  H     0.057997    2.889727   -0.084460
  H     0.466826    2.671544    1.630012
  H     1.006164   -0.245583    1.008084
  H     3.226054   -0.227199   -0.807942
  H     3.488790   -1.016399    0.763010

----------------------------
CARTESIAN COORDINATES (A.U.)
----------------------------
  NO LB    ZA    FRAG    MASS        X           Y           Z
   0 N   7.0000    0    14.007   -5.370667   -1.785586   -2.376411
   1 C   6.0000    0    12.011   -4.102884   -1.167751    0.026386
   2 C   6.0000    0    12.011   -2.392934    1.107255   -0.491128
   3 O   8.0000    0    15.999   -2.049176    1.776116   -2.683216
   4 N   7.0000    0    14.007   -1.407470    2.239811    1.536696
   5 C   6.0000    0    12.011    0.603510    4.073605    1.288684
   6 C   6.0000    0    12.011    3.114696    2.875967    0.464652
   7 O   8.0000    0    15.999    4.684783    4.079149   -0.740415
   8 N   7.0000    0    14.007    3.446717    0.496159    1.263625
   9 C   6.0000    0    12.011    5.156925   -1.274020    0.103541
  10 C   6.0000    0    12.011    3.569826   -3.623332   -0.766610
  11 O   8.0000    0    15.999    1.313987   -3.635761   -0.075546
  12 O   8.0000    0    15.999    4.666635   -5.247317   -2.046159
  13 H   1.0000    0     1.008   -5.223239   -3.659696   -2.829397
  14 H   1.0000    0     1.008   -7.229042   -1.241292   -2.402582
  15 H   1.0000    0     1.008   -4.376087   -0.719262   -3.715033
  16 H   1.0000    0     1.008   -2.829607   -2.697633    0.586519
  17 H   1.0000    0     1.008   -5.442583   -0.781059    1.535548
  18 H   1.0000    0     1.008   -1.715751    1.489514    3.263313
  19 H   1.0000    0     1.008    0.109598    5.460792   -0.159606
  20 H   1.0000    0     1.008    0.882173    5.048486    3.080277
  21 H   1.0000    0     1.008    1.901374   -0.464085    1.905003
  22 H   1.0000    0     1.008    6.096358   -0.429344   -1.526789
  23 H   1.0000    0     1.008    6.592857   -1.920716    1.441880

      -----------------------------------------------------------      
     |                   =====================                   |     
     |                           x T B                           |     
     |                   =====================                   |     
     |                         S. Grimme                         |     
     |          Mulliken Center for Theoretical Chemistry        |     
     |                    University of Bonn                     |     
      -----------------------------------------------------------      

   * xtb version 6.7.1 (edcfbbe) compiled by 'albert@albert-system' on 2024-07-22

   xtb is free software: you can redistribute it and/or modify it under
   the terms of the GNU Lesser General Public License as published by
   the Free Software Foundation, either version 3 of the License, or
   (at your option) any later version.
   
   xtb is distributed in the hope that it will be useful,
   but WITHOUT ANY WARRANTY; without even the implied warranty of
   MERCHANTABILITY or FITNESS FOR A PARTICULAR PURPOSE.  See the
   GNU Lesser General Public License for more details.
   
   Cite this work as:
   * C. Bannwarth, E. Caldeweyher, S. Ehlert, A. Hansen, P. Pracht,
     J. Seibert, S. Spicher, S. Grimme, WIREs Comput. Mol. Sci., 2020, 11,
     e01493. DOI: 10.1002/wcms.1493
   
   for GFN2-xTB:
   * C. Bannwarth, S. Ehlert and S. Grimme., J. Chem. Theory Comput., 2019,
     15, 1652-1671. DOI: 10.1021/acs.jctc.8b01176
   for GFN1-xTB:
   * S. Grimme, C. Bannwarth, P. Shushkov, J. Chem. Theory Comput., 2017,
     13, 1989-2009. DOI: 10.1021/acs.jctc.7b00118
   for GFN0-xTB:
   * P. Pracht, E. Caldeweyher, S. Ehlert, S. Grimme, ChemRxiv, 2019, preprint.
     DOI: 10.26434/chemrxiv.8326202.v1
   for GFN-FF:
   * S. Spicher and S. Grimme, Angew. Chem. Int. Ed., 2020, 59, 15665-15673.
     DOI: 10.1002/anie.202004239
   
   for ALPB and GBSA implicit solvation:
   * S. Ehlert, M. Stahn, S. Spicher, S. Grimme, J. Chem. Theory Comput.,
     2021, 17, 4250-4261. DOI: 10.1021/acs.jctc.1c00471
   
   for ddCOSMO and CPCM-X implicit solvation:
   * M. Stahn, S. Ehlert, S. Grimme, J. Phys. Chem. A,
     2023, XX, XXXX-XXXX. DOI: 10.1021/acs.jpca.3c04382
   
   for DFT-D4:
   * E. Caldeweyher, C. Bannwarth and S. Grimme, J. Chem. Phys., 2017,
     147, 034112. DOI: 10.1063/1.4993215
   * E. Caldeweyher, S. Ehlert, A. Hansen, H. Neugebauer, S. Spicher,
     C. Bannwarth and S. Grimme, J. Chem. Phys., 2019, 150, 154122.
     DOI: 10.1063/1.5090222
   * E. Caldeweyher, J.-M. Mewes, S. Ehlert and S. Grimme, Phys. Chem. Chem. Phys.
     2020, 22, 8499-8512. DOI: 10.1039/D0CP00502A
   
   for sTDA-xTB:
   * S. Grimme and C. Bannwarth, J. Chem. Phys., 2016, 145, 054103.
     DOI: 10.1063/1.4959605
   
   in the mass-spec context:
   * V. Asgeirsson, C. Bauer and S. Grimme, Chem. Sci., 2017, 8, 4879.
     DOI: 10.1039/c7sc00601b
   * J. Koopman and S. Grimme, ACS Omega 2019, 4, 12, 15120-15133.
     DOI: 10.1021/acsomega.9b02011
   
   for metadynamics refer to:
   * S. Grimme, J. Chem. Theory Comput., 2019, 155, 2847-2862
     DOI: 10.1021/acs.jctc.9b00143
   
   for SPH calculations refer to:
   * S. Spicher and S. Grimme, J. Chem. Theory Comput., 2021, 17, 1701-1714
     DOI: 10.1021/acs.jctc.0c01306
   
   for ONIOM refer to:
   * C. Plett, A. Katbashev, S. Ehlert, S. Grimme, M. Bursch,
     Phys. Chem. Chem. Phys., 2023, 25, 17860-17868. DOI: 10.1039/D3CP02178E
   
   for DIPRO refer to:
   * J. Kohn, N. Gildemeister, S. Grimme, D. Fazzi, A. Hansen,
     J. Chem. Phys., 2023, just accepted.
   
   for PTB refer to:
   * S. Grimme, M. Mueller, A. Hansen, J. Chem. Phys., 2023, 158, 124111.
     DOI: 10.1063/5.0137838
   
   with help from (in alphabetical order)
   P. Atkinson, C. Bannwarth, F. Bohle, G. Brandenburg, E. Caldeweyher
   M. Checinski, S. Dohm, S. Ehlert, S. Ehrlich, I. Gerasimov, C. Hölzer
   A. Katbashev, J. Kohn, J. Koopman, C. Lavigne, S. Lehtola, F. März, M. Müller,
   F. Musil, H. Neugebauer, J. Pisarek, C. Plett, P. Pracht, F. Pultar,
   J. Seibert, P. Shushkov, S. Spicher, M. Stahn, M. Steiner, T. Strunk,
   J. Stückrath, T. Rose, and J. Unsleber
   
 * started run on 2026/04/11 at 17:16:35.920     
   ID    Z sym.   atoms
    1    7 N      1, 5, 9
    2    6 C      2, 3, 6, 7, 10, 11
    3    8 O      4, 8, 12, 13
    4    1 H      14-24

           -------------------------------------------------
          |                Calculation Setup                |
           -------------------------------------------------

          program call               : /home/analima/Programs/orca-6.1.0-f.0_linux_x86-64/bin/otool_xtb geo_opt_XTB.xyz --grad -c 0 -u 0 -P 1 --namespace geo_opt --input geo_opt_XTB.input.tmp --alpb WATER --acc 0.200000
          calculation namespace      : geo_opt
          coordinate file            : geo_opt_XTB.xyz
          omp threads                :                     1


           -------------------------------------------------
          |                 G F N 2 - x T B                 |
           -------------------------------------------------

        Reference                      10.1021/acs.jctc.8b01176
      * Hamiltonian:
        H0-scaling (s, p, d)           1.850000    2.230000    2.230000
        zeta-weighting                 0.500000
      * Dispersion:
        s8                             2.700000
        a1                             0.520000
        a2                             5.000000
        s9                             5.000000
      * Repulsion:
        kExp                           1.500000    1.000000
        rExp                           1.000000
      * Coulomb:
        alpha                          2.000000
        third order                    shell-resolved
        anisotropic                    true
        a3                             3.000000
        a5                             4.000000
        cn-shift                       1.200000
        cn-exp                         4.000000
        max-rad                        5.000000

      * Solvation model:               ALPB
        Solvent                        WATER
        Parameter file                 internal GFN2-xTB/ALPB
        Dielectric constant                8.0200E+01
        Reference state                gsolv [1 M gas/solution]
        Free energy shift                  1.0808E-03 Eh       6.7819E-01 kcal/mol
        Temperature                        2.9815E+02 K
        Density                            1.0000E+00 kg/L
        Solvent mass                       1.8000E+01 g/mol
        Interaction kernel             P16
        Born radius scaling (c1)           1.4744E+00
        Born radii integrator          GBOBC
        Born offset                        0.0000E+00 a0       0.0000E+00 AA
        H-bond correction              true
        Ion screening                  false
        Surface tension                    1.0000E-05 Eh       1.5569E+01 dyn/cm
        Grid points                               230 per atom
q/qsh data taken from xtbrestart
CAMM data taken from xtbrestart

          ...................................................
          :                      SETUP                      :
          :.................................................:
          :  # basis functions                  63          :
          :  # atomic orbitals                  63          :
          :  # shells                           37          :
          :  # electrons                        74          :
          :  max. iterations                   250          :
          :  Hamiltonian                  GFN2-xTB          :
          :  restarted?                       true          :
          :  GBSA solvation                   true          :
          :  PC potential                    false          :
          :  electronic temp.          300.0000000     K    :
          :  accuracy                    0.2000000          :
          :  -> integral cutoff          0.3198970E+02      :
          :  -> integral neglect         0.2000000E-08      :
          :  -> SCF convergence          0.2000000E-06 Eh   :
          :  -> wf. convergence          0.2000000E-04 e    :
          :  Broyden damping             0.4000000          :
          :  net charge                          0          :
          :  unpaired electrons                  0          :
          ...................................................

 iter      E             dE          RMSdq      gap      omega  full diag
   1    -43.9665593 -0.439666E+02  0.442E-02    3.83       0.0  T
   2    -43.9665595 -0.202786E-06  0.258E-02    3.83       1.0  T
   3    -43.9665596 -0.662919E-07  0.157E-03    3.83      13.0  T
   4    -43.9665596 -0.177230E-07  0.840E-04    3.83      24.3  T
   5    -43.9665596 -0.105420E-08  0.335E-04    3.83      61.0  T
   6    -43.9665596 -0.356557E-09  0.864E-05    3.83     236.2  T
   7    -43.9665596 -0.157030E-10  0.239E-05    3.83     854.0  T

   *** convergence criteria satisfied after 7 iterations ***

         #    Occupation            Energy/Eh            Energy/eV
      -------------------------------------------------------------
         1        2.0000           -0.7306882             -19.8830
       ...           ...                  ...                  ...
        31        2.0000           -0.4451702             -12.1137
        32        2.0000           -0.4309521             -11.7268
        33        2.0000           -0.4210207             -11.4566
        34        2.0000           -0.4122171             -11.2170
        35        2.0000           -0.3994542             -10.8697
        36        2.0000           -0.3970697             -10.8048
        37        2.0000           -0.3726007             -10.1390 (HOMO)
        38                         -0.2318704              -6.3095 (LUMO)
        39                         -0.2202423              -5.9931
        40                         -0.1833604              -4.9895
        41                         -0.0513370              -1.3970
        42                         -0.0055464              -0.1509
       ...                                ...                  ...
        63                          0.6375713              17.3492
      -------------------------------------------------------------
                  HL-Gap            0.1407303 Eh            3.8295 eV
             Fermi-level           -0.3022356 Eh           -8.2242 eV

 SCC (total)                   0 d,  0 h,  0 min,  0.010 sec
 SCC setup                      ...        0 min,  0.000 sec (  3.572%)
 Dispersion                     ...        0 min,  0.000 sec (  1.093%)
 classical contributions        ...        0 min,  0.000 sec (  0.220%)
 integral evaluation            ...        0 min,  0.002 sec ( 15.455%)
 iterations                     ...        0 min,  0.004 sec ( 43.998%)
 molecular gradient             ...        0 min,  0.004 sec ( 35.154%)
 printout                       ...        0 min,  0.000 sec (  0.412%)

         :::::::::::::::::::::::::::::::::::::::::::::::::::::
         ::                     SUMMARY                     ::
         :::::::::::::::::::::::::::::::::::::::::::::::::::::
         :: total energy             -43.540937171077 Eh    ::
         :: total w/o Gsasa/hb       -43.529524597859 Eh    ::
         :: gradient norm              0.001687921520 Eh/a0 ::
         :: HOMO-LUMO gap              3.829465615549 eV    ::
         ::.................................................::
         :: SCC energy               -43.966326854367 Eh    ::
         :: -> isotropic ES            0.315418517606 Eh    ::
         :: -> anisotropic ES         -0.023564237281 Eh    ::
         :: -> anisotropic XC          0.009031876581 Eh    ::
         :: -> dispersion             -0.019608503460 Eh    ::
         :: -> Gsolv                  -0.126894383814 Eh    ::
         ::    -> Gelec               -0.115481810595 Eh    ::
         ::    -> Gsasa                0.004916804414 Eh    ::
         ::    -> Ghb                 -0.017410137331 Eh    ::
         ::    -> Gshift               0.001080759698 Eh    ::
         :: repulsion energy           0.425389683290 Eh    ::
         :: add. restraining           0.000000000000 Eh    ::
         :: total charge               0.000000000000 e     ::
         :::::::::::::::::::::::::::::::::::::::::::::::::::::


Property printout bound to 'properties.out'

           -------------------------------------------------
          | TOTAL ENERGY              -43.540937171077 Eh   |
          | GRADIENT NORM               0.001687921520 Eh/α |
          | HOMO-LUMO GAP               3.829465615549 eV   |
           -------------------------------------------------

------------------------------------------------------------------------
 * finished run on 2026/04/11 at 17:16:35.936     
------------------------------------------------------------------------
 total:
 * wall-time:     0 d,  0 h,  0 min,  0.016 sec
 *  cpu-time:     0 d,  0 h,  0 min,  0.014 sec
 * ratio c/w:     0.906 speedup
 SCF:
 * wall-time:     0 d,  0 h,  0 min,  0.010 sec
 *  cpu-time:     0 d,  0 h,  0 min,  0.009 sec
 * ratio c/w:     0.864 speedup


-------------------------   --------------------
FINAL SINGLE POINT ENERGY       -43.540937171080
-------------------------   --------------------


-------------
DIPOLE MOMENT
-------------
                                X             Y             Z
Total Dipole Moment    :     -8.89800       0.99700       1.74500
                        -----------------------------------------
Magnitude (a.u.)       :      9.12214
Magnitude (Debye)      :     23.18664


------------------
CARTESIAN GRADIENT
------------------

   1   N   :   -0.000283535   -0.000161282   -0.000035165
   2   C   :    0.000050426    0.000307121    0.000057861
   3   C   :    0.000208211   -0.000187309    0.000636946
   4   O   :    0.000026435    0.000177925   -0.000382521
   5   N   :   -0.000102043   -0.000405877   -0.000096059
   6   C   :    0.000085896   -0.000189149   -0.000400373
   7   C   :   -0.000155655    0.000645588   -0.000072701
   8   O   :   -0.000157167   -0.000107757   -0.000097721
   9   N   :   -0.000001769   -0.000422697    0.000532996
  10   C   :    0.000138235    0.000040578   -0.000354215
  11   C   :    0.000368223   -0.000061999    0.000226924
  12   O   :   -0.000304166    0.000075096   -0.000005571
  13   O   :    0.000019999   -0.000026629   -0.000175067
  14   H   :    0.000009708    0.000068170   -0.000079054
  15   H   :    0.000034250   -0.000045049   -0.000066289
  16   H   :    0.000116893   -0.000047596    0.000030042
  17   H   :    0.000046896    0.000010943   -0.000004972
  18   H   :    0.000017090   -0.000028338   -0.000019842
  19   H   :   -0.000064479    0.000162094    0.000020910
  20   H   :    0.000024366    0.000188797    0.000142797
  21   H   :    0.000073528   -0.000047475    0.000013603
  22   H   :   -0.000057338    0.000060962    0.000044164
  23   H   :    0.000026665   -0.000036146   -0.000003413
  24   H   :   -0.000120672    0.000030028    0.000086722

Difference to translation invariance:
           :   -0.0000000000   -0.0000000000   -0.0000000000

Difference to rotation invariance:
           :   -0.0002343968   -0.0005163902    0.0006532127

Norm of the Cartesian gradient     ...    0.0016879215
RMS gradient                       ...    0.0001989235
MAX gradient                       ...    0.0006455883
------------------------------------------------------------------------------
                         ORCA GEOMETRY RELAXATION STEP
------------------------------------------------------------------------------

Reading the OPT-File                    .... done
Getting information on internals        .... done
Copying old internal coords+grads       .... done
Making the new internal coordinates     .... (2022 redundants) done
Validating the new internal coordinates .... (2022 redundants) done
Calculating the B-matrix                .... done
Calculating the G,G- and P matrices     .... done
Transforming gradient to internals      .... done
Projecting the internal gradient        .... done
Number of atoms                         ....  24
Number of internal coordinates          .... 102
Current Energy                          ....   -43.540937171 Eh
Current gradient norm                   ....     0.001687922 Eh/bohr
Maximum allowed component of the step   ....  0.300
Current trust radius                    ....  0.700
Updating the Hessian (BFGS)             .... done
Forming the augmented Hessian           .... done
Diagonalizing the augmented Hessian     .... done
Last element of RFO vector              ....  0.997063456
Lowest eigenvalues of augmented Hessian:
 -0.000021342  0.001923048  0.004005293  0.011894332  0.013619207
Length of the computed step             ....  0.076805335
The final length of the internal step   ....  0.076805335
Converting the step to Cartesian space:
 Initial RMS(Int)=    0.0076048614
Transforming coordinates:
 Iter   0:  RMS(Cart)=    0.0132884318 RMS(Int)=    0.0076117039
done
Storing new coordinates                 .... done
The predicted energy change is          ....    -0.000010734
Previously predicted energy change      ....    -0.000013061
Actually observed energy change         ....    -0.000018342
Ratio of predicted to observed change   ....     1.404392199
New trust radius                        ....     0.700000000

                                .--------------------.
          ----------------------|Geometry convergence|-------------------------
          Item                value                   Tolerance       Converged
          ---------------------------------------------------------------------
          Energy change      -0.0000183424            0.0000050000      NO
          RMS gradient        0.0001161279            0.0001000000      NO
          MAX gradient        0.0004552259            0.0003000000      NO
          RMS step            0.0076048614            0.0020000000      NO
          MAX step            0.0245336484            0.0040000000      NO
          -------------------------------------------------------------------------
          ........................................................
          Max(Bonds)      0.0018      Max(Angles)    0.22
          Max(Dihed)        1.41      Max(Improp)    0.00
          ---------------------------------------------------------------------

The optimization has not yet converged - more geometry cycles are needed


    ---------------------------------------------------------------------------
                         Redundant Internal Coordinates
                            (Angstroem and degrees)

        Definition                    Value    dE/dq     Step     New-Value
    ----------------------------------------------------------------------------
     1. B(C   1,N   0)                1.4743  0.000214 -0.0004    1.4740   
     2. B(C   2,C   1)                1.5307 -0.000112 -0.0000    1.5307   
     3. B(O   3,C   2)                1.2264  0.000415 -0.0002    1.2261   
     4. B(N   4,C   2)                1.3352 -0.000280  0.0002    1.3353   
     5. B(C   5,N   4)                1.4462  0.000043 -0.0003    1.4458   
     6. B(C   6,C   5)                1.5355 -0.000320  0.0002    1.5357   
     7. B(O   7,C   6)                1.2257 -0.000111  0.0001    1.2258   
     8. B(N   8,C   6)                1.3400  0.000455 -0.0007    1.3393   
     9. B(C   9,N   8)                1.4399  0.000185 -0.0003    1.4396   
    10. B(C  10,C   9)                1.5694 -0.000029 -0.0006    1.5688   
    11. B(O  11,C  10)                1.2485  0.000291  0.0000    1.2486   
    12. B(O  12,C  10)                1.2385  0.000127 -0.0000    1.2385   
    13. B(H  13,N   0)                1.0233 -0.000055  0.0001    1.0233   
    14. B(H  14,N   0)                1.0248 -0.000039  0.0001    1.0249   
    15. B(H  15,N   0)                1.0475  0.000012  0.0002    1.0476   
    16. B(H  15,O   3)                1.8863 -0.000000 -0.0018    1.8845   
    17. B(H  16,C   1)                1.0942  0.000017  0.0001    1.0943   
    18. B(H  17,C   1)                1.0873 -0.000027  0.0001    1.0875   
    19. B(H  18,N   4)                1.0095 -0.000032 -0.0000    1.0095   
    20. B(H  19,C   5)                1.0930  0.000017 -0.0000    1.0929   
    21. B(H  20,C   5)                1.0894  0.000001  0.0002    1.0896   
    22. B(H  21,N   8)                1.0208  0.000030  0.0001    1.0209   
    23. B(H  22,C   9)                1.0914  0.000002  0.0001    1.0916   
    24. B(H  23,C   9)                1.0937 -0.000040  0.0002    1.0938   
    25. A(H  14,N   0,H  15)          108.76  0.000045   -0.02    108.74   
    26. A(H  13,N   0,H  15)          108.99 -0.000049    0.10    109.09   
    27. A(C   1,N   0,H  13)          112.47  0.000090    0.04    112.51   
    28. A(C   1,N   0,H  14)          112.70  0.000113    0.02    112.72   
    29. A(H  13,N   0,H  14)          110.02 -0.000056   -0.07    109.95   
    30. A(C   1,N   0,H  15)          103.60 -0.000153   -0.06    103.54   
    31. A(N   0,C   1,H  17)          112.24  0.000008   -0.04    112.20   
    32. A(N   0,C   1,C   2)          106.80  0.000074   -0.00    106.80   
    33. A(C   2,C   1,H  16)          105.45 -0.000040   -0.05    105.39   
    34. A(N   0,C   1,H  16)          110.47 -0.000043    0.15    110.62   
    35. A(C   2,C   1,H  17)          111.64  0.000027    0.06    111.70   
    36. A(H  16,C   1,H  17)          109.98 -0.000026   -0.10    109.88   
    37. A(C   1,C   2,N   4)          116.11  0.000127   -0.03    116.08   
    38. A(C   1,C   2,O   3)          118.94 -0.000030    0.00    118.94   
    39. A(O   3,C   2,N   4)          124.94 -0.000097    0.03    124.97   
    40. A(C   2,N   4,H  18)          119.19  0.000199    0.08    119.27   
    41. A(C   2,N   4,C   5)          121.04 -0.000275   -0.02    121.02   
    42. A(C   5,N   4,H  18)          117.71  0.000089   -0.02    117.69   
    43. A(N   4,C   5,H  20)          109.78  0.000070    0.04    109.82   
    44. A(C   6,C   5,H  19)          106.56  0.000047    0.04    106.60   
    45. A(N   4,C   5,H  19)          109.78  0.000087   -0.03    109.74   
    46. A(N   4,C   5,C   6)          112.68 -0.000096    0.08    112.76   
    47. A(H  19,C   5,H  20)          108.94 -0.000036   -0.08    108.86   
    48. A(C   6,C   5,H  20)          108.99 -0.000073   -0.05    108.95   
    49. A(C   5,C   6,O   7)          121.33  0.000026   -0.02    121.31   
    50. A(O   7,C   6,N   8)          124.30  0.000034    0.04    124.34   
    51. A(C   5,C   6,N   8)          114.32 -0.000059   -0.02    114.29   
    52. A(C   6,N   8,C   9)          124.01 -0.000220    0.22    124.23   
    53. A(C   9,N   8,H  21)          108.75  0.000181   -0.06    108.69   
    54. A(C   6,N   8,H  21)          117.88 -0.000002    0.03    117.91   
    55. A(H  22,C   9,H  23)          108.88  0.000093   -0.06    108.82   
    56. A(N   8,C   9,C  10)          107.70  0.000033   -0.04    107.66   
    57. A(C  10,C   9,H  23)          108.30  0.000035    0.06    108.35   
    58. A(N   8,C   9,H  23)          111.36 -0.000173    0.03    111.39   
    59. A(C  10,C   9,H  22)          109.65 -0.000049    0.04    109.68   
    60. A(N   8,C   9,H  22)          110.91  0.000060   -0.02    110.89   
    61. A(O  11,C  10,O  12)          127.20  0.000003   -0.00    127.20   
    62. A(C   9,C  10,O  12)          117.34  0.000035   -0.02    117.32   
    63. A(C   9,C  10,O  11)          115.46 -0.000039    0.02    115.48   
    64. D(H  16,C   1,N   0,H  15)   -102.05  0.000069   -0.02   -102.08   
    65. D(C   2,C   1,N   0,H  15)     12.14  0.000041   -0.02     12.12   
    66. D(H  16,C   1,N   0,H  13)     15.49 -0.000035    0.08     15.56   
    67. D(H  16,C   1,N   0,H  14)    140.57  0.000052    0.03    140.60   
    68. D(C   2,C   1,N   0,H  14)   -105.24  0.000024    0.04   -105.21   
    69. D(C   2,C   1,N   0,H  13)    129.67 -0.000063    0.08    129.76   
    70. D(N   4,C   2,C   1,H  16)    -73.67 -0.000005    0.22    -73.45   
    71. D(N   4,C   2,C   1,N   0)    168.78  0.000029    0.08    168.86   
    72. D(O   3,C   2,C   1,H  17)   -133.38  0.000009    0.06   -133.32   
    73. D(O   3,C   2,C   1,N   0)    -10.34  0.000084    0.04    -10.30   
    74. D(O   3,C   2,C   1,H  16)    107.21  0.000050    0.18    107.39   
    75. D(H  18,N   4,C   2,C   1)      4.49  0.000029   -0.12      4.37   
    76. D(C   5,N   4,C   2,O   3)    -13.12  0.000038   -0.11    -13.23   
    77. D(H  18,N   4,C   2,O   3)   -176.45 -0.000030   -0.08   -176.52   
    78. D(C   5,N   4,C   2,C   1)    167.82  0.000096   -0.15    167.67   
    79. D(H  20,C   5,N   4,C   2)    168.63  0.000107   -0.78    167.85   
    80. D(H  19,C   5,N   4,H  18)   -147.53  0.000140   -0.70   -148.23   
    81. D(H  19,C   5,N   4,C   2)     48.90  0.000055   -0.68     48.22   
    82. D(C   6,C   5,N   4,H  18)     93.88  0.000084   -0.77     93.10   
    83. D(C   6,C   5,N   4,C   2)    -69.69 -0.000001   -0.75    -70.44   
    84. D(N   8,C   6,C   5,H  19)   -151.34 -0.000091    1.11   -150.23   
    85. D(N   8,C   6,C   5,N   4)    -30.88 -0.000010    1.13    -29.75   
    86. D(O   7,C   6,C   5,H  20)    -86.15 -0.000086    1.13    -85.02   
    87. D(O   7,C   6,C   5,H  19)     31.27 -0.000140    1.03     32.30   
    88. D(O   7,C   6,C   5,N   4)    151.72 -0.000059    1.05    152.78   
    89. D(H  21,N   8,C   6,O   7)   -166.83  0.000040   -0.11   -166.94   
    90. D(H  21,N   8,C   6,C   5)     15.86 -0.000010   -0.19     15.67   
    91. D(C   9,N   8,C   6,O   7)    -24.12  0.000036    0.24    -23.88   
    92. D(C   9,N   8,C   6,C   5)    158.57 -0.000014    0.16    158.73   
    93. D(C  10,C   9,N   8,H  21)     24.14  0.000019   -1.01     23.14   
    94. D(C  10,C   9,N   8,C   6)   -121.42  0.000065   -1.34   -122.76   
    95. D(H  23,C   9,N   8,C   6)    119.98  0.000102   -1.41    118.58   
    96. D(H  22,C   9,N   8,H  21)    144.13  0.000015   -1.00    143.13   
    97. D(H  22,C   9,N   8,C   6)     -1.43  0.000061   -1.33     -2.77   
    98. D(O  12,C  10,C   9,H  22)     51.93 -0.000173    0.80     52.73   
    99. D(O  12,C  10,C   9,N   8)    172.71 -0.000109    0.77    173.48   
   100. D(O  11,C  10,C   9,H  23)    113.22 -0.000003    0.70    113.93   
   101. D(O  11,C  10,C   9,H  22)   -128.10  0.000101    0.69   -127.41   
   102. D(O  11,C  10,C   9,N   8)     -7.32  0.000165    0.66     -6.66   
    ----------------------------------------------------------------------------

Geometry step timings:
Preparation and reading OPT file:      0.000 s ( 0.821 %)
Internal coordinates            :      0.000 s ( 0.767 %)
B/P matrices and projection     :      0.001 s (38.992 %)
Hessian update/contruction      :      0.000 s (10.022 %)
Making the step                 :      0.001 s (31.380 %)
Converting the step to Cartesian:      0.000 s ( 3.505 %)
Storing new data                :      0.000 s ( 0.931 %)
Checking convergence            :      0.000 s ( 0.931 %)
Final printing                  :      0.000 s (12.651 %)
Total time                      :      0.002 s

Time for energy+gradient        :      0.021 s
Time for complete geometry iter :      0.023 s

         *************************************************************
         *                GEOMETRY OPTIMIZATION CYCLE  21            *
         *************************************************************
---------------------------------
CARTESIAN COORDINATES (ANGSTROEM)
---------------------------------
  N    -2.846503   -0.941747   -1.256105
  C    -2.169869   -0.618649    0.012863
  C    -1.270380    0.589302   -0.260587
  O    -1.096699    0.949378   -1.419731
  N    -0.743742    1.184132    0.812706
  C     0.318723    2.155644    0.679605
  C     1.651313    1.523890    0.251281
  O     2.490141    2.166164   -0.370357
  N     1.818740    0.259844    0.660978
  C     2.729073   -0.674827    0.052534
  C     1.895909   -1.924411   -0.400825
  O     0.698827   -1.929265   -0.046061
  O     2.484818   -2.791387   -1.060650
  H    -2.768262   -1.932311   -1.500751
  H    -3.830806   -0.656322   -1.263766
  H    -2.325326   -0.371838   -1.964006
  H    -1.491219   -1.426122    0.304301
  H    -2.875694   -0.420713    0.816106
  H    -0.900814    0.783258    1.725739
  H     0.057227    2.885399   -0.090818
  H     0.462487    2.677837    1.625053
  H     0.996530   -0.249642    0.987670
  H     3.223813   -0.229256   -0.812487
  H     3.491714   -1.008359    0.762147

----------------------------
CARTESIAN COORDINATES (A.U.)
----------------------------
  NO LB    ZA    FRAG    MASS        X           Y           Z
   0 N   7.0000    0    14.007   -5.379112   -1.779643   -2.373694
   1 C   6.0000    0    12.011   -4.100458   -1.169077    0.024308
   2 C   6.0000    0    12.011   -2.400670    1.113619   -0.492438
   3 O   8.0000    0    15.999   -2.072461    1.794064   -2.682902
   4 N   7.0000    0    14.007   -1.405469    2.237686    1.535792
   5 C   6.0000    0    12.011    0.602299    4.073577    1.284267
   6 C   6.0000    0    12.011    3.120530    2.879735    0.474852
   7 O   8.0000    0    15.999    4.705684    4.093456   -0.699873
   8 N   7.0000    0    14.007    3.436920    0.491034    1.249067
   9 C   6.0000    0    12.011    5.157201   -1.275238    0.099275
  10 C   6.0000    0    12.011    3.582748   -3.636610   -0.757449
  11 O   8.0000    0    15.999    1.320591   -3.645782   -0.087042
  12 O   8.0000    0    15.999    4.695626   -5.274956   -2.004337
  13 H   1.0000    0     1.008   -5.231257   -3.651539   -2.836008
  14 H   1.0000    0     1.008   -7.239173   -1.240269   -2.388172
  15 H   1.0000    0     1.008   -4.394230   -0.702671   -3.711433
  16 H   1.0000    0     1.008   -2.817996   -2.694979    0.575045
  17 H   1.0000    0     1.008   -5.434274   -0.795033    1.542216
  18 H   1.0000    0     1.008   -1.702291    1.480143    3.261175
  19 H   1.0000    0     1.008    0.108143    5.452614   -0.171621
  20 H   1.0000    0     1.008    0.873974    5.060379    3.070906
  21 H   1.0000    0     1.008    1.883169   -0.471756    1.866426
  22 H   1.0000    0     1.008    6.092123   -0.433231   -1.535378
  23 H   1.0000    0     1.008    6.598384   -1.905522    1.440250

      -----------------------------------------------------------      
     |                   =====================                   |     
     |                           x T B                           |     
     |                   =====================                   |     
     |                         S. Grimme                         |     
     |          Mulliken Center for Theoretical Chemistry        |     
     |                    University of Bonn                     |     
      -----------------------------------------------------------      

   * xtb version 6.7.1 (edcfbbe) compiled by 'albert@albert-system' on 2024-07-22

   xtb is free software: you can redistribute it and/or modify it under
   the terms of the GNU Lesser General Public License as published by
   the Free Software Foundation, either version 3 of the License, or
   (at your option) any later version.
   
   xtb is distributed in the hope that it will be useful,
   but WITHOUT ANY WARRANTY; without even the implied warranty of
   MERCHANTABILITY or FITNESS FOR A PARTICULAR PURPOSE.  See the
   GNU Lesser General Public License for more details.
   
   Cite this work as:
   * C. Bannwarth, E. Caldeweyher, S. Ehlert, A. Hansen, P. Pracht,
     J. Seibert, S. Spicher, S. Grimme, WIREs Comput. Mol. Sci., 2020, 11,
     e01493. DOI: 10.1002/wcms.1493
   
   for GFN2-xTB:
   * C. Bannwarth, S. Ehlert and S. Grimme., J. Chem. Theory Comput., 2019,
     15, 1652-1671. DOI: 10.1021/acs.jctc.8b01176
   for GFN1-xTB:
   * S. Grimme, C. Bannwarth, P. Shushkov, J. Chem. Theory Comput., 2017,
     13, 1989-2009. DOI: 10.1021/acs.jctc.7b00118
   for GFN0-xTB:
   * P. Pracht, E. Caldeweyher, S. Ehlert, S. Grimme, ChemRxiv, 2019, preprint.
     DOI: 10.26434/chemrxiv.8326202.v1
   for GFN-FF:
   * S. Spicher and S. Grimme, Angew. Chem. Int. Ed., 2020, 59, 15665-15673.
     DOI: 10.1002/anie.202004239
   
   for ALPB and GBSA implicit solvation:
   * S. Ehlert, M. Stahn, S. Spicher, S. Grimme, J. Chem. Theory Comput.,
     2021, 17, 4250-4261. DOI: 10.1021/acs.jctc.1c00471
   
   for ddCOSMO and CPCM-X implicit solvation:
   * M. Stahn, S. Ehlert, S. Grimme, J. Phys. Chem. A,
     2023, XX, XXXX-XXXX. DOI: 10.1021/acs.jpca.3c04382
   
   for DFT-D4:
   * E. Caldeweyher, C. Bannwarth and S. Grimme, J. Chem. Phys., 2017,
     147, 034112. DOI: 10.1063/1.4993215
   * E. Caldeweyher, S. Ehlert, A. Hansen, H. Neugebauer, S. Spicher,
     C. Bannwarth and S. Grimme, J. Chem. Phys., 2019, 150, 154122.
     DOI: 10.1063/1.5090222
   * E. Caldeweyher, J.-M. Mewes, S. Ehlert and S. Grimme, Phys. Chem. Chem. Phys.
     2020, 22, 8499-8512. DOI: 10.1039/D0CP00502A
   
   for sTDA-xTB:
   * S. Grimme and C. Bannwarth, J. Chem. Phys., 2016, 145, 054103.
     DOI: 10.1063/1.4959605
   
   in the mass-spec context:
   * V. Asgeirsson, C. Bauer and S. Grimme, Chem. Sci., 2017, 8, 4879.
     DOI: 10.1039/c7sc00601b
   * J. Koopman and S. Grimme, ACS Omega 2019, 4, 12, 15120-15133.
     DOI: 10.1021/acsomega.9b02011
   
   for metadynamics refer to:
   * S. Grimme, J. Chem. Theory Comput., 2019, 155, 2847-2862
     DOI: 10.1021/acs.jctc.9b00143
   
   for SPH calculations refer to:
   * S. Spicher and S. Grimme, J. Chem. Theory Comput., 2021, 17, 1701-1714
     DOI: 10.1021/acs.jctc.0c01306
   
   for ONIOM refer to:
   * C. Plett, A. Katbashev, S. Ehlert, S. Grimme, M. Bursch,
     Phys. Chem. Chem. Phys., 2023, 25, 17860-17868. DOI: 10.1039/D3CP02178E
   
   for DIPRO refer to:
   * J. Kohn, N. Gildemeister, S. Grimme, D. Fazzi, A. Hansen,
     J. Chem. Phys., 2023, just accepted.
   
   for PTB refer to:
   * S. Grimme, M. Mueller, A. Hansen, J. Chem. Phys., 2023, 158, 124111.
     DOI: 10.1063/5.0137838
   
   with help from (in alphabetical order)
   P. Atkinson, C. Bannwarth, F. Bohle, G. Brandenburg, E. Caldeweyher
   M. Checinski, S. Dohm, S. Ehlert, S. Ehrlich, I. Gerasimov, C. Hölzer
   A. Katbashev, J. Kohn, J. Koopman, C. Lavigne, S. Lehtola, F. März, M. Müller,
   F. Musil, H. Neugebauer, J. Pisarek, C. Plett, P. Pracht, F. Pultar,
   J. Seibert, P. Shushkov, S. Spicher, M. Stahn, M. Steiner, T. Strunk,
   J. Stückrath, T. Rose, and J. Unsleber
   
 * started run on 2026/04/11 at 17:16:35.943     
   ID    Z sym.   atoms
    1    7 N      1, 5, 9
    2    6 C      2, 3, 6, 7, 10, 11
    3    8 O      4, 8, 12, 13
    4    1 H      14-24

           -------------------------------------------------
          |                Calculation Setup                |
           -------------------------------------------------

          program call               : /home/analima/Programs/orca-6.1.0-f.0_linux_x86-64/bin/otool_xtb geo_opt_XTB.xyz --grad -c 0 -u 0 -P 1 --namespace geo_opt --input geo_opt_XTB.input.tmp --alpb WATER --acc 0.200000
          calculation namespace      : geo_opt
          coordinate file            : geo_opt_XTB.xyz
          omp threads                :                     1


           -------------------------------------------------
          |                 G F N 2 - x T B                 |
           -------------------------------------------------

        Reference                      10.1021/acs.jctc.8b01176
      * Hamiltonian:
        H0-scaling (s, p, d)           1.850000    2.230000    2.230000
        zeta-weighting                 0.500000
      * Dispersion:
        s8                             2.700000
        a1                             0.520000
        a2                             5.000000
        s9                             5.000000
      * Repulsion:
        kExp                           1.500000    1.000000
        rExp                           1.000000
      * Coulomb:
        alpha                          2.000000
        third order                    shell-resolved
        anisotropic                    true
        a3                             3.000000
        a5                             4.000000
        cn-shift                       1.200000
        cn-exp                         4.000000
        max-rad                        5.000000

      * Solvation model:               ALPB
        Solvent                        WATER
        Parameter file                 internal GFN2-xTB/ALPB
        Dielectric constant                8.0200E+01
        Reference state                gsolv [1 M gas/solution]
        Free energy shift                  1.0808E-03 Eh       6.7819E-01 kcal/mol
        Temperature                        2.9815E+02 K
        Density                            1.0000E+00 kg/L
        Solvent mass                       1.8000E+01 g/mol
        Interaction kernel             P16
        Born radius scaling (c1)           1.4744E+00
        Born radii integrator          GBOBC
        Born offset                        0.0000E+00 a0       0.0000E+00 AA
        H-bond correction              true
        Ion screening                  false
        Surface tension                    1.0000E-05 Eh       1.5569E+01 dyn/cm
        Grid points                               230 per atom
q/qsh data taken from xtbrestart
CAMM data taken from xtbrestart

          ...................................................
          :                      SETUP                      :
          :.................................................:
          :  # basis functions                  63          :
          :  # atomic orbitals                  63          :
          :  # shells                           37          :
          :  # electrons                        74          :
          :  max. iterations                   250          :
          :  Hamiltonian                  GFN2-xTB          :
          :  restarted?                       true          :
          :  GBSA solvation                   true          :
          :  PC potential                    false          :
          :  electronic temp.          300.0000000     K    :
          :  accuracy                    0.2000000          :
          :  -> integral cutoff          0.3198970E+02      :
          :  -> integral neglect         0.2000000E-08      :
          :  -> SCF convergence          0.2000000E-06 Eh   :
          :  -> wf. convergence          0.2000000E-04 e    :
          :  Broyden damping             0.4000000          :
          :  net charge                          0          :
          :  unpaired electrons                  0          :
          ...................................................

 iter      E             dE          RMSdq      gap      omega  full diag
   1    -43.9666640 -0.439667E+02  0.533E-02    3.84       0.0  T
   2    -43.9666644 -0.430995E-06  0.311E-02    3.84       1.0  T
   3    -43.9666645 -0.995846E-07  0.217E-03    3.84       9.4  T
   4    -43.9666646 -0.405311E-07  0.107E-03    3.84      19.1  T
   5    -43.9666646 -0.266852E-08  0.553E-04    3.84      36.9  T
   6    -43.9666646 -0.740862E-09  0.116E-04    3.84     176.0  T
   7    -43.9666646 -0.360814E-10  0.323E-05    3.84     631.2  T

   *** convergence criteria satisfied after 7 iterations ***

         #    Occupation            Energy/Eh            Energy/eV
      -------------------------------------------------------------
         1        2.0000           -0.7308797             -19.8882
       ...           ...                  ...                  ...
        31        2.0000           -0.4454815             -12.1222
        32        2.0000           -0.4310934             -11.7306
        33        2.0000           -0.4205818             -11.4446
        34        2.0000           -0.4123142             -11.2196
        35        2.0000           -0.3994818             -10.8705
        36        2.0000           -0.3970888             -10.8053
        37        2.0000           -0.3729323             -10.1480 (HOMO)
        38                         -0.2319378              -6.3113 (LUMO)
        39                         -0.2199796              -5.9859
        40                         -0.1834962              -4.9932
        41                         -0.0511280              -1.3913
        42                         -0.0055018              -0.1497
       ...                                ...                  ...
        63                          0.6375338              17.3482
      -------------------------------------------------------------
                  HL-Gap            0.1409945 Eh            3.8367 eV
             Fermi-level           -0.3024350 Eh           -8.2297 eV

 SCC (total)                   0 d,  0 h,  0 min,  0.010 sec
 SCC setup                      ...        0 min,  0.000 sec (  4.029%)
 Dispersion                     ...        0 min,  0.000 sec (  0.717%)
 classical contributions        ...        0 min,  0.000 sec (  0.148%)
 integral evaluation            ...        0 min,  0.001 sec ( 12.084%)
 iterations                     ...        0 min,  0.005 sec ( 47.714%)
 molecular gradient             ...        0 min,  0.004 sec ( 34.778%)
 printout                       ...        0 min,  0.000 sec (  0.412%)

         :::::::::::::::::::::::::::::::::::::::::::::::::::::
         ::                     SUMMARY                     ::
         :::::::::::::::::::::::::::::::::::::::::::::::::::::
         :: total energy             -43.540952522239 Eh    ::
         :: total w/o Gsasa/hb       -43.529569330278 Eh    ::
         :: gradient norm              0.001616427086 Eh/a0 ::
         :: HOMO-LUMO gap              3.836655519710 eV    ::
         ::.................................................::
         :: SCC energy               -43.966433082562 Eh    ::
         :: -> isotropic ES            0.315188013037 Eh    ::
         :: -> anisotropic ES         -0.023506734784 Eh    ::
         :: -> anisotropic XC          0.009013573429 Eh    ::
         :: -> dispersion             -0.019578347667 Eh    ::
         :: -> Gsolv                  -0.126788631571 Eh    ::
         ::    -> Gelec               -0.115405439609 Eh    ::
         ::    -> Gsasa                0.004941136394 Eh    ::
         ::    -> Ghb                 -0.017405088054 Eh    ::
         ::    -> Gshift               0.001080759698 Eh    ::
         :: repulsion energy           0.425480560323 Eh    ::
         :: add. restraining           0.000000000000 Eh    ::
         :: total charge              -0.000000000000 e     ::
         :::::::::::::::::::::::::::::::::::::::::::::::::::::


Property printout bound to 'properties.out'

           -------------------------------------------------
          | TOTAL ENERGY              -43.540952522239 Eh   |
          | GRADIENT NORM               0.001616427086 Eh/α |
          | HOMO-LUMO GAP               3.836655519710 eV   |
           -------------------------------------------------

------------------------------------------------------------------------
 * finished run on 2026/04/11 at 17:16:35.960     
------------------------------------------------------------------------
 total:
 * wall-time:     0 d,  0 h,  0 min,  0.016 sec
 *  cpu-time:     0 d,  0 h,  0 min,  0.015 sec
 * ratio c/w:     0.908 speedup
 SCF:
 * wall-time:     0 d,  0 h,  0 min,  0.010 sec
 *  cpu-time:     0 d,  0 h,  0 min,  0.009 sec
 * ratio c/w:     0.873 speedup


-------------------------   --------------------
FINAL SINGLE POINT ENERGY       -43.540952522240
-------------------------   --------------------


-------------
DIPOLE MOMENT
-------------
                                X             Y             Z
Total Dipole Moment    :     -8.92500       1.00400       1.69900
                        -----------------------------------------
Magnitude (a.u.)       :      9.14058
Magnitude (Debye)      :     23.23351


------------------
CARTESIAN GRADIENT
------------------

   1   N   :   -0.000233625   -0.000069636    0.000129242
   2   C   :    0.000111570    0.000227806   -0.000311020
   3   C   :    0.000327184   -0.000126245    0.000188604
   4   O   :   -0.000053326    0.000108940   -0.000208954
   5   N   :   -0.000090337   -0.000502764    0.000139325
   6   C   :   -0.000019333   -0.000406402   -0.000601345
   7   C   :   -0.000028960    0.000465264    0.000092445
   8   O   :   -0.000145342   -0.000080396   -0.000089406
   9   N   :   -0.000007247   -0.000302423    0.000339133
  10   C   :   -0.000065655   -0.000317471   -0.000392101
  11   C   :    0.000254160    0.000225753    0.000138161
  12   O   :   -0.000259020    0.000030305   -0.000005676
  13   O   :    0.000092183   -0.000069505   -0.000061037
  14   H   :   -0.000095772    0.000020966   -0.000059148
  15   H   :    0.000001660   -0.000092516   -0.000117176
  16   H   :    0.000156233    0.000093150    0.000102325
  17   H   :    0.000146319    0.000148939    0.000221598
  18   H   :   -0.000068031   -0.000120951    0.000001442
  19   H   :   -0.000018687    0.000210108    0.000028742
  20   H   :   -0.000025366    0.000210775    0.000208334
  21   H   :    0.000091721    0.000031878    0.000059263
  22   H   :    0.000001874    0.000173552    0.000022141
  23   H   :   -0.000021592    0.000046628    0.000028512
  24   H   :   -0.000050608    0.000094244    0.000146595

Difference to translation invariance:
           :   -0.0000000000    0.0000000000    0.0000000000

Difference to rotation invariance:
           :   -0.0002248974   -0.0005491150    0.0007035787

Norm of the Cartesian gradient     ...    0.0016164271
RMS gradient                       ...    0.0001904978
MAX gradient                       ...    0.0006013446
------------------------------------------------------------------------------
                         ORCA GEOMETRY RELAXATION STEP
------------------------------------------------------------------------------

Reading the OPT-File                    .... done
Getting information on internals        .... done
Copying old internal coords+grads       .... done
Making the new internal coordinates     .... (2022 redundants) done
Validating the new internal coordinates .... (2022 redundants) done
Calculating the B-matrix                .... done
Calculating the G,G- and P matrices     .... done
Transforming gradient to internals      .... done
Projecting the internal gradient        .... done
Number of atoms                         ....  24
Number of internal coordinates          .... 102
Current Energy                          ....   -43.540952522 Eh
Current gradient norm                   ....     0.001616427 Eh/bohr
Maximum allowed component of the step   ....  0.300
Current trust radius                    ....  0.700
Updating the Hessian (BFGS)             .... done
Forming the augmented Hessian           .... done
Diagonalizing the augmented Hessian     .... done
Last element of RFO vector              ....  0.996140059
Lowest eigenvalues of augmented Hessian:
 -0.000019886  0.001480094  0.003068117  0.011760218  0.013352041
Length of the computed step             ....  0.088118166
The final length of the internal step   ....  0.088118166
Converting the step to Cartesian space:
 Initial RMS(Int)=    0.0087249985
Transforming coordinates:
 Iter   0:  RMS(Cart)=    0.0174063904 RMS(Int)=    0.0087316285
done
Storing new coordinates                 .... done
The predicted energy change is          ....    -0.000010020
Previously predicted energy change      ....    -0.000010734
Actually observed energy change         ....    -0.000015351
Ratio of predicted to observed change   ....     1.430159592
New trust radius                        ....     0.700000000

                                .--------------------.
          ----------------------|Geometry convergence|-------------------------
          Item                value                   Tolerance       Converged
          ---------------------------------------------------------------------
          Energy change      -0.0000153512            0.0000050000      NO
          RMS gradient        0.0001324040            0.0001000000      NO
          MAX gradient        0.0004354264            0.0003000000      NO
          RMS step            0.0087249985            0.0020000000      NO
          MAX step            0.0245118020            0.0040000000      NO
          -------------------------------------------------------------------------
          ........................................................
          Max(Bonds)      0.0007      Max(Angles)    0.19
          Max(Dihed)        1.40      Max(Improp)    0.00
          ---------------------------------------------------------------------

The optimization has not yet converged - more geometry cycles are needed


    ---------------------------------------------------------------------------
                         Redundant Internal Coordinates
                            (Angstroem and degrees)

        Definition                    Value    dE/dq     Step     New-Value
    ----------------------------------------------------------------------------
     1. B(C   1,N   0)                1.4739  0.000064 -0.0003    1.4736   
     2. B(C   2,C   1)                1.5307 -0.000150  0.0002    1.5309   
     3. B(O   3,C   2)                1.2261  0.000221 -0.0003    1.2259   
     4. B(N   4,C   2)                1.3353 -0.000199  0.0003    1.3356   
     5. B(C   5,N   4)                1.4458 -0.000075 -0.0003    1.4456   
     6. B(C   6,C   5)                1.5357 -0.000345  0.0006    1.5363   
     7. B(O   7,C   6)                1.2258 -0.000095  0.0001    1.2259   
     8. B(N   8,C   6)                1.3393  0.000188 -0.0007    1.3386   
     9. B(C   9,N   8)                1.4396  0.000046 -0.0003    1.4394   
    10. B(C  10,C   9)                1.5688 -0.000195 -0.0001    1.5687   
    11. B(O  11,C  10)                1.2486  0.000249 -0.0000    1.2485   
    12. B(O  12,C  10)                1.2385  0.000129 -0.0001    1.2383   
    13. B(H  13,N   0)                1.0233 -0.000022  0.0000    1.0234   
    14. B(H  14,N   0)                1.0249 -0.000020  0.0001    1.0250   
    15. B(H  15,N   0)                1.0476  0.000031  0.0001    1.0478   
    16. B(H  15,O   3)                1.8845 -0.000052 -0.0006    1.8839   
    17. B(H  16,C   1)                1.0943  0.000037  0.0001    1.0944   
    18. B(H  17,C   1)                1.0875  0.000027  0.0001    1.0875   
    19. B(H  18,N   4)                1.0095 -0.000053  0.0001    1.0095   
    20. B(H  19,C   5)                1.0929 -0.000004  0.0000    1.0929   
    21. B(H  20,C   5)                1.0896  0.000081  0.0001    1.0897   
    22. B(H  21,N   8)                1.0209 -0.000081  0.0003    1.0212   
    23. B(H  22,C   9)                1.0916 -0.000011  0.0002    1.0918   
    24. B(H  23,C   9)                1.0938  0.000028  0.0001    1.0939   
    25. A(H  14,N   0,H  15)          108.74  0.000039   -0.03    108.71   
    26. A(H  13,N   0,H  15)          109.09  0.000046    0.09    109.18   
    27. A(C   1,N   0,H  13)          112.51  0.000137    0.01    112.53   
    28. A(C   1,N   0,H  14)          112.72  0.000187   -0.02    112.70   
    29. A(H  13,N   0,H  14)          109.95 -0.000144   -0.05    109.91   
    30. A(C   1,N   0,H  15)          103.54 -0.000272   -0.01    103.53   
    31. A(N   0,C   1,H  17)          112.20 -0.000128   -0.01    112.19   
    32. A(N   0,C   1,C   2)          106.80  0.000099   -0.01    106.78   
    33. A(C   2,C   1,H  16)          105.39 -0.000199   -0.01    105.39   
    34. A(N   0,C   1,H  16)          110.62  0.000191    0.09    110.71   
    35. A(C   2,C   1,H  17)          111.70  0.000156    0.02    111.72   
    36. A(H  16,C   1,H  17)          109.88 -0.000113   -0.08    109.81   
    37. A(C   1,C   2,N   4)          116.08 -0.000041   -0.03    116.05   
    38. A(C   1,C   2,O   3)          118.94  0.000064   -0.01    118.93   
    39. A(O   3,C   2,N   4)          124.97 -0.000024    0.04    125.01   
    40. A(C   2,N   4,H  18)          119.26  0.000341   -0.02    119.24   
    41. A(C   2,N   4,C   5)          121.01 -0.000435    0.05    121.06   
    42. A(C   5,N   4,H  18)          117.67  0.000096   -0.06    117.61   
    43. A(N   4,C   5,H  20)          109.82  0.000145    0.05    109.88   
    44. A(C   6,C   5,H  19)          106.60  0.000180   -0.03    106.57   
    45. A(N   4,C   5,H  19)          109.74  0.000132   -0.10    109.64   
    46. A(N   4,C   5,C   6)          112.76 -0.000321    0.11    112.88   
    47. A(H  19,C   5,H  20)          108.86 -0.000100   -0.04    108.81   
    48. A(C   6,C   5,H  20)          108.95 -0.000034   -0.00    108.94   
    49. A(C   5,C   6,O   7)          121.31  0.000186   -0.06    121.25   
    50. A(O   7,C   6,N   8)          124.34  0.000225    0.02    124.36   
    51. A(C   5,C   6,N   8)          114.29 -0.000408    0.04    114.33   
    52. A(C   6,N   8,C   9)          124.23  0.000027    0.19    124.43   
    53. A(C   9,N   8,H  21)          108.69  0.000121   -0.09    108.60   
    54. A(C   6,N   8,H  21)          117.92 -0.000163    0.05    117.96   
    55. A(H  22,C   9,H  23)          108.82  0.000066   -0.07    108.75   
    56. A(N   8,C   9,C  10)          107.66  0.000068   -0.06    107.60   
    57. A(C  10,C   9,H  23)          108.35  0.000112    0.04    108.39   
    58. A(N   8,C   9,H  23)          111.39 -0.000224    0.08    111.47   
    59. A(C  10,C   9,H  22)          109.68 -0.000017    0.03    109.72   
    60. A(N   8,C   9,H  22)          110.89 -0.000001   -0.01    110.87   
    61. A(O  11,C  10,O  12)          127.20  0.000012    0.01    127.20   
    62. A(C   9,C  10,O  12)          117.32 -0.000055   -0.01    117.32   
    63. A(C   9,C  10,O  11)          115.48  0.000044   -0.00    115.47   
    64. D(H  16,C   1,N   0,H  15)   -102.08  0.000057    0.00   -102.07   
    65. D(C   2,C   1,N   0,H  15)     12.12 -0.000027    0.03     12.15   
    66. D(H  16,C   1,N   0,H  13)     15.56  0.000017    0.11     15.67   
    67. D(H  16,C   1,N   0,H  14)    140.60  0.000082    0.05    140.65   
    68. D(C   2,C   1,N   0,H  14)   -105.21 -0.000003    0.07   -105.14   
    69. D(C   2,C   1,N   0,H  13)    129.76 -0.000067    0.13    129.89   
    70. D(N   4,C   2,C   1,H  16)    -73.45  0.000131    0.04    -73.41   
    71. D(N   4,C   2,C   1,N   0)    168.86 -0.000038   -0.06    168.80   
    72. D(O   3,C   2,C   1,H  17)   -133.32 -0.000010   -0.10   -133.42   
    73. D(O   3,C   2,C   1,N   0)    -10.30 -0.000006   -0.10    -10.41   
    74. D(O   3,C   2,C   1,H  16)    107.39  0.000163   -0.01    107.38   
    75. D(H  18,N   4,C   2,C   1)      4.37  0.000003   -0.04      4.33   
    76. D(C   5,N   4,C   2,O   3)    -13.23 -0.000008   -0.22    -13.45   
    77. D(H  18,N   4,C   2,O   3)   -176.52 -0.000031    0.01   -176.51   
    78. D(C   5,N   4,C   2,C   1)    167.67  0.000025   -0.26    167.40   
    79. D(H  20,C   5,N   4,C   2)    167.85  0.000127   -1.18    166.67   
    80. D(H  19,C   5,N   4,H  18)   -148.23  0.000142   -1.31   -149.54   
    81. D(H  19,C   5,N   4,C   2)     48.22  0.000079   -1.10     47.13   
    82. D(C   6,C   5,N   4,H  18)     93.10  0.000032   -1.28     91.83   
    83. D(C   6,C   5,N   4,C   2)    -70.45 -0.000031   -1.06    -71.51   
    84. D(N   8,C   6,C   5,H  19)   -150.23 -0.000043    1.39   -148.84   
    85. D(N   8,C   6,C   5,N   4)    -29.75  0.000048    1.31    -28.44   
    86. D(O   7,C   6,C   5,H  20)    -85.02 -0.000094    1.40    -83.62   
    87. D(O   7,C   6,C   5,H  19)     32.30 -0.000131    1.34     33.63   
    88. D(O   7,C   6,C   5,N   4)    152.78 -0.000040    1.26    154.04   
    89. D(H  21,N   8,C   6,O   7)   -166.94  0.000018   -0.11   -167.05   
    90. D(H  21,N   8,C   6,C   5)     15.68 -0.000071   -0.16     15.51   
    91. D(C   9,N   8,C   6,O   7)    -23.89  0.000028    0.15    -23.74   
    92. D(C   9,N   8,C   6,C   5)    158.73 -0.000062    0.10    158.83   
    93. D(C  10,C   9,N   8,H  21)     23.14  0.000001   -1.06     22.08   
    94. D(C  10,C   9,N   8,C   6)   -122.76  0.000078   -1.31   -124.07   
    95. D(H  23,C   9,N   8,C   6)    118.58  0.000029   -1.37    117.21   
    96. D(H  22,C   9,N   8,H  21)    143.13  0.000022   -1.07    142.06   
    97. D(H  22,C   9,N   8,C   6)     -2.77  0.000099   -1.32     -4.09   
    98. D(O  12,C  10,C   9,H  22)     52.73 -0.000018    0.59     53.32   
    99. D(O  12,C  10,C   9,N   8)    173.48  0.000012    0.55    174.03   
   100. D(O  11,C  10,C   9,H  23)    113.93 -0.000038    0.54    114.47   
   101. D(O  11,C  10,C   9,H  22)   -127.41  0.000098    0.50   -126.91   
   102. D(O  11,C  10,C   9,N   8)     -6.66  0.000128    0.46     -6.20   
    ----------------------------------------------------------------------------

Geometry step timings:
Preparation and reading OPT file:      0.000 s ( 0.660 %)
Internal coordinates            :      0.000 s ( 0.836 %)
B/P matrices and projection     :      0.001 s (52.289 %)
Hessian update/contruction      :      0.000 s ( 9.727 %)
Making the step                 :      0.001 s (25.176 %)
Converting the step to Cartesian:      0.000 s ( 2.113 %)
Storing new data                :      0.000 s ( 0.836 %)
Checking convergence            :      0.000 s ( 0.616 %)
Final printing                  :      0.000 s ( 7.746 %)
Total time                      :      0.002 s

Time for energy+gradient        :      0.022 s
Time for complete geometry iter :      0.024 s

         *************************************************************
         *                GEOMETRY OPTIMIZATION CYCLE  22            *
         *************************************************************
---------------------------------
CARTESIAN COORDINATES (ANGSTROEM)
---------------------------------
  N    -2.857392   -0.936835   -1.253314
  C    -2.169398   -0.620200    0.010779
  C    -1.277069    0.593147   -0.263480
  O    -1.115106    0.960423   -1.421762
  N    -0.742944    1.182907    0.809271
  C     0.318259    2.155209    0.674600
  C     1.656432    1.525068    0.259366
  O     2.505379    2.173520   -0.342047
  N     1.815187    0.256331    0.655542
  C     2.732931   -0.675225    0.054107
  C     1.907426   -1.930988   -0.395669
  O     0.707225   -1.936047   -0.051742
  O     2.505118   -2.802675   -1.040985
  H    -2.779976   -1.925796   -1.504806
  H    -3.842500   -0.653800   -1.249273
  H    -2.344916   -0.360283   -1.962390
  H    -1.484751   -1.426575    0.291391
  H    -2.868042   -0.430797    0.822406
  H    -0.890973    0.775250    1.720883
  H     0.058609    2.876850   -0.104052
  H     0.454726    2.687416    1.615606
  H     0.987757   -0.255583    0.965674
  H     3.227443   -0.230143   -0.811512
  H     3.496576   -1.001174    0.766250

----------------------------
CARTESIAN COORDINATES (A.U.)
----------------------------
  NO LB    ZA    FRAG    MASS        X           Y           Z
   0 N   7.0000    0    14.007   -5.399689   -1.770361   -2.368420
   1 C   6.0000    0    12.011   -4.099568   -1.172009    0.020370
   2 C   6.0000    0    12.011   -2.413311    1.120885   -0.497905
   3 O   8.0000    0    15.999   -2.107245    1.814937   -2.686742
   4 N   7.0000    0    14.007   -1.403960    2.235371    1.529301
   5 C   6.0000    0    12.011    0.601423    4.072755    1.274809
   6 C   6.0000    0    12.011    3.130203    2.881960    0.490131
   7 O   8.0000    0    15.999    4.734480    4.107358   -0.646376
   8 N   7.0000    0    14.007    3.430206    0.484396    1.238796
   9 C   6.0000    0    12.011    5.164492   -1.275990    0.102247
  10 C   6.0000    0    12.011    3.604514   -3.649038   -0.747707
  11 O   8.0000    0    15.999    1.336462   -3.658599   -0.097778
  12 O   8.0000    0    15.999    4.733987   -5.296289   -1.967177
  13 H   1.0000    0     1.008   -5.253394   -3.639228   -2.843671
  14 H   1.0000    0     1.008   -7.261274   -1.235503   -2.360783
  15 H   1.0000    0     1.008   -4.431249   -0.680836   -3.708379
  16 H   1.0000    0     1.008   -2.805773   -2.695837    0.550650
  17 H   1.0000    0     1.008   -5.419815   -0.814089    1.554121
  18 H   1.0000    0     1.008   -1.683695    1.465010    3.251998
  19 H   1.0000    0     1.008    0.110755    5.436458   -0.196631
  20 H   1.0000    0     1.008    0.859307    5.078481    3.053053
  21 H   1.0000    0     1.008    1.866589   -0.482982    1.824860
  22 H   1.0000    0     1.008    6.098983   -0.434908   -1.533535
  23 H   1.0000    0     1.008    6.607571   -1.891945    1.448002

      -----------------------------------------------------------      
     |                   =====================                   |     
     |                           x T B                           |     
     |                   =====================                   |     
     |                         S. Grimme                         |     
     |          Mulliken Center for Theoretical Chemistry        |     
     |                    University of Bonn                     |     
      -----------------------------------------------------------      

   * xtb version 6.7.1 (edcfbbe) compiled by 'albert@albert-system' on 2024-07-22

   xtb is free software: you can redistribute it and/or modify it under
   the terms of the GNU Lesser General Public License as published by
   the Free Software Foundation, either version 3 of the License, or
   (at your option) any later version.
   
   xtb is distributed in the hope that it will be useful,
   but WITHOUT ANY WARRANTY; without even the implied warranty of
   MERCHANTABILITY or FITNESS FOR A PARTICULAR PURPOSE.  See the
   GNU Lesser General Public License for more details.
   
   Cite this work as:
   * C. Bannwarth, E. Caldeweyher, S. Ehlert, A. Hansen, P. Pracht,
     J. Seibert, S. Spicher, S. Grimme, WIREs Comput. Mol. Sci., 2020, 11,
     e01493. DOI: 10.1002/wcms.1493
   
   for GFN2-xTB:
   * C. Bannwarth, S. Ehlert and S. Grimme., J. Chem. Theory Comput., 2019,
     15, 1652-1671. DOI: 10.1021/acs.jctc.8b01176
   for GFN1-xTB:
   * S. Grimme, C. Bannwarth, P. Shushkov, J. Chem. Theory Comput., 2017,
     13, 1989-2009. DOI: 10.1021/acs.jctc.7b00118
   for GFN0-xTB:
   * P. Pracht, E. Caldeweyher, S. Ehlert, S. Grimme, ChemRxiv, 2019, preprint.
     DOI: 10.26434/chemrxiv.8326202.v1
   for GFN-FF:
   * S. Spicher and S. Grimme, Angew. Chem. Int. Ed., 2020, 59, 15665-15673.
     DOI: 10.1002/anie.202004239
   
   for ALPB and GBSA implicit solvation:
   * S. Ehlert, M. Stahn, S. Spicher, S. Grimme, J. Chem. Theory Comput.,
     2021, 17, 4250-4261. DOI: 10.1021/acs.jctc.1c00471
   
   for ddCOSMO and CPCM-X implicit solvation:
   * M. Stahn, S. Ehlert, S. Grimme, J. Phys. Chem. A,
     2023, XX, XXXX-XXXX. DOI: 10.1021/acs.jpca.3c04382
   
   for DFT-D4:
   * E. Caldeweyher, C. Bannwarth and S. Grimme, J. Chem. Phys., 2017,
     147, 034112. DOI: 10.1063/1.4993215
   * E. Caldeweyher, S. Ehlert, A. Hansen, H. Neugebauer, S. Spicher,
     C. Bannwarth and S. Grimme, J. Chem. Phys., 2019, 150, 154122.
     DOI: 10.1063/1.5090222
   * E. Caldeweyher, J.-M. Mewes, S. Ehlert and S. Grimme, Phys. Chem. Chem. Phys.
     2020, 22, 8499-8512. DOI: 10.1039/D0CP00502A
   
   for sTDA-xTB:
   * S. Grimme and C. Bannwarth, J. Chem. Phys., 2016, 145, 054103.
     DOI: 10.1063/1.4959605
   
   in the mass-spec context:
   * V. Asgeirsson, C. Bauer and S. Grimme, Chem. Sci., 2017, 8, 4879.
     DOI: 10.1039/c7sc00601b
   * J. Koopman and S. Grimme, ACS Omega 2019, 4, 12, 15120-15133.
     DOI: 10.1021/acsomega.9b02011
   
   for metadynamics refer to:
   * S. Grimme, J. Chem. Theory Comput., 2019, 155, 2847-2862
     DOI: 10.1021/acs.jctc.9b00143
   
   for SPH calculations refer to:
   * S. Spicher and S. Grimme, J. Chem. Theory Comput., 2021, 17, 1701-1714
     DOI: 10.1021/acs.jctc.0c01306
   
   for ONIOM refer to:
   * C. Plett, A. Katbashev, S. Ehlert, S. Grimme, M. Bursch,
     Phys. Chem. Chem. Phys., 2023, 25, 17860-17868. DOI: 10.1039/D3CP02178E
   
   for DIPRO refer to:
   * J. Kohn, N. Gildemeister, S. Grimme, D. Fazzi, A. Hansen,
     J. Chem. Phys., 2023, just accepted.
   
   for PTB refer to:
   * S. Grimme, M. Mueller, A. Hansen, J. Chem. Phys., 2023, 158, 124111.
     DOI: 10.1063/5.0137838
   
   with help from (in alphabetical order)
   P. Atkinson, C. Bannwarth, F. Bohle, G. Brandenburg, E. Caldeweyher
   M. Checinski, S. Dohm, S. Ehlert, S. Ehrlich, I. Gerasimov, C. Hölzer
   A. Katbashev, J. Kohn, J. Koopman, C. Lavigne, S. Lehtola, F. März, M. Müller,
   F. Musil, H. Neugebauer, J. Pisarek, C. Plett, P. Pracht, F. Pultar,
   J. Seibert, P. Shushkov, S. Spicher, M. Stahn, M. Steiner, T. Strunk,
   J. Stückrath, T. Rose, and J. Unsleber
   
 * started run on 2026/04/11 at 17:16:35.968     
   ID    Z sym.   atoms
    1    7 N      1, 5, 9
    2    6 C      2, 3, 6, 7, 10, 11
    3    8 O      4, 8, 12, 13
    4    1 H      14-24

           -------------------------------------------------
          |                Calculation Setup                |
           -------------------------------------------------

          program call               : /home/analima/Programs/orca-6.1.0-f.0_linux_x86-64/bin/otool_xtb geo_opt_XTB.xyz --grad -c 0 -u 0 -P 1 --namespace geo_opt --input geo_opt_XTB.input.tmp --alpb WATER --acc 0.200000
          calculation namespace      : geo_opt
          coordinate file            : geo_opt_XTB.xyz
          omp threads                :                     1


           -------------------------------------------------
          |                 G F N 2 - x T B                 |
           -------------------------------------------------

        Reference                      10.1021/acs.jctc.8b01176
      * Hamiltonian:
        H0-scaling (s, p, d)           1.850000    2.230000    2.230000
        zeta-weighting                 0.500000
      * Dispersion:
        s8                             2.700000
        a1                             0.520000
        a2                             5.000000
        s9                             5.000000
      * Repulsion:
        kExp                           1.500000    1.000000
        rExp                           1.000000
      * Coulomb:
        alpha                          2.000000
        third order                    shell-resolved
        anisotropic                    true
        a3                             3.000000
        a5                             4.000000
        cn-shift                       1.200000
        cn-exp                         4.000000
        max-rad                        5.000000

      * Solvation model:               ALPB
        Solvent                        WATER
        Parameter file                 internal GFN2-xTB/ALPB
        Dielectric constant                8.0200E+01
        Reference state                gsolv [1 M gas/solution]
        Free energy shift                  1.0808E-03 Eh       6.7819E-01 kcal/mol
        Temperature                        2.9815E+02 K
        Density                            1.0000E+00 kg/L
        Solvent mass                       1.8000E+01 g/mol
        Interaction kernel             P16
        Born radius scaling (c1)           1.4744E+00
        Born radii integrator          GBOBC
        Born offset                        0.0000E+00 a0       0.0000E+00 AA
        H-bond correction              true
        Ion screening                  false
        Surface tension                    1.0000E-05 Eh       1.5569E+01 dyn/cm
        Grid points                               230 per atom
q/qsh data taken from xtbrestart
CAMM data taken from xtbrestart

          ...................................................
          :                      SETUP                      :
          :.................................................:
          :  # basis functions                  63          :
          :  # atomic orbitals                  63          :
          :  # shells                           37          :
          :  # electrons                        74          :
          :  max. iterations                   250          :
          :  Hamiltonian                  GFN2-xTB          :
          :  restarted?                       true          :
          :  GBSA solvation                   true          :
          :  PC potential                    false          :
          :  electronic temp.          300.0000000     K    :
          :  accuracy                    0.2000000          :
          :  -> integral cutoff          0.3198970E+02      :
          :  -> integral neglect         0.2000000E-08      :
          :  -> SCF convergence          0.2000000E-06 Eh   :
          :  -> wf. convergence          0.2000000E-04 e    :
          :  Broyden damping             0.4000000          :
          :  net charge                          0          :
          :  unpaired electrons                  0          :
          ...................................................

 iter      E             dE          RMSdq      gap      omega  full diag
   1    -43.9666927 -0.439667E+02  0.600E-02    3.84       0.0  T
   2    -43.9666933 -0.684180E-06  0.351E-02    3.84       1.0  T
   3    -43.9666934 -0.102692E-06  0.289E-03    3.84       7.1  T
   4    -43.9666935 -0.910350E-07  0.126E-03    3.84      16.2  T
   5    -43.9666935 -0.411348E-08  0.665E-04    3.84      30.7  T
   6    -43.9666935 -0.921546E-09  0.143E-04    3.84     142.7  T
   7    -43.9666935 -0.456239E-10  0.418E-05    3.84     488.5  T

   *** convergence criteria satisfied after 7 iterations ***

         #    Occupation            Energy/Eh            Energy/eV
      -------------------------------------------------------------
         1        2.0000           -0.7311193             -19.8948
       ...           ...                  ...                  ...
        31        2.0000           -0.4459347             -12.1345
        32        2.0000           -0.4312557             -11.7351
        33        2.0000           -0.4202070             -11.4344
        34        2.0000           -0.4124601             -11.2236
        35        2.0000           -0.3995536             -10.8724
        36        2.0000           -0.3971115             -10.8060
        37        2.0000           -0.3732748             -10.1573 (HOMO)
        38                         -0.2320862              -6.3154 (LUMO)
        39                         -0.2197666              -5.9802
        40                         -0.1836253              -4.9967
        41                         -0.0509969              -1.3877
        42                         -0.0055604              -0.1513
       ...                                ...                  ...
        63                          0.6377083              17.3529
      -------------------------------------------------------------
                  HL-Gap            0.1411885 Eh            3.8419 eV
             Fermi-level           -0.3026805 Eh           -8.2364 eV

 SCC (total)                   0 d,  0 h,  0 min,  0.014 sec
 SCC setup                      ...        0 min,  0.000 sec (  2.269%)
 Dispersion                     ...        0 min,  0.000 sec (  0.612%)
 classical contributions        ...        0 min,  0.000 sec (  0.127%)
 integral evaluation            ...        0 min,  0.001 sec (  8.847%)
 iterations                     ...        0 min,  0.006 sec ( 45.328%)
 molecular gradient             ...        0 min,  0.006 sec ( 42.149%)
 printout                       ...        0 min,  0.000 sec (  0.590%)

         :::::::::::::::::::::::::::::::::::::::::::::::::::::
         ::                     SUMMARY                     ::
         :::::::::::::::::::::::::::::::::::::::::::::::::::::
         :: total energy             -43.540966912961 Eh    ::
         :: total w/o Gsasa/hb       -43.529612870857 Eh    ::
         :: gradient norm              0.001579989737 Eh/a0 ::
         :: HOMO-LUMO gap              3.841935955489 eV    ::
         ::.................................................::
         :: SCC energy               -43.966463711208 Eh    ::
         :: -> isotropic ES            0.315026585697 Eh    ::
         :: -> anisotropic ES         -0.023461114639 Eh    ::
         :: -> anisotropic XC          0.009001088747 Eh    ::
         :: -> dispersion             -0.019529452129 Eh    ::
         :: -> Gsolv                  -0.126794057908 Eh    ::
         ::    -> Gelec               -0.115440015804 Eh    ::
         ::    -> Gsasa                0.004971431459 Eh    ::
         ::    -> Ghb                 -0.017406233262 Eh    ::
         ::    -> Gshift               0.001080759698 Eh    ::
         :: repulsion energy           0.425496798247 Eh    ::
         :: add. restraining           0.000000000000 Eh    ::
         :: total charge              -0.000000000000 e     ::
         :::::::::::::::::::::::::::::::::::::::::::::::::::::


Property printout bound to 'properties.out'

           -------------------------------------------------
          | TOTAL ENERGY              -43.540966912961 Eh   |
          | GRADIENT NORM               0.001579989737 Eh/α |
          | HOMO-LUMO GAP               3.841935955489 eV   |
           -------------------------------------------------

------------------------------------------------------------------------
 * finished run on 2026/04/11 at 17:16:35.989     
------------------------------------------------------------------------
 total:
 * wall-time:     0 d,  0 h,  0 min,  0.022 sec
 *  cpu-time:     0 d,  0 h,  0 min,  0.018 sec
 * ratio c/w:     0.854 speedup
 SCF:
 * wall-time:     0 d,  0 h,  0 min,  0.014 sec
 *  cpu-time:     0 d,  0 h,  0 min,  0.013 sec
 * ratio c/w:     0.886 speedup


-------------------------   --------------------
FINAL SINGLE POINT ENERGY       -43.540966912960
-------------------------   --------------------


-------------
DIPOLE MOMENT
-------------
                                X             Y             Z
Total Dipole Moment    :     -8.96900       1.00700       1.64800
                        -----------------------------------------
Magnitude (a.u.)       :      9.17458
Magnitude (Debye)      :     23.31993


------------------
CARTESIAN GRADIENT
------------------

   1   N   :   -0.000116880   -0.000021700    0.000256138
   2   C   :    0.000063283    0.000058367   -0.000520046
   3   C   :    0.000296552    0.000004634   -0.000315972
   4   O   :   -0.000098685   -0.000008364    0.000017475
   5   N   :   -0.000108256   -0.000431540    0.000254887
   6   C   :   -0.000094832   -0.000367160   -0.000465196
   7   C   :    0.000088535    0.000184406    0.000123852
   8   O   :   -0.000090647   -0.000069414   -0.000051665
   9   N   :    0.000113824   -0.000147738    0.000134201
  10   C   :   -0.000185497   -0.000562906   -0.000304501
  11   C   :    0.000080159    0.000327736    0.000038679
  12   O   :   -0.000075143   -0.000020417   -0.000025768
  13   O   :    0.000090683   -0.000047805    0.000060322
  14   H   :   -0.000140822   -0.000025370   -0.000020343
  15   H   :   -0.000033060   -0.000111964   -0.000124965
  16   H   :    0.000160276    0.000237103    0.000126323
  17   H   :    0.000163623    0.000207932    0.000323521
  18   H   :   -0.000106395   -0.000165391    0.000010861
  19   H   :    0.000017103    0.000178043    0.000048855
  20   H   :   -0.000072620    0.000173264    0.000195229
  21   H   :    0.000068217    0.000083228    0.000046759
  22   H   :    0.000015399    0.000271461    0.000013046
  23   H   :   -0.000057759    0.000135129    0.000052525
  24   H   :    0.000022944    0.000118466    0.000125783

Difference to translation invariance:
           :   -0.0000000000   -0.0000000000   -0.0000000000

Difference to rotation invariance:
           :   -0.0001584331   -0.0005624860    0.0007696572

Norm of the Cartesian gradient     ...    0.0015799897
RMS gradient                       ...    0.0001862036
MAX gradient                       ...    0.0005629057
------------------------------------------------------------------------------
                         ORCA GEOMETRY RELAXATION STEP
------------------------------------------------------------------------------

Reading the OPT-File                    .... done
Getting information on internals        .... done
Copying old internal coords+grads       .... done
Making the new internal coordinates     .... (2022 redundants) done
Validating the new internal coordinates .... (2022 redundants) done
Calculating the B-matrix                .... done
Calculating the G,G- and P matrices     .... done
Transforming gradient to internals      .... done
Projecting the internal gradient        .... done
Number of atoms                         ....  24
Number of internal coordinates          .... 102
Current Energy                          ....   -43.540966913 Eh
Current gradient norm                   ....     0.001579990 Eh/bohr
Maximum allowed component of the step   ....  0.300
Current trust radius                    ....  0.700
Updating the Hessian (BFGS)             .... done
Forming the augmented Hessian           .... done
Diagonalizing the augmented Hessian     .... done
Last element of RFO vector              ....  0.995449601
Lowest eigenvalues of augmented Hessian:
 -0.000019523  0.001093378  0.002818892  0.011414501  0.012548152
Length of the computed step             ....  0.095725103
The final length of the internal step   ....  0.095725103
Converting the step to Cartesian space:
 Initial RMS(Int)=    0.0094781975
Transforming coordinates:
 Iter   0:  RMS(Cart)=    0.0186143176 RMS(Int)=    0.0094852794
done
Storing new coordinates                 .... done
The predicted energy change is          ....    -0.000009851
Previously predicted energy change      ....    -0.000010020
Actually observed energy change         ....    -0.000014391
Ratio of predicted to observed change   ....     1.436195530
New trust radius                        ....     0.700000000

                                .--------------------.
          ----------------------|Geometry convergence|-------------------------
          Item                value                   Tolerance       Converged
          ---------------------------------------------------------------------
          Energy change      -0.0000143907            0.0000050000      NO
          RMS gradient        0.0001326263            0.0001000000      NO
          MAX gradient        0.0004120255            0.0003000000      NO
          RMS step            0.0094781975            0.0020000000      NO
          MAX step            0.0297393978            0.0040000000      NO
          -------------------------------------------------------------------------
          ........................................................
          Max(Bonds)      0.0018      Max(Angles)    0.17
          Max(Dihed)        1.70      Max(Improp)    0.00
          ---------------------------------------------------------------------

The optimization has not yet converged - more geometry cycles are needed


    ---------------------------------------------------------------------------
                         Redundant Internal Coordinates
                            (Angstroem and degrees)

        Definition                    Value    dE/dq     Step     New-Value
    ----------------------------------------------------------------------------
     1. B(C   1,N   0)                1.4736 -0.000106 -0.0001    1.4735   
     2. B(C   2,C   1)                1.5309 -0.000057  0.0004    1.5313   
     3. B(O   3,C   2)                1.2259 -0.000032 -0.0003    1.2256   
     4. B(N   4,C   2)                1.3356  0.000001  0.0003    1.3359   
     5. B(C   5,N   4)                1.4456 -0.000035 -0.0003    1.4453   
     6. B(C   6,C   5)                1.5363 -0.000095  0.0007    1.5369   
     7. B(O   7,C   6)                1.2259 -0.000072  0.0002    1.2261   
     8. B(N   8,C   6)                1.3386 -0.000019 -0.0007    1.3379   
     9. B(C   9,N   8)                1.4394 -0.000003 -0.0004    1.4390   
    10. B(C  10,C   9)                1.5687 -0.000257  0.0003    1.5690   
    11. B(O  11,C  10)                1.2485  0.000069 -0.0001    1.2485   
    12. B(O  12,C  10)                1.2383  0.000049 -0.0002    1.2382   
    13. B(H  13,N   0)                1.0234  0.000010  0.0000    1.0234   
    14. B(H  14,N   0)                1.0250  0.000007  0.0001    1.0251   
    15. B(H  15,N   0)                1.0478  0.000072 -0.0000    1.0477   
    16. B(H  15,O   3)                1.8839 -0.000097  0.0018    1.8856   
    17. B(H  16,C   1)                1.0944  0.000029  0.0000    1.0945   
    18. B(H  17,C   1)                1.0875  0.000052  0.0000    1.0875   
    19. B(H  18,N   4)                1.0095 -0.000029  0.0001    1.0096   
    20. B(H  19,C   5)                1.0929 -0.000011  0.0000    1.0929   
    21. B(H  20,C   5)                1.0897  0.000091 -0.0001    1.0896   
    22. B(H  21,N   8)                1.0212 -0.000145  0.0005    1.0217   
    23. B(H  22,C   9)                1.0918 -0.000011  0.0002    1.0919   
    24. B(H  23,C   9)                1.0939  0.000060 -0.0000    1.0938   
    25. A(H  14,N   0,H  15)          108.71  0.000020   -0.02    108.69   
    26. A(H  13,N   0,H  15)          109.17  0.000128    0.04    109.21   
    27. A(C   1,N   0,H  13)          112.53  0.000126   -0.03    112.50   
    28. A(C   1,N   0,H  14)          112.71  0.000197   -0.06    112.65   
    29. A(H  13,N   0,H  14)          109.91 -0.000170    0.00    109.91   
    30. A(C   1,N   0,H  15)          103.53 -0.000304    0.07    103.59   
    31. A(N   0,C   1,H  17)          112.19 -0.000197    0.02    112.21   
    32. A(N   0,C   1,C   2)          106.78  0.000089   -0.01    106.78   
    33. A(C   2,C   1,H  16)          105.38 -0.000266    0.06    105.45   
    34. A(N   0,C   1,H  16)          110.71  0.000312   -0.02    110.69   
    35. A(C   2,C   1,H  17)          111.72  0.000217   -0.03    111.70   
    36. A(H  16,C   1,H  17)          109.81 -0.000145   -0.03    109.78   
    37. A(C   1,C   2,N   4)          116.05 -0.000135   -0.03    116.02   
    38. A(C   1,C   2,O   3)          118.93  0.000115   -0.01    118.92   
    39. A(O   3,C   2,N   4)          125.01  0.000019    0.04    125.05   
    40. A(C   2,N   4,H  18)          119.23  0.000345   -0.09    119.14   
    41. A(C   2,N   4,C   5)          121.05 -0.000412    0.11    121.16   
    42. A(C   5,N   4,H  18)          117.61  0.000062   -0.08    117.52   
    43. A(N   4,C   5,H  20)          109.88  0.000149    0.04    109.92   
    44. A(C   6,C   5,H  19)          106.57  0.000211   -0.09    106.48   
    45. A(N   4,C   5,H  19)          109.64  0.000037   -0.11    109.53   
    46. A(N   4,C   5,C   6)          112.88 -0.000246    0.12    112.99   
    47. A(H  19,C   5,H  20)          108.82 -0.000111    0.01    108.83   
    48. A(C   6,C   5,H  20)          108.94 -0.000038    0.03    108.97   
    49. A(C   5,C   6,O   7)          121.25  0.000215   -0.09    121.16   
    50. A(O   7,C   6,N   8)          124.36  0.000192    0.01    124.37   
    51. A(C   5,C   6,N   8)          114.34 -0.000405    0.08    114.41   
    52. A(C   6,N   8,C   9)          124.43  0.000169    0.17    124.60   
    53. A(C   9,N   8,H  21)          108.61  0.000118   -0.12    108.49   
    54. A(C   6,N   8,H  21)          117.96 -0.000284    0.11    118.07   
    55. A(H  22,C   9,H  23)          108.75  0.000022   -0.06    108.69   
    56. A(N   8,C   9,C  10)          107.60  0.000160   -0.11    107.49   
    57. A(C  10,C   9,H  23)          108.39  0.000109    0.01    108.40   
    58. A(N   8,C   9,H  23)          111.47 -0.000189    0.13    111.59   
    59. A(C  10,C   9,H  22)          109.72  0.000022    0.01    109.73   
    60. A(N   8,C   9,H  22)          110.87 -0.000115    0.03    110.90   
    61. A(O  11,C  10,O  12)          127.21  0.000001    0.02    127.22   
    62. A(C   9,C  10,O  12)          117.32 -0.000102    0.01    117.32   
    63. A(C   9,C  10,O  11)          115.48  0.000101   -0.03    115.45   
    64. D(H  16,C   1,N   0,H  15)   -102.07  0.000012    0.10   -101.97   
    65. D(C   2,C   1,N   0,H  15)     12.15 -0.000096    0.16     12.30   
    66. D(H  16,C   1,N   0,H  13)     15.67  0.000044    0.17     15.84   
    67. D(H  16,C   1,N   0,H  14)    140.64  0.000074    0.11    140.75   
    68. D(C   2,C   1,N   0,H  14)   -105.13 -0.000035    0.17   -104.97   
    69. D(C   2,C   1,N   0,H  13)    129.89 -0.000064    0.22    130.11   
    70. D(N   4,C   2,C   1,H  16)    -73.41  0.000186   -0.19    -73.60   
    71. D(N   4,C   2,C   1,N   0)    168.80 -0.000085   -0.19    168.61   
    72. D(O   3,C   2,C   1,H  17)   -133.42 -0.000029   -0.21   -133.63   
    73. D(O   3,C   2,C   1,N   0)    -10.41 -0.000079   -0.21    -10.62   
    74. D(O   3,C   2,C   1,H  16)    107.38  0.000191   -0.20    107.17   
    75. D(H  18,N   4,C   2,C   1)      4.33 -0.000020    0.06      4.40   
    76. D(C   5,N   4,C   2,O   3)    -13.44 -0.000030   -0.27    -13.71   
    77. D(H  18,N   4,C   2,O   3)   -176.51 -0.000025    0.08   -176.43   
    78. D(C   5,N   4,C   2,C   1)    167.40 -0.000025   -0.29    167.12   
    79. D(H  20,C   5,N   4,C   2)    166.67  0.000044   -1.15    165.53   
    80. D(H  19,C   5,N   4,H  18)   -149.54  0.000109   -1.46   -151.00   
    81. D(H  19,C   5,N   4,C   2)     47.13  0.000066   -1.12     46.01   
    82. D(C   6,C   5,N   4,H  18)     91.83 -0.000024   -1.34     90.48   
    83. D(C   6,C   5,N   4,C   2)    -71.51 -0.000067   -1.00    -72.51   
    84. D(N   8,C   6,C   5,H  19)   -148.84 -0.000051    1.70   -147.14   
    85. D(N   8,C   6,C   5,N   4)    -28.44 -0.000011    1.57    -26.86   
    86. D(O   7,C   6,C   5,H  20)    -83.62 -0.000067    1.69    -81.93   
    87. D(O   7,C   6,C   5,H  19)     33.63 -0.000104    1.67     35.30   
    88. D(O   7,C   6,C   5,N   4)    154.04 -0.000064    1.54    155.58   
    89. D(H  21,N   8,C   6,O   7)   -167.05 -0.000036   -0.03   -167.07   
    90. D(H  21,N   8,C   6,C   5)     15.52 -0.000091   -0.06     15.46   
    91. D(C   9,N   8,C   6,O   7)    -23.74 -0.000001    0.21    -23.53   
    92. D(C   9,N   8,C   6,C   5)    158.82 -0.000056    0.18    159.00   
    93. D(C  10,C   9,N   8,H  21)     22.08 -0.000039   -1.09     21.00   
    94. D(C  10,C   9,N   8,C   6)   -124.08  0.000057   -1.34   -125.42   
    95. D(H  23,C   9,N   8,C   6)    117.21 -0.000066   -1.36    115.85   
    96. D(H  22,C   9,N   8,H  21)    142.07  0.000019   -1.13    140.94   
    97. D(H  22,C   9,N   8,C   6)     -4.09  0.000116   -1.38     -5.47   
    98. D(O  12,C  10,C   9,H  22)     53.32  0.000108    0.30     53.62   
    99. D(O  12,C  10,C   9,N   8)    174.03  0.000078    0.27    174.30   
   100. D(O  11,C  10,C   9,H  23)    114.47 -0.000035    0.31    114.78   
   101. D(O  11,C  10,C   9,H  22)   -126.91  0.000068    0.24   -126.67   
   102. D(O  11,C  10,C   9,N   8)     -6.20  0.000038    0.21     -5.98   
    ----------------------------------------------------------------------------

Geometry step timings:
Preparation and reading OPT file:      0.000 s ( 0.669 %)
Internal coordinates            :      0.000 s ( 0.736 %)
B/P matrices and projection     :      0.001 s (39.064 %)
Hessian update/contruction      :      0.000 s (10.836 %)
Making the step                 :      0.000 s (32.174 %)
Converting the step to Cartesian:      0.000 s ( 3.211 %)
Storing new data                :      0.000 s ( 0.870 %)
Checking convergence            :      0.000 s ( 0.870 %)
Final printing                  :      0.000 s (11.572 %)
Total time                      :      0.001 s

Time for energy+gradient        :      0.027 s
Time for complete geometry iter :      0.029 s

         *************************************************************
         *                GEOMETRY OPTIMIZATION CYCLE  23            *
         *************************************************************
---------------------------------
CARTESIAN COORDINATES (ANGSTROEM)
---------------------------------
  N    -2.868922   -0.933399   -1.248290
  C    -2.169045   -0.621443    0.010308
  C    -1.282805    0.596186   -0.266732
  O    -1.130760    0.967386   -1.424836
  N    -0.742828    1.184000    0.804526
  C     0.318077    2.156003    0.668694
  C     1.662158    1.525949    0.270332
  O     2.524018    2.180841   -0.305573
  N     1.809636    0.251605    0.650087
  C     2.736972   -0.675482    0.057454
  C     1.919383   -1.935737   -0.395402
  O     0.716012   -1.942461   -0.062961
  O     2.525954   -2.808744   -1.030247
  H    -2.794133   -1.921658   -1.503495
  H    -3.854021   -0.650393   -1.232796
  H    -2.364321   -0.354233   -1.960796
  H    -1.480151   -1.428013    0.279921
  H    -2.859654   -0.437837    0.830103
  H    -0.882996    0.770698    1.714979
  H     0.062973    2.867318   -0.120913
  H     0.445235    2.699861    1.604240
  H     0.975724   -0.263727    0.937881
  H     3.235334   -0.229715   -0.805824
  H     3.498161   -0.997007    0.774180

----------------------------
CARTESIAN COORDINATES (A.U.)
----------------------------
  NO LB    ZA    FRAG    MASS        X           Y           Z
   0 N   7.0000    0    14.007   -5.421477   -1.763868   -2.358926
   1 C   6.0000    0    12.011   -4.098901   -1.174357    0.019480
   2 C   6.0000    0    12.011   -2.424150    1.126628   -0.504051
   3 O   8.0000    0    15.999   -2.136827    1.828094   -2.692550
   4 N   7.0000    0    14.007   -1.403742    2.237435    1.520334
   5 C   6.0000    0    12.011    0.601077    4.074254    1.263649
   6 C   6.0000    0    12.011    3.141023    2.883626    0.510853
   7 O   8.0000    0    15.999    4.769703    4.121192   -0.577449
   8 N   7.0000    0    14.007    3.419717    0.475465    1.228486
   9 C   6.0000    0    12.011    5.172127   -1.276475    0.108573
  10 C   6.0000    0    12.011    3.627108   -3.658012   -0.747202
  11 O   8.0000    0    15.999    1.353068   -3.670720   -0.118980
  12 O   8.0000    0    15.999    4.773362   -5.307757   -1.946884
  13 H   1.0000    0     1.008   -5.280147   -3.631407   -2.841193
  14 H   1.0000    0     1.008   -7.283044   -1.229064   -2.329647
  15 H   1.0000    0     1.008   -4.467920   -0.669403   -3.705367
  16 H   1.0000    0     1.008   -2.797079   -2.698553    0.528974
  17 H   1.0000    0     1.008   -5.403964   -0.827391    1.568667
  18 H   1.0000    0     1.008   -1.668620    1.456409    3.240841
  19 H   1.0000    0     1.008    0.119002    5.418445   -0.228492
  20 H   1.0000    0     1.008    0.841372    5.101997    3.031575
  21 H   1.0000    0     1.008    1.843851   -0.498371    1.772339
  22 H   1.0000    0     1.008    6.113896   -0.434098   -1.522788
  23 H   1.0000    0     1.008    6.610566   -1.884070    1.462988

      -----------------------------------------------------------      
     |                   =====================                   |     
     |                           x T B                           |     
     |                   =====================                   |     
     |                         S. Grimme                         |     
     |          Mulliken Center for Theoretical Chemistry        |     
     |                    University of Bonn                     |     
      -----------------------------------------------------------      

   * xtb version 6.7.1 (edcfbbe) compiled by 'albert@albert-system' on 2024-07-22

   xtb is free software: you can redistribute it and/or modify it under
   the terms of the GNU Lesser General Public License as published by
   the Free Software Foundation, either version 3 of the License, or
   (at your option) any later version.
   
   xtb is distributed in the hope that it will be useful,
   but WITHOUT ANY WARRANTY; without even the implied warranty of
   MERCHANTABILITY or FITNESS FOR A PARTICULAR PURPOSE.  See the
   GNU Lesser General Public License for more details.
   
   Cite this work as:
   * C. Bannwarth, E. Caldeweyher, S. Ehlert, A. Hansen, P. Pracht,
     J. Seibert, S. Spicher, S. Grimme, WIREs Comput. Mol. Sci., 2020, 11,
     e01493. DOI: 10.1002/wcms.1493
   
   for GFN2-xTB:
   * C. Bannwarth, S. Ehlert and S. Grimme., J. Chem. Theory Comput., 2019,
     15, 1652-1671. DOI: 10.1021/acs.jctc.8b01176
   for GFN1-xTB:
   * S. Grimme, C. Bannwarth, P. Shushkov, J. Chem. Theory Comput., 2017,
     13, 1989-2009. DOI: 10.1021/acs.jctc.7b00118
   for GFN0-xTB:
   * P. Pracht, E. Caldeweyher, S. Ehlert, S. Grimme, ChemRxiv, 2019, preprint.
     DOI: 10.26434/chemrxiv.8326202.v1
   for GFN-FF:
   * S. Spicher and S. Grimme, Angew. Chem. Int. Ed., 2020, 59, 15665-15673.
     DOI: 10.1002/anie.202004239
   
   for ALPB and GBSA implicit solvation:
   * S. Ehlert, M. Stahn, S. Spicher, S. Grimme, J. Chem. Theory Comput.,
     2021, 17, 4250-4261. DOI: 10.1021/acs.jctc.1c00471
   
   for ddCOSMO and CPCM-X implicit solvation:
   * M. Stahn, S. Ehlert, S. Grimme, J. Phys. Chem. A,
     2023, XX, XXXX-XXXX. DOI: 10.1021/acs.jpca.3c04382
   
   for DFT-D4:
   * E. Caldeweyher, C. Bannwarth and S. Grimme, J. Chem. Phys., 2017,
     147, 034112. DOI: 10.1063/1.4993215
   * E. Caldeweyher, S. Ehlert, A. Hansen, H. Neugebauer, S. Spicher,
     C. Bannwarth and S. Grimme, J. Chem. Phys., 2019, 150, 154122.
     DOI: 10.1063/1.5090222
   * E. Caldeweyher, J.-M. Mewes, S. Ehlert and S. Grimme, Phys. Chem. Chem. Phys.
     2020, 22, 8499-8512. DOI: 10.1039/D0CP00502A
   
   for sTDA-xTB:
   * S. Grimme and C. Bannwarth, J. Chem. Phys., 2016, 145, 054103.
     DOI: 10.1063/1.4959605
   
   in the mass-spec context:
   * V. Asgeirsson, C. Bauer and S. Grimme, Chem. Sci., 2017, 8, 4879.
     DOI: 10.1039/c7sc00601b
   * J. Koopman and S. Grimme, ACS Omega 2019, 4, 12, 15120-15133.
     DOI: 10.1021/acsomega.9b02011
   
   for metadynamics refer to:
   * S. Grimme, J. Chem. Theory Comput., 2019, 155, 2847-2862
     DOI: 10.1021/acs.jctc.9b00143
   
   for SPH calculations refer to:
   * S. Spicher and S. Grimme, J. Chem. Theory Comput., 2021, 17, 1701-1714
     DOI: 10.1021/acs.jctc.0c01306
   
   for ONIOM refer to:
   * C. Plett, A. Katbashev, S. Ehlert, S. Grimme, M. Bursch,
     Phys. Chem. Chem. Phys., 2023, 25, 17860-17868. DOI: 10.1039/D3CP02178E
   
   for DIPRO refer to:
   * J. Kohn, N. Gildemeister, S. Grimme, D. Fazzi, A. Hansen,
     J. Chem. Phys., 2023, just accepted.
   
   for PTB refer to:
   * S. Grimme, M. Mueller, A. Hansen, J. Chem. Phys., 2023, 158, 124111.
     DOI: 10.1063/5.0137838
   
   with help from (in alphabetical order)
   P. Atkinson, C. Bannwarth, F. Bohle, G. Brandenburg, E. Caldeweyher
   M. Checinski, S. Dohm, S. Ehlert, S. Ehrlich, I. Gerasimov, C. Hölzer
   A. Katbashev, J. Kohn, J. Koopman, C. Lavigne, S. Lehtola, F. März, M. Müller,
   F. Musil, H. Neugebauer, J. Pisarek, C. Plett, P. Pracht, F. Pultar,
   J. Seibert, P. Shushkov, S. Spicher, M. Stahn, M. Steiner, T. Strunk,
   J. Stückrath, T. Rose, and J. Unsleber
   
 * started run on 2026/04/11 at 17:16:35.996     
   ID    Z sym.   atoms
    1    7 N      1, 5, 9
    2    6 C      2, 3, 6, 7, 10, 11
    3    8 O      4, 8, 12, 13
    4    1 H      14-24

           -------------------------------------------------
          |                Calculation Setup                |
           -------------------------------------------------

          program call               : /home/analima/Programs/orca-6.1.0-f.0_linux_x86-64/bin/otool_xtb geo_opt_XTB.xyz --grad -c 0 -u 0 -P 1 --namespace geo_opt --input geo_opt_XTB.input.tmp --alpb WATER --acc 0.200000
          calculation namespace      : geo_opt
          coordinate file            : geo_opt_XTB.xyz
          omp threads                :                     1


           -------------------------------------------------
          |                 G F N 2 - x T B                 |
           -------------------------------------------------

        Reference                      10.1021/acs.jctc.8b01176
      * Hamiltonian:
        H0-scaling (s, p, d)           1.850000    2.230000    2.230000
        zeta-weighting                 0.500000
      * Dispersion:
        s8                             2.700000
        a1                             0.520000
        a2                             5.000000
        s9                             5.000000
      * Repulsion:
        kExp                           1.500000    1.000000
        rExp                           1.000000
      * Coulomb:
        alpha                          2.000000
        third order                    shell-resolved
        anisotropic                    true
        a3                             3.000000
        a5                             4.000000
        cn-shift                       1.200000
        cn-exp                         4.000000
        max-rad                        5.000000

      * Solvation model:               ALPB
        Solvent                        WATER
        Parameter file                 internal GFN2-xTB/ALPB
        Dielectric constant                8.0200E+01
        Reference state                gsolv [1 M gas/solution]
        Free energy shift                  1.0808E-03 Eh       6.7819E-01 kcal/mol
        Temperature                        2.9815E+02 K
        Density                            1.0000E+00 kg/L
        Solvent mass                       1.8000E+01 g/mol
        Interaction kernel             P16
        Born radius scaling (c1)           1.4744E+00
        Born radii integrator          GBOBC
        Born offset                        0.0000E+00 a0       0.0000E+00 AA
        H-bond correction              true
        Ion screening                  false
        Surface tension                    1.0000E-05 Eh       1.5569E+01 dyn/cm
        Grid points                               230 per atom
q/qsh data taken from xtbrestart
CAMM data taken from xtbrestart

          ...................................................
          :                      SETUP                      :
          :.................................................:
          :  # basis functions                  63          :
          :  # atomic orbitals                  63          :
          :  # shells                           37          :
          :  # electrons                        74          :
          :  max. iterations                   250          :
          :  Hamiltonian                  GFN2-xTB          :
          :  restarted?                       true          :
          :  GBSA solvation                   true          :
          :  PC potential                    false          :
          :  electronic temp.          300.0000000     K    :
          :  accuracy                    0.2000000          :
          :  -> integral cutoff          0.3198970E+02      :
          :  -> integral neglect         0.2000000E-08      :
          :  -> SCF convergence          0.2000000E-06 Eh   :
          :  -> wf. convergence          0.2000000E-04 e    :
          :  Broyden damping             0.4000000          :
          :  net charge                          0          :
          :  unpaired electrons                  0          :
          ...................................................

 iter      E             dE          RMSdq      gap      omega  full diag
   1    -43.9666935 -0.439667E+02  0.644E-02    3.84       0.0  T
   2    -43.9666943 -0.834596E-06  0.376E-02    3.84       1.0  T
   3    -43.9666944 -0.122123E-06  0.313E-03    3.85       6.5  T
   4    -43.9666945 -0.986163E-07  0.135E-03    3.85      15.1  T
   5    -43.9666945 -0.488942E-08  0.720E-04    3.85      28.4  T
   6    -43.9666945 -0.113611E-08  0.158E-04    3.85     129.4  T
   7    -43.9666945 -0.541647E-10  0.500E-05    3.85     408.6  T

   *** convergence criteria satisfied after 7 iterations ***

         #    Occupation            Energy/Eh            Energy/eV
      -------------------------------------------------------------
         1        2.0000           -0.7313001             -19.8997
       ...           ...                  ...                  ...
        31        2.0000           -0.4463577             -12.1460
        32        2.0000           -0.4313495             -11.7376
        33        2.0000           -0.4198569             -11.4249
        34        2.0000           -0.4126336             -11.2283
        35        2.0000           -0.3996827             -10.8759
        36        2.0000           -0.3971136             -10.8060
        37        2.0000           -0.3735987             -10.1661 (HOMO)
        38                         -0.2322504              -6.3199 (LUMO)
        39                         -0.2195012              -5.9729
        40                         -0.1837599              -5.0004
        41                         -0.0509860              -1.3874
        42                         -0.0055965              -0.1523
       ...                                ...                  ...
        63                          0.6379463              17.3594
      -------------------------------------------------------------
                  HL-Gap            0.1413482 Eh            3.8463 eV
             Fermi-level           -0.3029245 Eh           -8.2430 eV

 SCC (total)                   0 d,  0 h,  0 min,  0.012 sec
 SCC setup                      ...        0 min,  0.000 sec (  3.260%)
 Dispersion                     ...        0 min,  0.000 sec (  0.577%)
 classical contributions        ...        0 min,  0.000 sec (  0.168%)
 integral evaluation            ...        0 min,  0.001 sec (  9.783%)
 iterations                     ...        0 min,  0.006 sec ( 48.077%)
 molecular gradient             ...        0 min,  0.005 sec ( 37.606%)
 printout                       ...        0 min,  0.000 sec (  0.439%)

         :::::::::::::::::::::::::::::::::::::::::::::::::::::
         ::                     SUMMARY                     ::
         :::::::::::::::::::::::::::::::::::::::::::::::::::::
         :: total energy             -43.540980712079 Eh    ::
         :: total w/o Gsasa/hb       -43.529652776843 Eh    ::
         :: gradient norm              0.001432460652 Eh/a0 ::
         :: HOMO-LUMO gap              3.846281518089 eV    ::
         ::.................................................::
         :: SCC energy               -43.966466818259 Eh    ::
         :: -> isotropic ES            0.314985130513 Eh    ::
         :: -> anisotropic ES         -0.023437187615 Eh    ::
         :: -> anisotropic XC          0.008997888310 Eh    ::
         :: -> dispersion             -0.019483271227 Eh    ::
         :: -> Gsolv                  -0.126906215434 Eh    ::
         ::    -> Gelec               -0.115578280198 Eh    ::
         ::    -> Gsasa                0.005000899234 Eh    ::
         ::    -> Ghb                 -0.017409594168 Eh    ::
         ::    -> Gshift               0.001080759698 Eh    ::
         :: repulsion energy           0.425486106180 Eh    ::
         :: add. restraining           0.000000000000 Eh    ::
         :: total charge              -0.000000000000 e     ::
         :::::::::::::::::::::::::::::::::::::::::::::::::::::


Property printout bound to 'properties.out'

           -------------------------------------------------
          | TOTAL ENERGY              -43.540980712079 Eh   |
          | GRADIENT NORM               0.001432460652 Eh/α |
          | HOMO-LUMO GAP               3.846281518089 eV   |
           -------------------------------------------------

------------------------------------------------------------------------
 * finished run on 2026/04/11 at 17:16:36.015     
------------------------------------------------------------------------
 total:
 * wall-time:     0 d,  0 h,  0 min,  0.019 sec
 *  cpu-time:     0 d,  0 h,  0 min,  0.017 sec
 * ratio c/w:     0.921 speedup
 SCF:
 * wall-time:     0 d,  0 h,  0 min,  0.013 sec
 *  cpu-time:     0 d,  0 h,  0 min,  0.011 sec
 * ratio c/w:     0.895 speedup


-------------------------   --------------------
FINAL SINGLE POINT ENERGY       -43.540980712080
-------------------------   --------------------


-------------
DIPOLE MOMENT
-------------
                                X             Y             Z
Total Dipole Moment    :     -9.02300       1.00200       1.60500
                        -----------------------------------------
Magnitude (a.u.)       :      9.21925
Magnitude (Debye)      :     23.43347


------------------
CARTESIAN GRADIENT
------------------

   1   N   :    0.000028767    0.000004379    0.000262899
   2   C   :   -0.000030038   -0.000125217   -0.000506740
   3   C   :    0.000211054    0.000154458   -0.000603517
   4   O   :   -0.000119856   -0.000135273    0.000213006
   5   N   :   -0.000059225   -0.000195781    0.000184575
   6   C   :   -0.000154224   -0.000133839   -0.000114786
   7   C   :    0.000161585   -0.000153179    0.000082978
   8   O   :   -0.000023873   -0.000047221   -0.000022834
   9   N   :    0.000209724   -0.000027562   -0.000103980
  10   C   :   -0.000200661   -0.000532047   -0.000028821
  11   C   :   -0.000160945    0.000303861   -0.000071345
  12   O   :    0.000131236   -0.000038664   -0.000037428
  13   O   :    0.000088918   -0.000031838    0.000135080
  14   H   :   -0.000109004   -0.000056202    0.000021743
  15   H   :   -0.000069833   -0.000078538   -0.000066632
  16   H   :    0.000127174    0.000275795    0.000071449
  17   H   :    0.000093586    0.000146848    0.000286165
  18   H   :   -0.000079734   -0.000136200    0.000023133
  19   H   :    0.000022320    0.000092097    0.000049718
  20   H   :   -0.000078870    0.000074006    0.000110830
  21   H   :    0.000011548    0.000063968    0.000025383
  22   H   :   -0.000013441    0.000303137    0.000005716
  23   H   :   -0.000074035    0.000184664    0.000047506
  24   H   :    0.000087826    0.000088347    0.000035902

Difference to translation invariance:
           :   -0.0000000000    0.0000000000   -0.0000000000

Difference to rotation invariance:
           :   -0.0000741682   -0.0005346710    0.0007384251

Norm of the Cartesian gradient     ...    0.0014324607
RMS gradient                       ...    0.0001688171
MAX gradient                       ...    0.0006035172
------------------------------------------------------------------------------
                         ORCA GEOMETRY RELAXATION STEP
------------------------------------------------------------------------------

Reading the OPT-File                    .... done
Getting information on internals        .... done
Copying old internal coords+grads       .... done
Making the new internal coordinates     .... (2022 redundants) done
Validating the new internal coordinates .... (2022 redundants) done
Calculating the B-matrix                .... done
Calculating the G,G- and P matrices     .... done
Transforming gradient to internals      .... done
Projecting the internal gradient        .... done
Number of atoms                         ....  24
Number of internal coordinates          .... 102
Current Energy                          ....   -43.540980712 Eh
Current gradient norm                   ....     0.001432461 Eh/bohr
Maximum allowed component of the step   ....  0.300
Current trust radius                    ....  0.700
Updating the Hessian (BFGS)             .... done
Forming the augmented Hessian           .... done
Diagonalizing the augmented Hessian     .... done
Last element of RFO vector              ....  0.997609745
Lowest eigenvalues of augmented Hessian:
 -0.000013029  0.000961037  0.002713104  0.010248823  0.012156903
Length of the computed step             ....  0.069265470
The final length of the internal step   ....  0.069265470
Converting the step to Cartesian space:
 Initial RMS(Int)=    0.0068583035
Transforming coordinates:
 Iter   0:  RMS(Cart)=    0.0130402922 RMS(Int)=    0.0068612522
done
Storing new coordinates                 .... done
The predicted energy change is          ....    -0.000006546
Previously predicted energy change      ....    -0.000009851
Actually observed energy change         ....    -0.000013799
Ratio of predicted to observed change   ....     1.400826305
New trust radius                        ....     0.700000000

                                .--------------------.
          ----------------------|Geometry convergence|-------------------------
          Item                value                   Tolerance       Converged
          ---------------------------------------------------------------------
          Energy change      -0.0000137991            0.0000050000      NO
          RMS gradient        0.0001142179            0.0001000000      NO
          MAX gradient        0.0003266335            0.0003000000      NO
          RMS step            0.0068583035            0.0020000000      NO
          MAX step            0.0226737607            0.0040000000      NO
          -------------------------------------------------------------------------
          ........................................................
          Max(Bonds)      0.0035      Max(Angles)    0.13
          Max(Dihed)        1.30      Max(Improp)    0.00
          ---------------------------------------------------------------------

The optimization has not yet converged - more geometry cycles are needed


    ---------------------------------------------------------------------------
                         Redundant Internal Coordinates
                            (Angstroem and degrees)

        Definition                    Value    dE/dq     Step     New-Value
    ----------------------------------------------------------------------------
     1. B(C   1,N   0)                1.4735 -0.000211  0.0002    1.4737   
     2. B(C   2,C   1)                1.5313  0.000091  0.0002    1.5314   
     3. B(O   3,C   2)                1.2256 -0.000256 -0.0000    1.2256   
     4. B(N   4,C   2)                1.3359  0.000153  0.0001    1.3360   
     5. B(C   5,N   4)                1.4453 -0.000002 -0.0002    1.4450   
     6. B(C   6,C   5)                1.5369  0.000172  0.0002    1.5372   
     7. B(O   7,C   6)                1.2261 -0.000029  0.0001    1.2263   
     8. B(N   8,C   6)                1.3379 -0.000211 -0.0003    1.3376   
     9. B(C   9,N   8)                1.4390 -0.000080 -0.0002    1.4388   
    10. B(C  10,C   9)                1.5690 -0.000205  0.0006    1.5696   
    11. B(O  11,C  10)                1.2485 -0.000133  0.0001    1.2485   
    12. B(O  12,C  10)                1.2382 -0.000001 -0.0002    1.2380   
    13. B(H  13,N   0)                1.0234  0.000033  0.0000    1.0234   
    14. B(H  14,N   0)                1.0251  0.000050 -0.0000    1.0250   
    15. B(H  15,N   0)                1.0477  0.000111 -0.0003    1.0474   
    16. B(H  15,O   3)                1.8856 -0.000102  0.0035    1.8891   
    17. B(H  16,C   1)                1.0945  0.000018 -0.0000    1.0944   
    18. B(H  17,C   1)                1.0875  0.000050 -0.0001    1.0875   
    19. B(H  18,N   4)                1.0096  0.000004  0.0001    1.0098   
    20. B(H  19,C   5)                1.0929 -0.000015  0.0001    1.0930   
    21. B(H  20,C   5)                1.0896  0.000055 -0.0001    1.0895   
    22. B(H  21,N   8)                1.0217 -0.000141  0.0005    1.0221   
    23. B(H  22,C   9)                1.0919  0.000005  0.0001    1.0920   
    24. B(H  23,C   9)                1.0938  0.000056 -0.0001    1.0938   
    25. A(H  14,N   0,H  15)          108.69  0.000008   -0.01    108.69   
    26. A(H  13,N   0,H  15)          109.21  0.000143   -0.03    109.18   
    27. A(C   1,N   0,H  13)          112.50  0.000057   -0.04    112.46   
    28. A(C   1,N   0,H  14)          112.65  0.000108   -0.06    112.59   
    29. A(H  13,N   0,H  14)          109.91 -0.000110    0.04    109.95   
    30. A(C   1,N   0,H  15)          103.60 -0.000204    0.10    103.70   
    31. A(N   0,C   1,H  17)          112.21 -0.000158    0.04    112.25   
    32. A(N   0,C   1,C   2)          106.78  0.000050    0.01    106.79   
    33. A(C   2,C   1,H  16)          105.44 -0.000193    0.08    105.52   
    34. A(N   0,C   1,H  16)          110.69  0.000274   -0.11    110.58   
    35. A(C   2,C   1,H  17)          111.69  0.000165   -0.05    111.64   
    36. A(H  16,C   1,H  17)          109.78 -0.000127    0.03    109.82   
    37. A(C   1,C   2,N   4)          116.02 -0.000177   -0.00    116.02   
    38. A(C   1,C   2,O   3)          118.92  0.000089   -0.00    118.92   
    39. A(O   3,C   2,N   4)          125.05  0.000088    0.00    125.06   
    40. A(C   2,N   4,H  18)          119.14  0.000174   -0.10    119.04   
    41. A(C   2,N   4,C   5)          121.15 -0.000157    0.09    121.24   
    42. A(C   5,N   4,H  18)          117.51 -0.000020   -0.06    117.46   
    43. A(N   4,C   5,H  20)          109.92  0.000083    0.02    109.94   
    44. A(C   6,C   5,H  19)          106.48  0.000150   -0.10    106.37   
    45. A(N   4,C   5,H  19)          109.53 -0.000031   -0.07    109.46   
    46. A(N   4,C   5,C   6)          112.99 -0.000134    0.08    113.07   
    47. A(H  19,C   5,H  20)          108.83 -0.000065    0.04    108.86   
    48. A(C   6,C   5,H  20)          108.97 -0.000002    0.03    109.00   
    49. A(C   5,C   6,O   7)          121.16  0.000170   -0.08    121.08   
    50. A(O   7,C   6,N   8)          124.37  0.000096   -0.00    124.37   
    51. A(C   5,C   6,N   8)          114.41 -0.000265    0.08    114.50   
    52. A(C   6,N   8,C   9)          124.60  0.000180    0.08    124.68   
    53. A(C   9,N   8,H  21)          108.48  0.000154   -0.13    108.35   
    54. A(C   6,N   8,H  21)          118.06 -0.000327    0.12    118.19   
    55. A(H  22,C   9,H  23)          108.69 -0.000036   -0.03    108.66   
    56. A(N   8,C   9,C  10)          107.49  0.000175   -0.11    107.38   
    57. A(C  10,C   9,H  23)          108.40  0.000072   -0.03    108.37   
    58. A(N   8,C   9,H  23)          111.59 -0.000055    0.09    111.68   
    59. A(C  10,C   9,H  22)          109.73  0.000041   -0.01    109.72   
    60. A(N   8,C   9,H  22)          110.90 -0.000188    0.08    110.98   
    61. A(O  11,C  10,O  12)          127.22  0.000013    0.01    127.23   
    62. A(C   9,C  10,O  12)          117.33 -0.000117    0.02    117.35   
    63. A(C   9,C  10,O  11)          115.45  0.000103   -0.04    115.41   
    64. D(H  16,C   1,N   0,H  15)   -101.98 -0.000037    0.19   -101.79   
    65. D(C   2,C   1,N   0,H  15)     12.30 -0.000101    0.23     12.53   
    66. D(H  16,C   1,N   0,H  13)     15.84  0.000038    0.19     16.02   
    67. D(H  16,C   1,N   0,H  14)    140.75  0.000022    0.16    140.91   
    68. D(C   2,C   1,N   0,H  14)   -104.97 -0.000041    0.20   -104.77   
    69. D(C   2,C   1,N   0,H  13)    130.12 -0.000025    0.23    130.35   
    70. D(N   4,C   2,C   1,H  16)    -73.60  0.000146   -0.23    -73.83   
    71. D(N   4,C   2,C   1,N   0)    168.61 -0.000098   -0.14    168.47   
    72. D(O   3,C   2,C   1,H  17)   -133.63 -0.000041   -0.18   -133.81   
    73. D(O   3,C   2,C   1,N   0)    -10.61 -0.000102   -0.16    -10.77   
    74. D(O   3,C   2,C   1,H  16)    107.17  0.000141   -0.24    106.93   
    75. D(H  18,N   4,C   2,C   1)      4.40 -0.000024    0.11      4.51   
    76. D(C   5,N   4,C   2,O   3)    -13.71 -0.000036   -0.18    -13.89   
    77. D(H  18,N   4,C   2,O   3)   -176.44 -0.000019    0.13   -176.31   
    78. D(C   5,N   4,C   2,C   1)    167.12 -0.000040   -0.20    166.92   
    79. D(H  20,C   5,N   4,C   2)    165.53 -0.000014   -0.73    164.79   
    80. D(H  19,C   5,N   4,H  18)   -151.00  0.000052   -1.06   -152.06   
    81. D(H  19,C   5,N   4,C   2)     46.01  0.000035   -0.75     45.26   
    82. D(C   6,C   5,N   4,H  18)     90.48 -0.000031   -0.93     89.55   
    83. D(C   6,C   5,N   4,C   2)    -72.51 -0.000048   -0.62    -73.13   
    84. D(N   8,C   6,C   5,H  19)   -147.14 -0.000027    1.30   -145.84   
    85. D(N   8,C   6,C   5,N   4)    -26.86 -0.000044    1.19    -25.67   
    86. D(O   7,C   6,C   5,H  20)    -81.93 -0.000043    1.28    -80.65   
    87. D(O   7,C   6,C   5,H  19)     35.30 -0.000040    1.29     36.58   
    88. D(O   7,C   6,C   5,N   4)    155.58 -0.000058    1.18    156.75   
    89. D(H  21,N   8,C   6,O   7)   -167.07 -0.000053    0.04   -167.03   
    90. D(H  21,N   8,C   6,C   5)     15.46 -0.000068    0.03     15.49   
    91. D(C   9,N   8,C   6,O   7)    -23.53  0.000000    0.14    -23.39   
    92. D(C   9,N   8,C   6,C   5)    158.99 -0.000015    0.13    159.13   
    93. D(C  10,C   9,N   8,H  21)     21.00 -0.000047   -0.74     20.26   
    94. D(C  10,C   9,N   8,C   6)   -125.42  0.000056   -0.89   -126.31   
    95. D(H  23,C   9,N   8,C   6)    115.85 -0.000110   -0.84    115.01   
    96. D(H  22,C   9,N   8,H  21)    140.95  0.000002   -0.78    140.17   
    97. D(H  22,C   9,N   8,C   6)     -5.48  0.000105   -0.92     -6.40   
    98. D(O  12,C  10,C   9,H  22)     53.62  0.000202   -0.17     53.45   
    99. D(O  12,C  10,C   9,N   8)    174.30  0.000104   -0.15    174.16   
   100. D(O  11,C  10,C   9,H  23)    114.78  0.000007   -0.08    114.70   
   101. D(O  11,C  10,C   9,H  22)   -126.67  0.000029   -0.13   -126.80   
   102. D(O  11,C  10,C   9,N   8)     -5.98 -0.000069   -0.11     -6.09   
    ----------------------------------------------------------------------------

Geometry step timings:
Preparation and reading OPT file:      0.000 s ( 0.701 %)
Internal coordinates            :      0.000 s ( 0.771 %)
B/P matrices and projection     :      0.001 s (40.294 %)
Hessian update/contruction      :      0.000 s (10.231 %)
Making the step                 :      0.000 s (31.745 %)
Converting the step to Cartesian:      0.000 s ( 3.013 %)
Storing new data                :      0.000 s ( 0.771 %)
Checking convergence            :      0.000 s ( 0.981 %)
Final printing                  :      0.000 s (11.493 %)
Total time                      :      0.001 s

Time for energy+gradient        :      0.024 s
Time for complete geometry iter :      0.025 s

         *************************************************************
         *                GEOMETRY OPTIMIZATION CYCLE  24            *
         *************************************************************
---------------------------------
CARTESIAN COORDINATES (ANGSTROEM)
---------------------------------
  N    -2.875959   -0.932488   -1.244003
  C    -2.169129   -0.621592    0.011242
  C    -1.286102    0.597971   -0.268488
  O    -1.138792    0.969816   -1.426990
  N    -0.743274    1.186297    0.801176
  C     0.318109    2.157323    0.664390
  C     1.665903    1.526398    0.279349
  O     2.537610    2.185569   -0.276829
  N     1.804855    0.247780    0.646737
  C     2.739568   -0.675489    0.060266
  C     1.926890   -1.937712   -0.397980
  O     0.722042   -1.947066   -0.070775
  O     2.537833   -2.808337   -1.031594
  H    -2.803930   -1.921083   -1.498763
  H    -3.860406   -0.647662   -1.222558
  H    -2.375110   -0.355258   -1.960279
  H    -1.478653   -1.429036    0.274068
  H    -2.854644   -0.439782    0.835607
  H    -0.878895    0.769960    1.711061
  H     0.067678    2.860390   -0.134119
  H     0.438257    2.710023    1.595518
  H     0.966397   -0.270822    0.916593
  H     3.242710   -0.228968   -0.799933
  H     3.497041   -0.996232    0.781143

----------------------------
CARTESIAN COORDINATES (A.U.)
----------------------------
  NO LB    ZA    FRAG    MASS        X           Y           Z
   0 N   7.0000    0    14.007   -5.434775   -1.762148   -2.350824
   1 C   6.0000    0    12.011   -4.099059   -1.174639    0.021244
   2 C   6.0000    0    12.011   -2.430380    1.130001   -0.507368
   3 O   8.0000    0    15.999   -2.152004    1.832686   -2.696620
   4 N   7.0000    0    14.007   -1.404584    2.241776    1.514004
   5 C   6.0000    0    12.011    0.601138    4.076750    1.255515
   6 C   6.0000    0    12.011    3.148101    2.884475    0.527894
   7 O   8.0000    0    15.999    4.795388    4.130126   -0.523130
   8 N   7.0000    0    14.007    3.410682    0.468236    1.222155
   9 C   6.0000    0    12.011    5.177034   -1.276489    0.113887
  10 C   6.0000    0    12.011    3.641294   -3.661744   -0.752073
  11 O   8.0000    0    15.999    1.364462   -3.679422   -0.133745
  12 O   8.0000    0    15.999    4.795810   -5.306988   -1.949429
  13 H   1.0000    0     1.008   -5.298659   -3.630321   -2.832251
  14 H   1.0000    0     1.008   -7.295110   -1.223903   -2.310301
  15 H   1.0000    0     1.008   -4.488307   -0.671340   -3.704390
  16 H   1.0000    0     1.008   -2.794249   -2.700486    0.517914
  17 H   1.0000    0     1.008   -5.394495   -0.831068    1.579069
  18 H   1.0000    0     1.008   -1.660871    1.455013    3.233436
  19 H   1.0000    0     1.008    0.127892    5.405354   -0.253449
  20 H   1.0000    0     1.008    0.828186    5.121202    3.015092
  21 H   1.0000    0     1.008    1.826226   -0.511779    1.732109
  22 H   1.0000    0     1.008    6.127834   -0.432687   -1.511653
  23 H   1.0000    0     1.008    6.608449   -1.882605    1.476146

      -----------------------------------------------------------      
     |                   =====================                   |     
     |                           x T B                           |     
     |                   =====================                   |     
     |                         S. Grimme                         |     
     |          Mulliken Center for Theoretical Chemistry        |     
     |                    University of Bonn                     |     
      -----------------------------------------------------------      

   * xtb version 6.7.1 (edcfbbe) compiled by 'albert@albert-system' on 2024-07-22

   xtb is free software: you can redistribute it and/or modify it under
   the terms of the GNU Lesser General Public License as published by
   the Free Software Foundation, either version 3 of the License, or
   (at your option) any later version.
   
   xtb is distributed in the hope that it will be useful,
   but WITHOUT ANY WARRANTY; without even the implied warranty of
   MERCHANTABILITY or FITNESS FOR A PARTICULAR PURPOSE.  See the
   GNU Lesser General Public License for more details.
   
   Cite this work as:
   * C. Bannwarth, E. Caldeweyher, S. Ehlert, A. Hansen, P. Pracht,
     J. Seibert, S. Spicher, S. Grimme, WIREs Comput. Mol. Sci., 2020, 11,
     e01493. DOI: 10.1002/wcms.1493
   
   for GFN2-xTB:
   * C. Bannwarth, S. Ehlert and S. Grimme., J. Chem. Theory Comput., 2019,
     15, 1652-1671. DOI: 10.1021/acs.jctc.8b01176
   for GFN1-xTB:
   * S. Grimme, C. Bannwarth, P. Shushkov, J. Chem. Theory Comput., 2017,
     13, 1989-2009. DOI: 10.1021/acs.jctc.7b00118
   for GFN0-xTB:
   * P. Pracht, E. Caldeweyher, S. Ehlert, S. Grimme, ChemRxiv, 2019, preprint.
     DOI: 10.26434/chemrxiv.8326202.v1
   for GFN-FF:
   * S. Spicher and S. Grimme, Angew. Chem. Int. Ed., 2020, 59, 15665-15673.
     DOI: 10.1002/anie.202004239
   
   for ALPB and GBSA implicit solvation:
   * S. Ehlert, M. Stahn, S. Spicher, S. Grimme, J. Chem. Theory Comput.,
     2021, 17, 4250-4261. DOI: 10.1021/acs.jctc.1c00471
   
   for ddCOSMO and CPCM-X implicit solvation:
   * M. Stahn, S. Ehlert, S. Grimme, J. Phys. Chem. A,
     2023, XX, XXXX-XXXX. DOI: 10.1021/acs.jpca.3c04382
   
   for DFT-D4:
   * E. Caldeweyher, C. Bannwarth and S. Grimme, J. Chem. Phys., 2017,
     147, 034112. DOI: 10.1063/1.4993215
   * E. Caldeweyher, S. Ehlert, A. Hansen, H. Neugebauer, S. Spicher,
     C. Bannwarth and S. Grimme, J. Chem. Phys., 2019, 150, 154122.
     DOI: 10.1063/1.5090222
   * E. Caldeweyher, J.-M. Mewes, S. Ehlert and S. Grimme, Phys. Chem. Chem. Phys.
     2020, 22, 8499-8512. DOI: 10.1039/D0CP00502A
   
   for sTDA-xTB:
   * S. Grimme and C. Bannwarth, J. Chem. Phys., 2016, 145, 054103.
     DOI: 10.1063/1.4959605
   
   in the mass-spec context:
   * V. Asgeirsson, C. Bauer and S. Grimme, Chem. Sci., 2017, 8, 4879.
     DOI: 10.1039/c7sc00601b
   * J. Koopman and S. Grimme, ACS Omega 2019, 4, 12, 15120-15133.
     DOI: 10.1021/acsomega.9b02011
   
   for metadynamics refer to:
   * S. Grimme, J. Chem. Theory Comput., 2019, 155, 2847-2862
     DOI: 10.1021/acs.jctc.9b00143
   
   for SPH calculations refer to:
   * S. Spicher and S. Grimme, J. Chem. Theory Comput., 2021, 17, 1701-1714
     DOI: 10.1021/acs.jctc.0c01306
   
   for ONIOM refer to:
   * C. Plett, A. Katbashev, S. Ehlert, S. Grimme, M. Bursch,
     Phys. Chem. Chem. Phys., 2023, 25, 17860-17868. DOI: 10.1039/D3CP02178E
   
   for DIPRO refer to:
   * J. Kohn, N. Gildemeister, S. Grimme, D. Fazzi, A. Hansen,
     J. Chem. Phys., 2023, just accepted.
   
   for PTB refer to:
   * S. Grimme, M. Mueller, A. Hansen, J. Chem. Phys., 2023, 158, 124111.
     DOI: 10.1063/5.0137838
   
   with help from (in alphabetical order)
   P. Atkinson, C. Bannwarth, F. Bohle, G. Brandenburg, E. Caldeweyher
   M. Checinski, S. Dohm, S. Ehlert, S. Ehrlich, I. Gerasimov, C. Hölzer
   A. Katbashev, J. Kohn, J. Koopman, C. Lavigne, S. Lehtola, F. März, M. Müller,
   F. Musil, H. Neugebauer, J. Pisarek, C. Plett, P. Pracht, F. Pultar,
   J. Seibert, P. Shushkov, S. Spicher, M. Stahn, M. Steiner, T. Strunk,
   J. Stückrath, T. Rose, and J. Unsleber
   
 * started run on 2026/04/11 at 17:16:36.021     
   ID    Z sym.   atoms
    1    7 N      1, 5, 9
    2    6 C      2, 3, 6, 7, 10, 11
    3    8 O      4, 8, 12, 13
    4    1 H      14-24

           -------------------------------------------------
          |                Calculation Setup                |
           -------------------------------------------------

          program call               : /home/analima/Programs/orca-6.1.0-f.0_linux_x86-64/bin/otool_xtb geo_opt_XTB.xyz --grad -c 0 -u 0 -P 1 --namespace geo_opt --input geo_opt_XTB.input.tmp --alpb WATER --acc 0.200000
          calculation namespace      : geo_opt
          coordinate file            : geo_opt_XTB.xyz
          omp threads                :                     1


           -------------------------------------------------
          |                 G F N 2 - x T B                 |
           -------------------------------------------------

        Reference                      10.1021/acs.jctc.8b01176
      * Hamiltonian:
        H0-scaling (s, p, d)           1.850000    2.230000    2.230000
        zeta-weighting                 0.500000
      * Dispersion:
        s8                             2.700000
        a1                             0.520000
        a2                             5.000000
        s9                             5.000000
      * Repulsion:
        kExp                           1.500000    1.000000
        rExp                           1.000000
      * Coulomb:
        alpha                          2.000000
        third order                    shell-resolved
        anisotropic                    true
        a3                             3.000000
        a5                             4.000000
        cn-shift                       1.200000
        cn-exp                         4.000000
        max-rad                        5.000000

      * Solvation model:               ALPB
        Solvent                        WATER
        Parameter file                 internal GFN2-xTB/ALPB
        Dielectric constant                8.0200E+01
        Reference state                gsolv [1 M gas/solution]
        Free energy shift                  1.0808E-03 Eh       6.7819E-01 kcal/mol
        Temperature                        2.9815E+02 K
        Density                            1.0000E+00 kg/L
        Solvent mass                       1.8000E+01 g/mol
        Interaction kernel             P16
        Born radius scaling (c1)           1.4744E+00
        Born radii integrator          GBOBC
        Born offset                        0.0000E+00 a0       0.0000E+00 AA
        H-bond correction              true
        Ion screening                  false
        Surface tension                    1.0000E-05 Eh       1.5569E+01 dyn/cm
        Grid points                               230 per atom
q/qsh data taken from xtbrestart
CAMM data taken from xtbrestart

          ...................................................
          :                      SETUP                      :
          :.................................................:
          :  # basis functions                  63          :
          :  # atomic orbitals                  63          :
          :  # shells                           37          :
          :  # electrons                        74          :
          :  max. iterations                   250          :
          :  Hamiltonian                  GFN2-xTB          :
          :  restarted?                       true          :
          :  GBSA solvation                   true          :
          :  PC potential                    false          :
          :  electronic temp.          300.0000000     K    :
          :  accuracy                    0.2000000          :
          :  -> integral cutoff          0.3198970E+02      :
          :  -> integral neglect         0.2000000E-08      :
          :  -> SCF convergence          0.2000000E-06 Eh   :
          :  -> wf. convergence          0.2000000E-04 e    :
          :  Broyden damping             0.4000000          :
          :  net charge                          0          :
          :  unpaired electrons                  0          :
          ...................................................

 iter      E             dE          RMSdq      gap      omega  full diag
   1    -43.9666405 -0.439666E+02  0.452E-02    3.85       0.0  T
   2    -43.9666408 -0.337267E-06  0.264E-02    3.85       1.0  T
   3    -43.9666409 -0.553575E-07  0.213E-03    3.85       9.6  T
   4    -43.9666409 -0.493901E-07  0.924E-04    3.85      22.1  T
   5    -43.9666409 -0.172240E-08  0.447E-04    3.85      45.7  T
   6    -43.9666409 -0.484576E-09  0.113E-04    3.85     180.4  T
   7    -43.9666409 -0.305391E-10  0.395E-05    3.85     516.6  T

   *** convergence criteria satisfied after 7 iterations ***

         #    Occupation            Energy/Eh            Energy/eV
      -------------------------------------------------------------
         1        2.0000           -0.7313353             -19.9006
       ...           ...                  ...                  ...
        31        2.0000           -0.4466005             -12.1526
        32        2.0000           -0.4313353             -11.7372
        33        2.0000           -0.4196504             -11.4193
        34        2.0000           -0.4127743             -11.2322
        35        2.0000           -0.3998182             -10.8796
        36        2.0000           -0.3970950             -10.8055
        37        2.0000           -0.3738126             -10.1720 (HOMO)
        38                         -0.2323731              -6.3232 (LUMO)
        39                         -0.2193245              -5.9681
        40                         -0.1838847              -5.0038
        41                         -0.0511605              -1.3921
        42                         -0.0055813              -0.1519
       ...                                ...                  ...
        63                          0.6379696              17.3600
      -------------------------------------------------------------
                  HL-Gap            0.1414396 Eh            3.8488 eV
             Fermi-level           -0.3030929 Eh           -8.2476 eV

 SCC (total)                   0 d,  0 h,  0 min,  0.015 sec
 SCC setup                      ...        0 min,  0.000 sec (  2.302%)
 Dispersion                     ...        0 min,  0.000 sec (  0.619%)
 classical contributions        ...        0 min,  0.000 sec (  0.109%)
 integral evaluation            ...        0 min,  0.001 sec (  8.459%)
 iterations                     ...        0 min,  0.008 sec ( 52.982%)
 molecular gradient             ...        0 min,  0.005 sec ( 34.971%)
 printout                       ...        0 min,  0.000 sec (  0.476%)

         :::::::::::::::::::::::::::::::::::::::::::::::::::::
         ::                     SUMMARY                     ::
         :::::::::::::::::::::::::::::::::::::::::::::::::::::
         :: total energy             -43.540989395166 Eh    ::
         :: total w/o Gsasa/hb       -43.529674354915 Eh    ::
         :: gradient norm              0.001001376350 Eh/a0 ::
         :: HOMO-LUMO gap              3.848766708192 eV    ::
         ::.................................................::
         :: SCC energy               -43.966414619312 Eh    ::
         :: -> isotropic ES            0.315028812800 Eh    ::
         :: -> anisotropic ES         -0.023430734270 Eh    ::
         :: -> anisotropic XC          0.009001379778 Eh    ::
         :: -> dispersion             -0.019455164533 Eh    ::
         :: -> Gsolv                  -0.127030681965 Eh    ::
         ::    -> Gelec               -0.115715641714 Eh    ::
         ::    -> Gsasa                0.005019465635 Eh    ::
         ::    -> Ghb                 -0.017415265584 Eh    ::
         ::    -> Gshift               0.001080759698 Eh    ::
         :: repulsion energy           0.425425224146 Eh    ::
         :: add. restraining           0.000000000000 Eh    ::
         :: total charge              -0.000000000000 e     ::
         :::::::::::::::::::::::::::::::::::::::::::::::::::::


Property printout bound to 'properties.out'

           -------------------------------------------------
          | TOTAL ENERGY              -43.540989395166 Eh   |
          | GRADIENT NORM               0.001001376350 Eh/α |
          | HOMO-LUMO GAP               3.848766708192 eV   |
           -------------------------------------------------

------------------------------------------------------------------------
 * finished run on 2026/04/11 at 17:16:36.043     
------------------------------------------------------------------------
 total:
 * wall-time:     0 d,  0 h,  0 min,  0.021 sec
 *  cpu-time:     0 d,  0 h,  0 min,  0.018 sec
 * ratio c/w:     0.861 speedup
 SCF:
 * wall-time:     0 d,  0 h,  0 min,  0.015 sec
 *  cpu-time:     0 d,  0 h,  0 min,  0.012 sec
 * ratio c/w:     0.808 speedup


-------------------------   --------------------
FINAL SINGLE POINT ENERGY       -43.540989395170
-------------------------   --------------------


-------------
DIPOLE MOMENT
-------------
                                X             Y             Z
Total Dipole Moment    :     -9.06100       0.99200       1.58300
                        -----------------------------------------
Magnitude (a.u.)       :      9.25158
Magnitude (Debye)      :     23.51564


------------------
CARTESIAN GRADIENT
------------------

   1   N   :    0.000078568    0.000016945    0.000120171
   2   C   :   -0.000099966   -0.000178970   -0.000261074
   3   C   :    0.000081278    0.000199824   -0.000404549
   4   O   :   -0.000081339   -0.000149246    0.000190706
   5   N   :   -0.000006240    0.000018445   -0.000017932
   6   C   :   -0.000120685    0.000111371    0.000188056
   7   C   :    0.000108556   -0.000227568   -0.000011329
   8   O   :    0.000006596   -0.000011842   -0.000002275
   9   N   :    0.000213408   -0.000078367   -0.000152871
  10   C   :   -0.000077893   -0.000277046    0.000163197
  11   C   :   -0.000220683    0.000129619   -0.000059806
  12   O   :    0.000182202   -0.000020516   -0.000040914
  13   O   :    0.000054345   -0.000008080    0.000101926
  14   H   :   -0.000027788   -0.000044065    0.000027313
  15   H   :   -0.000035214   -0.000044340    0.000003939
  16   H   :    0.000064583    0.000159752    0.000004102
  17   H   :   -0.000010240    0.000036320    0.000127861
  18   H   :   -0.000010633   -0.000052739    0.000029651
  19   H   :    0.000000437   -0.000005030    0.000027445
  20   H   :   -0.000041270   -0.000015250    0.000000983
  21   H   :   -0.000035113    0.000006768   -0.000002302
  22   H   :   -0.000061820    0.000245381    0.000004756
  23   H   :   -0.000054977    0.000156474    0.000020008
  24   H   :    0.000093890    0.000032160   -0.000057063

Difference to translation invariance:
           :   -0.0000000000   -0.0000000000   -0.0000000000

Difference to rotation invariance:
           :   -0.0000463999   -0.0005268324    0.0006847436

Norm of the Cartesian gradient     ...    0.0010013764
RMS gradient                       ...    0.0001180133
MAX gradient                       ...    0.0004045489
------------------------------------------------------------------------------
                         ORCA GEOMETRY RELAXATION STEP
------------------------------------------------------------------------------

Reading the OPT-File                    .... done
Getting information on internals        .... done
Copying old internal coords+grads       .... done
Making the new internal coordinates     .... (2022 redundants) done
Validating the new internal coordinates .... (2022 redundants) done
Calculating the B-matrix                .... done
Calculating the G,G- and P matrices     .... done
Transforming gradient to internals      .... done
Projecting the internal gradient        .... done
Number of atoms                         ....  24
Number of internal coordinates          .... 102
Current Energy                          ....   -43.540989395 Eh
Current gradient norm                   ....     0.001001376 Eh/bohr
Maximum allowed component of the step   ....  0.300
Current trust radius                    ....  0.700
Updating the Hessian (BFGS)             .... done
Forming the augmented Hessian           .... done
Diagonalizing the augmented Hessian     .... done
Last element of RFO vector              ....  0.999552421
Lowest eigenvalues of augmented Hessian:
 -0.000004902  0.000968620  0.002614825  0.008711464  0.012008548
Length of the computed step             ....  0.029929250
The final length of the internal step   ....  0.029929250
Converting the step to Cartesian space:
 Initial RMS(Int)=    0.0029634373
Transforming coordinates:
 Iter   0:  RMS(Cart)=    0.0061214616 RMS(Int)=    0.0029637867
done
Storing new coordinates                 .... done
The predicted energy change is          ....    -0.000002453
Previously predicted energy change      ....    -0.000006546
Actually observed energy change         ....    -0.000008683
Ratio of predicted to observed change   ....     1.326550907
New trust radius                        ....     0.700000000

                                .--------------------.
          ----------------------|Geometry convergence|-------------------------
          Item                value                   Tolerance       Converged
          ---------------------------------------------------------------------
          Energy change      -0.0000086831            0.0000050000      NO
          RMS gradient        0.0000764108            0.0001000000      YES
          MAX gradient        0.0002677599            0.0003000000      YES
          RMS step            0.0029634373            0.0020000000      NO
          MAX step            0.0096861488            0.0040000000      NO
          -------------------------------------------------------------------------
          ........................................................
          Max(Bonds)      0.0028      Max(Angles)    0.09
          Max(Dihed)        0.55      Max(Improp)    0.00
          ---------------------------------------------------------------------

The optimization has not yet converged - more geometry cycles are needed


    ---------------------------------------------------------------------------
                         Redundant Internal Coordinates
                            (Angstroem and degrees)

        Definition                    Value    dE/dq     Step     New-Value
    ----------------------------------------------------------------------------
     1. B(C   1,N   0)                1.4737 -0.000161  0.0003    1.4740   
     2. B(C   2,C   1)                1.5314  0.000162 -0.0001    1.5313   
     3. B(O   3,C   2)                1.2256 -0.000235  0.0001    1.2257   
     4. B(N   4,C   2)                1.3360  0.000129 -0.0000    1.3360   
     5. B(C   5,N   4)                1.4450  0.000031 -0.0001    1.4449   
     6. B(C   6,C   5)                1.5372  0.000268 -0.0002    1.5369   
     7. B(O   7,C   6)                1.2263  0.000002  0.0001    1.2263   
     8. B(N   8,C   6)                1.3376 -0.000141  0.0000    1.3376   
     9. B(C   9,N   8)                1.4388 -0.000057 -0.0000    1.4387   
    10. B(C  10,C   9)                1.5696 -0.000070  0.0004    1.5700   
    11. B(O  11,C  10)                1.2485 -0.000183  0.0001    1.2486   
    12. B(O  12,C  10)                1.2380 -0.000017 -0.0001    1.2380   
    13. B(H  13,N   0)                1.0234  0.000026 -0.0000    1.0234   
    14. B(H  14,N   0)                1.0250  0.000027 -0.0000    1.0250   
    15. B(H  15,N   0)                1.0474  0.000082 -0.0003    1.0471   
    16. B(H  15,O   3)                1.8891 -0.000062  0.0028    1.8919   
    17. B(H  16,C   1)                1.0944 -0.000005 -0.0000    1.0944   
    18. B(H  17,C   1)                1.0875  0.000025 -0.0001    1.0874   
    19. B(H  18,N   4)                1.0098  0.000027  0.0000    1.0098   
    20. B(H  19,C   5)                1.0930 -0.000003  0.0000    1.0930   
    21. B(H  20,C   5)                1.0895 -0.000003 -0.0000    1.0894   
    22. B(H  21,N   8)                1.0221 -0.000073  0.0003    1.0224   
    23. B(H  22,C   9)                1.0920  0.000024 -0.0000    1.0920   
    24. B(H  23,C   9)                1.0938  0.000015 -0.0000    1.0937   
    25. A(H  14,N   0,H  15)          108.69  0.000010   -0.01    108.68   
    26. A(H  13,N   0,H  15)          109.18  0.000076   -0.04    109.13   
    27. A(C   1,N   0,H  13)          112.46 -0.000010   -0.02    112.44   
    28. A(C   1,N   0,H  14)          112.59  0.000003   -0.02    112.57   
    29. A(H  13,N   0,H  14)          109.95 -0.000023    0.03    109.98   
    30. A(C   1,N   0,H  15)          103.70 -0.000052    0.07    103.77   
    31. A(N   0,C   1,H  17)          112.25 -0.000033    0.01    112.26   
    32. A(N   0,C   1,C   2)          106.80  0.000004    0.02    106.82   
    33. A(C   2,C   1,H  16)          105.52 -0.000048    0.04    105.57   
    34. A(N   0,C   1,H  16)          110.58  0.000100   -0.09    110.49   
    35. A(C   2,C   1,H  17)          111.64  0.000044   -0.03    111.61   
    36. A(H  16,C   1,H  17)          109.82 -0.000064    0.04    109.86   
    37. A(C   1,C   2,N   4)          116.02 -0.000110    0.01    116.03   
    38. A(C   1,C   2,O   3)          118.92  0.000015    0.01    118.93   
    39. A(O   3,C   2,N   4)          125.05  0.000095   -0.02    125.04   
    40. A(C   2,N   4,H  18)          119.03 -0.000030   -0.03    119.00   
    41. A(C   2,N   4,C   5)          121.23  0.000089    0.02    121.25   
    42. A(C   5,N   4,H  18)          117.45 -0.000059   -0.01    117.44   
    43. A(N   4,C   5,H  20)          109.94  0.000003    0.00    109.94   
    44. A(C   6,C   5,H  19)          106.37  0.000029   -0.05    106.33   
    45. A(N   4,C   5,H  19)          109.46 -0.000059   -0.01    109.45   
    46. A(N   4,C   5,C   6)          113.07 -0.000000    0.03    113.10   
    47. A(H  19,C   5,H  20)          108.86  0.000000    0.02    108.88   
    48. A(C   6,C   5,H  20)          109.00  0.000027    0.00    109.01   
    49. A(C   5,C   6,O   7)          121.08  0.000031   -0.03    121.05   
    50. A(O   7,C   6,N   8)          124.37 -0.000018    0.00    124.37   
    51. A(C   5,C   6,N   8)          114.50 -0.000014    0.03    114.53   
    52. A(C   6,N   8,C   9)          124.68  0.000058    0.01    124.69   
    53. A(C   9,N   8,H  21)          108.36  0.000186   -0.09    108.27   
    54. A(C   6,N   8,H  21)          118.18 -0.000248    0.09    118.28   
    55. A(H  22,C   9,H  23)          108.66 -0.000061    0.01    108.68   
    56. A(N   8,C   9,C  10)          107.38  0.000110   -0.06    107.32   
    57. A(C  10,C   9,H  23)          108.37  0.000016   -0.03    108.34   
    58. A(N   8,C   9,H  23)          111.68  0.000070    0.01    111.69   
    59. A(C  10,C   9,H  22)          109.72  0.000044   -0.01    109.70   
    60. A(N   8,C   9,H  22)          110.98 -0.000173    0.09    111.07   
    61. A(O  11,C  10,O  12)          127.23  0.000016    0.00    127.24   
    62. A(C   9,C  10,O  12)          117.35 -0.000074    0.02    117.37   
    63. A(C   9,C  10,O  11)          115.41  0.000058   -0.02    115.39   
    64. D(H  16,C   1,N   0,H  15)   -101.79 -0.000045    0.17   -101.62   
    65. D(C   2,C   1,N   0,H  15)     12.53 -0.000049    0.18     12.72   
    66. D(H  16,C   1,N   0,H  13)     16.02  0.000009    0.14     16.17   
    67. D(H  16,C   1,N   0,H  14)    140.91 -0.000027    0.15    141.05   
    68. D(C   2,C   1,N   0,H  14)   -104.77 -0.000031    0.16   -104.60   
    69. D(C   2,C   1,N   0,H  13)    130.35  0.000005    0.16    130.51   
    70. D(N   4,C   2,C   1,H  16)    -73.83  0.000059   -0.15    -73.98   
    71. D(N   4,C   2,C   1,N   0)    168.47 -0.000035   -0.08    168.39   
    72. D(O   3,C   2,C   1,H  17)   -133.81 -0.000036   -0.08   -133.89   
    73. D(O   3,C   2,C   1,N   0)    -10.77 -0.000047   -0.07    -10.84   
    74. D(O   3,C   2,C   1,H  16)    106.93  0.000047   -0.14    106.79   
    75. D(H  18,N   4,C   2,C   1)      4.51 -0.000015    0.07      4.57   
    76. D(C   5,N   4,C   2,O   3)    -13.89 -0.000013   -0.07    -13.96   
    77. D(H  18,N   4,C   2,O   3)   -176.31 -0.000003    0.06   -176.25   
    78. D(C   5,N   4,C   2,C   1)    166.92 -0.000025   -0.06    166.86   
    79. D(H  20,C   5,N   4,C   2)    164.79 -0.000035   -0.26    164.54   
    80. D(H  19,C   5,N   4,H  18)   -152.06 -0.000006   -0.41   -152.47   
    81. D(H  19,C   5,N   4,C   2)     45.26 -0.000000   -0.28     44.98   
    82. D(C   6,C   5,N   4,H  18)     89.55 -0.000003   -0.36     89.19   
    83. D(C   6,C   5,N   4,C   2)    -73.13  0.000003   -0.23    -73.36   
    84. D(N   8,C   6,C   5,H  19)   -145.84 -0.000004    0.55   -145.29   
    85. D(N   8,C   6,C   5,N   4)    -25.67 -0.000058    0.52    -25.15   
    86. D(O   7,C   6,C   5,H  20)    -80.65 -0.000022    0.55    -80.09   
    87. D(O   7,C   6,C   5,H  19)     36.58  0.000008    0.55     37.14   
    88. D(O   7,C   6,C   5,N   4)    156.75 -0.000046    0.53    157.28   
    89. D(H  21,N   8,C   6,O   7)   -167.02 -0.000047    0.04   -166.99   
    90. D(H  21,N   8,C   6,C   5)     15.49 -0.000036    0.04     15.54   
    91. D(C   9,N   8,C   6,O   7)    -23.40  0.000001    0.07    -23.32   
    92. D(C   9,N   8,C   6,C   5)    159.12  0.000012    0.08    159.20   
    93. D(C  10,C   9,N   8,H  21)     20.27 -0.000046   -0.17     20.09   
    94. D(C  10,C   9,N   8,C   6)   -126.32  0.000039   -0.24   -126.55   
    95. D(H  23,C   9,N   8,C   6)    115.01 -0.000089   -0.16    114.85   
    96. D(H  22,C   9,N   8,H  21)    140.18 -0.000024   -0.17    140.00   
    97. D(H  22,C   9,N   8,C   6)     -6.41  0.000061   -0.24     -6.64   
    98. D(O  12,C  10,C   9,H  22)     53.45  0.000162   -0.34     53.11   
    99. D(O  12,C  10,C   9,N   8)    174.16  0.000045   -0.28    173.88   
   100. D(O  11,C  10,C   9,H  23)    114.70  0.000053   -0.26    114.43   
   101. D(O  11,C  10,C   9,H  22)   -126.80  0.000015   -0.28   -127.08   
   102. D(O  11,C  10,C   9,N   8)     -6.09 -0.000102   -0.21     -6.30   
    ----------------------------------------------------------------------------

Geometry step timings:
Preparation and reading OPT file:      0.000 s ( 0.703 %)
Internal coordinates            :      0.000 s ( 0.773 %)
B/P matrices and projection     :      0.001 s (40.548 %)
Hessian update/contruction      :      0.000 s (10.190 %)
Making the step                 :      0.000 s (31.904 %)
Converting the step to Cartesian:      0.000 s ( 3.092 %)
Storing new data                :      0.000 s ( 0.773 %)
Checking convergence            :      0.000 s ( 0.914 %)
Final printing                  :      0.000 s (11.103 %)
Total time                      :      0.001 s

Time for energy+gradient        :      0.026 s
Time for complete geometry iter :      0.028 s

         *************************************************************
         *                GEOMETRY OPTIMIZATION CYCLE  25            *
         *************************************************************
---------------------------------
CARTESIAN COORDINATES (ANGSTROEM)
---------------------------------
  N    -2.878344   -0.932939   -1.241640
  C    -2.168987   -0.621541    0.012404
  C    -1.286822    0.598182   -0.268752
  O    -1.140535    0.969591   -1.427662
  N    -0.743428    1.187665    0.799956
  C     0.318161    2.158129    0.661997
  C     1.667121    1.526550    0.283063
  O     2.543126    2.187141   -0.264754
  N     1.802285    0.246190    0.645767
  C     2.740448   -0.675476    0.062395
  C     1.929263   -1.937135   -0.401353
  O     0.723911   -1.948124   -0.075596
  O     2.541125   -2.804777   -1.038037
  H    -2.808445   -1.922115   -1.494703
  H    -3.862091   -0.645894   -1.218857
  H    -2.377946   -0.358688   -1.960202
  H    -1.478400   -1.429684    0.272736
  H    -2.852675   -0.439472    0.838146
  H    -0.877586    0.770994    1.709931
  H     0.069951    2.857380   -0.140576
  H     0.435601    2.714932    1.590983
  H     0.962169   -0.274256    0.907759
  H     3.248252   -0.228690   -0.794859
  H     3.493846   -0.997961    0.786696

----------------------------
CARTESIAN COORDINATES (A.U.)
----------------------------
  NO LB    ZA    FRAG    MASS        X           Y           Z
   0 N   7.0000    0    14.007   -5.439281   -1.762999   -2.346360
   1 C   6.0000    0    12.011   -4.098792   -1.174542    0.023440
   2 C   6.0000    0    12.011   -2.431741    1.130399   -0.507869
   3 O   8.0000    0    15.999   -2.155298    1.832261   -2.697891
   4 N   7.0000    0    14.007   -1.404876    2.244362    1.511697
   5 C   6.0000    0    12.011    0.601237    4.078272    1.250994
   6 C   6.0000    0    12.011    3.150402    2.884762    0.534911
   7 O   8.0000    0    15.999    4.805811    4.133097   -0.500312
   8 N   7.0000    0    14.007    3.405825    0.465231    1.220323
   9 C   6.0000    0    12.011    5.178696   -1.276464    0.117910
  10 C   6.0000    0    12.011    3.645779   -3.660655   -0.758446
  11 O   8.0000    0    15.999    1.367994   -3.681422   -0.142855
  12 O   8.0000    0    15.999    4.802030   -5.300261   -1.961605
  13 H   1.0000    0     1.008   -5.307191   -3.632271   -2.824580
  14 H   1.0000    0     1.008   -7.298294   -1.220563   -2.303306
  15 H   1.0000    0     1.008   -4.493667   -0.677822   -3.704245
  16 H   1.0000    0     1.008   -2.793772   -2.701711    0.515397
  17 H   1.0000    0     1.008   -5.390774   -0.830482    1.583867
  18 H   1.0000    0     1.008   -1.658397    1.456967    3.231302
  19 H   1.0000    0     1.008    0.132188    5.399666   -0.265651
  20 H   1.0000    0     1.008    0.823167    5.130477    3.006521
  21 H   1.0000    0     1.008    1.818236   -0.518269    1.715416
  22 H   1.0000    0     1.008    6.138306   -0.432162   -1.502066
  23 H   1.0000    0     1.008    6.602412   -1.885873    1.486639

      -----------------------------------------------------------      
     |                   =====================                   |     
     |                           x T B                           |     
     |                   =====================                   |     
     |                         S. Grimme                         |     
     |          Mulliken Center for Theoretical Chemistry        |     
     |                    University of Bonn                     |     
      -----------------------------------------------------------      

   * xtb version 6.7.1 (edcfbbe) compiled by 'albert@albert-system' on 2024-07-22

   xtb is free software: you can redistribute it and/or modify it under
   the terms of the GNU Lesser General Public License as published by
   the Free Software Foundation, either version 3 of the License, or
   (at your option) any later version.
   
   xtb is distributed in the hope that it will be useful,
   but WITHOUT ANY WARRANTY; without even the implied warranty of
   MERCHANTABILITY or FITNESS FOR A PARTICULAR PURPOSE.  See the
   GNU Lesser General Public License for more details.
   
   Cite this work as:
   * C. Bannwarth, E. Caldeweyher, S. Ehlert, A. Hansen, P. Pracht,
     J. Seibert, S. Spicher, S. Grimme, WIREs Comput. Mol. Sci., 2020, 11,
     e01493. DOI: 10.1002/wcms.1493
   
   for GFN2-xTB:
   * C. Bannwarth, S. Ehlert and S. Grimme., J. Chem. Theory Comput., 2019,
     15, 1652-1671. DOI: 10.1021/acs.jctc.8b01176
   for GFN1-xTB:
   * S. Grimme, C. Bannwarth, P. Shushkov, J. Chem. Theory Comput., 2017,
     13, 1989-2009. DOI: 10.1021/acs.jctc.7b00118
   for GFN0-xTB:
   * P. Pracht, E. Caldeweyher, S. Ehlert, S. Grimme, ChemRxiv, 2019, preprint.
     DOI: 10.26434/chemrxiv.8326202.v1
   for GFN-FF:
   * S. Spicher and S. Grimme, Angew. Chem. Int. Ed., 2020, 59, 15665-15673.
     DOI: 10.1002/anie.202004239
   
   for ALPB and GBSA implicit solvation:
   * S. Ehlert, M. Stahn, S. Spicher, S. Grimme, J. Chem. Theory Comput.,
     2021, 17, 4250-4261. DOI: 10.1021/acs.jctc.1c00471
   
   for ddCOSMO and CPCM-X implicit solvation:
   * M. Stahn, S. Ehlert, S. Grimme, J. Phys. Chem. A,
     2023, XX, XXXX-XXXX. DOI: 10.1021/acs.jpca.3c04382
   
   for DFT-D4:
   * E. Caldeweyher, C. Bannwarth and S. Grimme, J. Chem. Phys., 2017,
     147, 034112. DOI: 10.1063/1.4993215
   * E. Caldeweyher, S. Ehlert, A. Hansen, H. Neugebauer, S. Spicher,
     C. Bannwarth and S. Grimme, J. Chem. Phys., 2019, 150, 154122.
     DOI: 10.1063/1.5090222
   * E. Caldeweyher, J.-M. Mewes, S. Ehlert and S. Grimme, Phys. Chem. Chem. Phys.
     2020, 22, 8499-8512. DOI: 10.1039/D0CP00502A
   
   for sTDA-xTB:
   * S. Grimme and C. Bannwarth, J. Chem. Phys., 2016, 145, 054103.
     DOI: 10.1063/1.4959605
   
   in the mass-spec context:
   * V. Asgeirsson, C. Bauer and S. Grimme, Chem. Sci., 2017, 8, 4879.
     DOI: 10.1039/c7sc00601b
   * J. Koopman and S. Grimme, ACS Omega 2019, 4, 12, 15120-15133.
     DOI: 10.1021/acsomega.9b02011
   
   for metadynamics refer to:
   * S. Grimme, J. Chem. Theory Comput., 2019, 155, 2847-2862
     DOI: 10.1021/acs.jctc.9b00143
   
   for SPH calculations refer to:
   * S. Spicher and S. Grimme, J. Chem. Theory Comput., 2021, 17, 1701-1714
     DOI: 10.1021/acs.jctc.0c01306
   
   for ONIOM refer to:
   * C. Plett, A. Katbashev, S. Ehlert, S. Grimme, M. Bursch,
     Phys. Chem. Chem. Phys., 2023, 25, 17860-17868. DOI: 10.1039/D3CP02178E
   
   for DIPRO refer to:
   * J. Kohn, N. Gildemeister, S. Grimme, D. Fazzi, A. Hansen,
     J. Chem. Phys., 2023, just accepted.
   
   for PTB refer to:
   * S. Grimme, M. Mueller, A. Hansen, J. Chem. Phys., 2023, 158, 124111.
     DOI: 10.1063/5.0137838
   
   with help from (in alphabetical order)
   P. Atkinson, C. Bannwarth, F. Bohle, G. Brandenburg, E. Caldeweyher
   M. Checinski, S. Dohm, S. Ehlert, S. Ehrlich, I. Gerasimov, C. Hölzer
   A. Katbashev, J. Kohn, J. Koopman, C. Lavigne, S. Lehtola, F. März, M. Müller,
   F. Musil, H. Neugebauer, J. Pisarek, C. Plett, P. Pracht, F. Pultar,
   J. Seibert, P. Shushkov, S. Spicher, M. Stahn, M. Steiner, T. Strunk,
   J. Stückrath, T. Rose, and J. Unsleber
   
 * started run on 2026/04/11 at 17:16:36.049     
   ID    Z sym.   atoms
    1    7 N      1, 5, 9
    2    6 C      2, 3, 6, 7, 10, 11
    3    8 O      4, 8, 12, 13
    4    1 H      14-24

           -------------------------------------------------
          |                Calculation Setup                |
           -------------------------------------------------

          program call               : /home/analima/Programs/orca-6.1.0-f.0_linux_x86-64/bin/otool_xtb geo_opt_XTB.xyz --grad -c 0 -u 0 -P 1 --namespace geo_opt --input geo_opt_XTB.input.tmp --alpb WATER --acc 0.200000
          calculation namespace      : geo_opt
          coordinate file            : geo_opt_XTB.xyz
          omp threads                :                     1


           -------------------------------------------------
          |                 G F N 2 - x T B                 |
           -------------------------------------------------

        Reference                      10.1021/acs.jctc.8b01176
      * Hamiltonian:
        H0-scaling (s, p, d)           1.850000    2.230000    2.230000
        zeta-weighting                 0.500000
      * Dispersion:
        s8                             2.700000
        a1                             0.520000
        a2                             5.000000
        s9                             5.000000
      * Repulsion:
        kExp                           1.500000    1.000000
        rExp                           1.000000
      * Coulomb:
        alpha                          2.000000
        third order                    shell-resolved
        anisotropic                    true
        a3                             3.000000
        a5                             4.000000
        cn-shift                       1.200000
        cn-exp                         4.000000
        max-rad                        5.000000

      * Solvation model:               ALPB
        Solvent                        WATER
        Parameter file                 internal GFN2-xTB/ALPB
        Dielectric constant                8.0200E+01
        Reference state                gsolv [1 M gas/solution]
        Free energy shift                  1.0808E-03 Eh       6.7819E-01 kcal/mol
        Temperature                        2.9815E+02 K
        Density                            1.0000E+00 kg/L
        Solvent mass                       1.8000E+01 g/mol
        Interaction kernel             P16
        Born radius scaling (c1)           1.4744E+00
        Born radii integrator          GBOBC
        Born offset                        0.0000E+00 a0       0.0000E+00 AA
        H-bond correction              true
        Ion screening                  false
        Surface tension                    1.0000E-05 Eh       1.5569E+01 dyn/cm
        Grid points                               230 per atom
q/qsh data taken from xtbrestart
CAMM data taken from xtbrestart

          ...................................................
          :                      SETUP                      :
          :.................................................:
          :  # basis functions                  63          :
          :  # atomic orbitals                  63          :
          :  # shells                           37          :
          :  # electrons                        74          :
          :  max. iterations                   250          :
          :  Hamiltonian                  GFN2-xTB          :
          :  restarted?                       true          :
          :  GBSA solvation                   true          :
          :  PC potential                    false          :
          :  electronic temp.          300.0000000     K    :
          :  accuracy                    0.2000000          :
          :  -> integral cutoff          0.3198970E+02      :
          :  -> integral neglect         0.2000000E-08      :
          :  -> SCF convergence          0.2000000E-06 Eh   :
          :  -> wf. convergence          0.2000000E-04 e    :
          :  Broyden damping             0.4000000          :
          :  net charge                          0          :
          :  unpaired electrons                  0          :
          ...................................................

 iter      E             dE          RMSdq      gap      omega  full diag
   1    -43.9666034 -0.439666E+02  0.206E-02    3.85       0.0  T
   2    -43.9666035 -0.791647E-07  0.120E-02    3.85       1.7  T
   3    -43.9666035 -0.126185E-07  0.937E-04    3.85      21.8  T
   4    -43.9666035 -0.793046E-08  0.406E-04    3.85      50.2  T
   5    -43.9666035 -0.306812E-09  0.193E-04    3.85     105.9  T
   6    -43.9666035 -0.105146E-09  0.571E-05    3.85     357.7  T

   *** convergence criteria satisfied after 6 iterations ***

         #    Occupation            Energy/Eh            Energy/eV
      -------------------------------------------------------------
         1        2.0000           -0.7312735             -19.8990
       ...           ...                  ...                  ...
        31        2.0000           -0.4466544             -12.1541
        32        2.0000           -0.4312678             -11.7354
        33        2.0000           -0.4196102             -11.4182
        34        2.0000           -0.4128330             -11.2338
        35        2.0000           -0.3998811             -10.8813
        36        2.0000           -0.3970705             -10.8048
        37        2.0000           -0.3738679             -10.1735 (HOMO)
        38                         -0.2324036              -6.3240 (LUMO)
        39                         -0.2192427              -5.9659
        40                         -0.1839573              -5.0057
        41                         -0.0513500              -1.3973
        42                         -0.0055261              -0.1504
       ...                                ...                  ...
        63                          0.6378350              17.3564
      -------------------------------------------------------------
                  HL-Gap            0.1414643 Eh            3.8494 eV
             Fermi-level           -0.3031358 Eh           -8.2487 eV

 SCC (total)                   0 d,  0 h,  0 min,  0.011 sec
 SCC setup                      ...        0 min,  0.000 sec (  2.890%)
 Dispersion                     ...        0 min,  0.000 sec (  0.703%)
 classical contributions        ...        0 min,  0.000 sec (  0.142%)
 integral evaluation            ...        0 min,  0.001 sec ( 11.650%)
 iterations                     ...        0 min,  0.005 sec ( 49.553%)
 molecular gradient             ...        0 min,  0.004 sec ( 34.531%)
 printout                       ...        0 min,  0.000 sec (  0.454%)

         :::::::::::::::::::::::::::::::::::::::::::::::::::::
         ::                     SUMMARY                     ::
         :::::::::::::::::::::::::::::::::::::::::::::::::::::
         :: total energy             -43.540992604104 Eh    ::
         :: total w/o Gsasa/hb       -43.529677344336 Eh    ::
         :: gradient norm              0.000596842491 Eh/a0 ::
         :: HOMO-LUMO gap              3.849439290538 eV    ::
         ::.................................................::
         :: SCC energy               -43.966377729629 Eh    ::
         :: -> isotropic ES            0.315116432415 Eh    ::
         :: -> anisotropic ES         -0.023438792716 Eh    ::
         :: -> anisotropic XC          0.009006477718 Eh    ::
         :: -> dispersion             -0.019448459058 Eh    ::
         :: -> Gsolv                  -0.127114066342 Eh    ::
         ::    -> Gelec               -0.115798806574 Eh    ::
         ::    -> Gsasa                0.005024928552 Eh    ::
         ::    -> Ghb                 -0.017420948018 Eh    ::
         ::    -> Gshift               0.001080759698 Eh    ::
         :: repulsion energy           0.425385125526 Eh    ::
         :: add. restraining           0.000000000000 Eh    ::
         :: total charge               0.000000000000 e     ::
         :::::::::::::::::::::::::::::::::::::::::::::::::::::


Property printout bound to 'properties.out'

           -------------------------------------------------
          | TOTAL ENERGY              -43.540992604104 Eh   |
          | GRADIENT NORM               0.000596842491 Eh/α |
          | HOMO-LUMO GAP               3.849439290538 eV   |
           -------------------------------------------------

------------------------------------------------------------------------
 * finished run on 2026/04/11 at 17:16:36.065     
------------------------------------------------------------------------
 total:
 * wall-time:     0 d,  0 h,  0 min,  0.015 sec
 *  cpu-time:     0 d,  0 h,  0 min,  0.014 sec
 * ratio c/w:     0.898 speedup
 SCF:
 * wall-time:     0 d,  0 h,  0 min,  0.011 sec
 *  cpu-time:     0 d,  0 h,  0 min,  0.009 sec
 * ratio c/w:     0.860 speedup


-------------------------   --------------------
FINAL SINGLE POINT ENERGY       -43.540992604100
-------------------------   --------------------


-------------
DIPOLE MOMENT
-------------
                                X             Y             Z
Total Dipole Moment    :     -9.07500       0.98300       1.58300
                        -----------------------------------------
Magnitude (a.u.)       :      9.26433
Magnitude (Debye)      :     23.54805


------------------
CARTESIAN GRADIENT
------------------

   1   N   :    0.000058302    0.000011804   -0.000014136
   2   C   :   -0.000075600   -0.000116498   -0.000038815
   3   C   :    0.000024616    0.000127975   -0.000067675
   4   O   :   -0.000040088   -0.000076539    0.000057632
   5   N   :    0.000031403    0.000079068   -0.000123290
   6   C   :   -0.000052564    0.000168488    0.000222528
   7   C   :    0.000024439   -0.000125546   -0.000054586
   8   O   :   -0.000002797    0.000019439    0.000003405
   9   N   :    0.000115978   -0.000152754   -0.000096193
  10   C   :    0.000033862   -0.000022870    0.000182601
  11   C   :   -0.000136186   -0.000004945    0.000002350
  12   O   :    0.000087139    0.000014048   -0.000035906
  13   O   :    0.000037817   -0.000002959    0.000030025
  14   H   :    0.000028595   -0.000016359    0.000009654
  15   H   :   -0.000009348   -0.000019161    0.000031633
  16   H   :    0.000014453    0.000030389   -0.000023113
  17   H   :   -0.000058777   -0.000035161    0.000011596
  18   H   :    0.000030518    0.000012579    0.000018505
  19   H   :   -0.000015052   -0.000046414    0.000001043
  20   H   :    0.000003906   -0.000043605   -0.000048838
  21   H   :   -0.000042947   -0.000031078   -0.000006639
  22   H   :   -0.000086484    0.000146192    0.000021721
  23   H   :   -0.000024082    0.000082987   -0.000008018
  24   H   :    0.000052896    0.000000918   -0.000075486

Difference to translation invariance:
           :   -0.0000000000    0.0000000000    0.0000000000

Difference to rotation invariance:
           :   -0.0000509272   -0.0005088543    0.0006419367

Norm of the Cartesian gradient     ...    0.0005968425
RMS gradient                       ...    0.0000703386
MAX gradient                       ...    0.0002225279
------------------------------------------------------------------------------
                         ORCA GEOMETRY RELAXATION STEP
------------------------------------------------------------------------------

Reading the OPT-File                    .... done
Getting information on internals        .... done
Copying old internal coords+grads       .... done
Making the new internal coordinates     .... (2022 redundants) done
Validating the new internal coordinates .... (2022 redundants) done
Calculating the B-matrix                .... done
Calculating the G,G- and P matrices     .... done
Transforming gradient to internals      .... done
Projecting the internal gradient        .... done
Number of atoms                         ....  24
Number of internal coordinates          .... 102
Current Energy                          ....   -43.540992604 Eh
Current gradient norm                   ....     0.000596842 Eh/bohr
Maximum allowed component of the step   ....  0.300
Current trust radius                    ....  0.700
Updating the Hessian (BFGS)             .... done
Forming the augmented Hessian           .... done
Diagonalizing the augmented Hessian     .... done
Last element of RFO vector              ....  0.999918603
Lowest eigenvalues of augmented Hessian:
 -0.000001661  0.001002754  0.002510464  0.007283681  0.011866740
Length of the computed step             ....  0.012759867
The final length of the internal step   ....  0.012759867
Converting the step to Cartesian space:
 Initial RMS(Int)=    0.0012634151
Transforming coordinates:
 Iter   0:  RMS(Cart)=    0.0024288263 RMS(Int)=    0.0012632794
done
Storing new coordinates                 .... done
The predicted energy change is          ....    -0.000000831
Previously predicted energy change      ....    -0.000002453
Actually observed energy change         ....    -0.000003209
Ratio of predicted to observed change   ....     1.308169805
New trust radius                        ....     0.700000000

                                .--------------------.
          ----------------------|Geometry convergence|-------------------------
          Item                value                   Tolerance       Converged
          ---------------------------------------------------------------------
          Energy change      -0.0000032089            0.0000050000      YES
          RMS gradient        0.0000459193            0.0001000000      YES
          MAX gradient        0.0001684521            0.0003000000      YES
          RMS step            0.0012634151            0.0020000000      YES
          MAX step            0.0046269270            0.0040000000      NO
          -------------------------------------------------------------------------
          ........................................................
          Max(Bonds)      0.0014      Max(Angles)    0.06
          Max(Dihed)        0.27      Max(Improp)    0.00
          ---------------------------------------------------------------------

The optimization has not yet converged - more geometry cycles are needed


    ---------------------------------------------------------------------------
                         Redundant Internal Coordinates
                            (Angstroem and degrees)

        Definition                    Value    dE/dq     Step     New-Value
    ----------------------------------------------------------------------------
     1. B(C   1,N   0)                1.4740 -0.000050  0.0002    1.4742   
     2. B(C   2,C   1)                1.5313  0.000119 -0.0002    1.5311   
     3. B(O   3,C   2)                1.2257 -0.000083  0.0001    1.2258   
     4. B(N   4,C   2)                1.3360  0.000019 -0.0000    1.3360   
     5. B(C   5,N   4)                1.4449  0.000011 -0.0000    1.4449   
     6. B(C   6,C   5)                1.5369  0.000136 -0.0003    1.5367   
     7. B(O   7,C   6)                1.2263  0.000009  0.0000    1.2263   
     8. B(N   8,C   6)                1.3376 -0.000023  0.0000    1.3376   
     9. B(C   9,N   8)                1.4387 -0.000031  0.0000    1.4388   
    10. B(C  10,C   9)                1.5700  0.000020  0.0001    1.5701   
    11. B(O  11,C  10)                1.2486 -0.000090  0.0001    1.2487   
    12. B(O  12,C  10)                1.2380  0.000008 -0.0000    1.2379   
    13. B(H  13,N   0)                1.0234  0.000008 -0.0000    1.0234   
    14. B(H  14,N   0)                1.0250  0.000010 -0.0000    1.0250   
    15. B(H  15,N   0)                1.0471  0.000027 -0.0001    1.0470   
    16. B(H  15,O   3)                1.8919 -0.000020  0.0014    1.8933   
    17. B(H  16,C   1)                1.0944 -0.000011  0.0000    1.0944   
    18. B(H  17,C   1)                1.0874  0.000001 -0.0000    1.0874   
    19. B(H  18,N   4)                1.0098  0.000022 -0.0000    1.0098   
    20. B(H  19,C   5)                1.0930  0.000006  0.0000    1.0930   
    21. B(H  20,C   5)                1.0894 -0.000026  0.0000    1.0895   
    22. B(H  21,N   8)                1.0224  0.000002  0.0001    1.0225   
    23. B(H  22,C   9)                1.0920  0.000030 -0.0001    1.0919   
    24. B(H  23,C   9)                1.0937 -0.000016  0.0000    1.0937   
    25. A(H  14,N   0,H  15)          108.68  0.000012   -0.01    108.67   
    26. A(H  13,N   0,H  15)          109.13  0.000008   -0.02    109.11   
    27. A(C   1,N   0,H  13)          112.44 -0.000033   -0.00    112.44   
    28. A(C   1,N   0,H  14)          112.57 -0.000040   -0.00    112.57   
    29. A(H  13,N   0,H  14)          109.98  0.000024    0.01    109.99   
    30. A(C   1,N   0,H  15)          103.77  0.000033    0.02    103.79   
    31. A(N   0,C   1,H  17)          112.26  0.000047   -0.01    112.26   
    32. A(N   0,C   1,C   2)          106.82 -0.000018    0.02    106.83   
    33. A(C   2,C   1,H  16)          105.56  0.000042   -0.00    105.56   
    34. A(N   0,C   1,H  16)          110.49 -0.000023   -0.03    110.46   
    35. A(C   2,C   1,H  17)          111.61 -0.000043   -0.00    111.61   
    36. A(H  16,C   1,H  17)          109.86 -0.000008    0.02    109.88   
    37. A(C   1,C   2,N   4)          116.03 -0.000038    0.01    116.04   
    38. A(C   1,C   2,O   3)          118.93 -0.000028    0.01    118.94   
    39. A(O   3,C   2,N   4)          125.04  0.000066   -0.02    125.01   
    40. A(C   2,N   4,H  18)          119.00 -0.000108    0.01    119.01   
    41. A(C   2,N   4,C   5)          121.25  0.000155   -0.02    121.23   
    42. A(C   5,N   4,H  18)          117.44 -0.000045    0.01    117.44   
    43. A(N   4,C   5,H  20)          109.94 -0.000024    0.00    109.94   
    44. A(C   6,C   5,H  19)          106.33 -0.000029    0.00    106.33   
    45. A(N   4,C   5,H  19)          109.45 -0.000013    0.01    109.45   
    46. A(N   4,C   5,C   6)          113.10 -0.000008    0.01    113.12   
    47. A(H  19,C   5,H  20)          108.88  0.000030   -0.01    108.87   
    48. A(C   6,C   5,H  20)          109.01  0.000046   -0.01    108.99   
    49. A(C   5,C   6,O   7)          121.05 -0.000035   -0.00    121.04   
    50. A(O   7,C   6,N   8)          124.37 -0.000010   -0.00    124.37   
    51. A(C   5,C   6,N   8)          114.53  0.000045    0.01    114.54   
    52. A(C   6,N   8,C   9)          124.69 -0.000035    0.00    124.69   
    53. A(C   9,N   8,H  21)          108.28  0.000168   -0.05    108.22   
    54. A(C   6,N   8,H  21)          118.28 -0.000141    0.06    118.33   
    55. A(H  22,C   9,H  23)          108.68 -0.000043    0.02    108.69   
    56. A(N   8,C   9,C  10)          107.32  0.000020   -0.02    107.30   
    57. A(C  10,C   9,H  23)          108.34 -0.000002   -0.02    108.31   
    58. A(N   8,C   9,H  23)          111.69  0.000087   -0.03    111.66   
    59. A(C  10,C   9,H  22)          109.71  0.000022   -0.00    109.70   
    60. A(N   8,C   9,H  22)          111.07 -0.000082    0.06    111.12   
    61. A(O  11,C  10,O  12)          127.24  0.000021   -0.00    127.23   
    62. A(C   9,C  10,O  12)          117.37 -0.000033    0.01    117.39   
    63. A(C   9,C  10,O  11)          115.39  0.000012   -0.01    115.38   
    64. D(H  16,C   1,N   0,H  15)   -101.63 -0.000029    0.11   -101.51   
    65. D(C   2,C   1,N   0,H  15)     12.72 -0.000000    0.11     12.82   
    66. D(H  16,C   1,N   0,H  13)     16.17 -0.000017    0.10     16.27   
    67. D(H  16,C   1,N   0,H  14)    141.05 -0.000043    0.11    141.17   
    68. D(C   2,C   1,N   0,H  14)   -104.60 -0.000014    0.10   -104.50   
    69. D(C   2,C   1,N   0,H  13)    130.51  0.000012    0.09    130.60   
    70. D(N   4,C   2,C   1,H  16)    -73.98 -0.000002   -0.06    -74.04   
    71. D(N   4,C   2,C   1,N   0)    168.39  0.000011   -0.03    168.36   
    72. D(O   3,C   2,C   1,H  17)   -133.89 -0.000014   -0.03   -133.93   
    73. D(O   3,C   2,C   1,N   0)    -10.84  0.000007   -0.03    -10.87   
    74. D(O   3,C   2,C   1,H  16)    106.79 -0.000007   -0.06    106.73   
    75. D(H  18,N   4,C   2,C   1)      4.57 -0.000003    0.01      4.58   
    76. D(C   5,N   4,C   2,O   3)    -13.96 -0.000000   -0.01    -13.97   
    77. D(H  18,N   4,C   2,O   3)   -176.25  0.000001    0.01   -176.24   
    78. D(C   5,N   4,C   2,C   1)    166.86 -0.000005   -0.01    166.85   
    79. D(H  20,C   5,N   4,C   2)    164.54 -0.000007   -0.07    164.47   
    80. D(H  19,C   5,N   4,H  18)   -152.47 -0.000034   -0.07   -152.54   
    81. D(H  19,C   5,N   4,C   2)     44.98 -0.000021   -0.06     44.92   
    82. D(C   6,C   5,N   4,H  18)     89.19  0.000017   -0.09     89.10   
    83. D(C   6,C   5,N   4,C   2)    -73.36  0.000030   -0.08    -73.44   
    84. D(N   8,C   6,C   5,H  19)   -145.29  0.000012    0.14   -145.15   
    85. D(N   8,C   6,C   5,N   4)    -25.15 -0.000028    0.16    -24.98   
    86. D(O   7,C   6,C   5,H  20)    -80.09 -0.000020    0.16    -79.93   
    87. D(O   7,C   6,C   5,H  19)     37.14  0.000023    0.14     37.28   
    88. D(O   7,C   6,C   5,N   4)    157.28 -0.000017    0.16    157.44   
    89. D(H  21,N   8,C   6,O   7)   -166.98 -0.000030    0.03   -166.95   
    90. D(H  21,N   8,C   6,C   5)     15.54 -0.000017    0.03     15.57   
    91. D(C   9,N   8,C   6,O   7)    -23.33  0.000012    0.01    -23.31   
    92. D(C   9,N   8,C   6,C   5)    159.19  0.000024    0.01    159.21   
    93. D(C  10,C   9,N   8,H  21)     20.10 -0.000021    0.01     20.11   
    94. D(C  10,C   9,N   8,C   6)   -126.55  0.000029    0.01   -126.54   
    95. D(H  23,C   9,N   8,C   6)    114.85 -0.000031    0.07    114.92   
    96. D(H  22,C   9,N   8,H  21)    140.01 -0.000029    0.03    140.04   
    97. D(H  22,C   9,N   8,C   6)     -6.65  0.000021    0.03     -6.62   
    98. D(O  12,C  10,C   9,H  22)     53.11  0.000071   -0.27     52.84   
    99. D(O  12,C  10,C   9,N   8)    173.88 -0.000004   -0.21    173.67   
   100. D(O  11,C  10,C   9,H  23)    114.43  0.000065   -0.24    114.19   
   101. D(O  11,C  10,C   9,H  22)   -127.08  0.000024   -0.24   -127.31   
   102. D(O  11,C  10,C   9,N   8)     -6.31 -0.000050   -0.18     -6.48   
    ----------------------------------------------------------------------------

Geometry step timings:
Preparation and reading OPT file:      0.000 s ( 1.066 %)
Internal coordinates            :      0.000 s ( 0.954 %)
B/P matrices and projection     :      0.001 s (37.205 %)
Hessian update/contruction      :      0.000 s (13.019 %)
Making the step                 :      0.001 s (29.517 %)
Converting the step to Cartesian:      0.000 s ( 3.423 %)
Storing new data                :      0.000 s ( 1.122 %)
Checking convergence            :      0.000 s ( 1.347 %)
Final printing                  :      0.000 s (12.346 %)
Total time                      :      0.002 s

Time for energy+gradient        :      0.021 s
Time for complete geometry iter :      0.023 s

         *************************************************************
         *                GEOMETRY OPTIMIZATION CYCLE  26            *
         *************************************************************
---------------------------------
CARTESIAN COORDINATES (ANGSTROEM)
---------------------------------
  N    -2.878899   -0.933289   -1.240833
  C    -2.168788   -0.621586    0.012901
  C    -1.286825    0.597961   -0.268555
  O    -1.140356    0.969202   -1.427607
  N    -0.743449    1.187997    0.799851
  C     0.318116    2.158298    0.660865
  C     1.667319    1.526648    0.283960
  O     2.544501    2.187438   -0.261766
  N     1.801539    0.245898    0.645813
  C     2.740682   -0.675455    0.063410
  C     1.929586   -1.936293   -0.403072
  O     0.724373   -1.948354   -0.076462
  O     2.540955   -2.801969   -1.042848
  H    -2.810370   -1.922802   -1.492934
  H    -3.862191   -0.644744   -1.218179
  H    -2.378034   -0.360783   -1.960251
  H    -1.478078   -1.429890    0.272469
  H    -2.852097   -0.439482    0.838916
  H    -0.877341    0.771833    1.710078
  H     0.070351    2.856369   -0.142874
  H     0.435025    2.716655    1.589030
  H     0.961235   -0.275499    0.905553
  H     3.251094   -0.228816   -0.792259
  H     3.491651   -0.999338    0.789639

----------------------------
CARTESIAN COORDINATES (A.U.)
----------------------------
  NO LB    ZA    FRAG    MASS        X           Y           Z
   0 N   7.0000    0    14.007   -5.440331   -1.763660   -2.344835
   1 C   6.0000    0    12.011   -4.098416   -1.174627    0.024380
   2 C   6.0000    0    12.011   -2.431746    1.129982   -0.507496
   3 O   8.0000    0    15.999   -2.154960    1.831526   -2.697787
   4 N   7.0000    0    14.007   -1.404916    2.244989    1.511499
   5 C   6.0000    0    12.011    0.601152    4.078593    1.248853
   6 C   6.0000    0    12.011    3.150776    2.884947    0.536606
   7 O   8.0000    0    15.999    4.808411    4.133658   -0.494666
   8 N   7.0000    0    14.007    3.404415    0.464680    1.220409
   9 C   6.0000    0    12.011    5.179137   -1.276425    0.119827
  10 C   6.0000    0    12.011    3.646390   -3.659063   -0.761695
  11 O   8.0000    0    15.999    1.368866   -3.681855   -0.144493
  12 O   8.0000    0    15.999    4.801709   -5.294954   -1.970698
  13 H   1.0000    0     1.008   -5.310830   -3.633569   -2.821236
  14 H   1.0000    0     1.008   -7.298483   -1.218389   -2.302026
  15 H   1.0000    0     1.008   -4.493833   -0.681781   -3.704338
  16 H   1.0000    0     1.008   -2.793162   -2.702100    0.514891
  17 H   1.0000    0     1.008   -5.389683   -0.830501    1.585321
  18 H   1.0000    0     1.008   -1.657933    1.458553    3.231578
  19 H   1.0000    0     1.008    0.132944    5.397756   -0.269993
  20 H   1.0000    0     1.008    0.822079    5.133735    3.002832
  21 H   1.0000    0     1.008    1.816472   -0.520618    1.711248
  22 H   1.0000    0     1.008    6.143678   -0.432399   -1.497153
  23 H   1.0000    0     1.008    6.598264   -1.888476    1.492202

      -----------------------------------------------------------      
     |                   =====================                   |     
     |                           x T B                           |     
     |                   =====================                   |     
     |                         S. Grimme                         |     
     |          Mulliken Center for Theoretical Chemistry        |     
     |                    University of Bonn                     |     
      -----------------------------------------------------------      

   * xtb version 6.7.1 (edcfbbe) compiled by 'albert@albert-system' on 2024-07-22

   xtb is free software: you can redistribute it and/or modify it under
   the terms of the GNU Lesser General Public License as published by
   the Free Software Foundation, either version 3 of the License, or
   (at your option) any later version.
   
   xtb is distributed in the hope that it will be useful,
   but WITHOUT ANY WARRANTY; without even the implied warranty of
   MERCHANTABILITY or FITNESS FOR A PARTICULAR PURPOSE.  See the
   GNU Lesser General Public License for more details.
   
   Cite this work as:
   * C. Bannwarth, E. Caldeweyher, S. Ehlert, A. Hansen, P. Pracht,
     J. Seibert, S. Spicher, S. Grimme, WIREs Comput. Mol. Sci., 2020, 11,
     e01493. DOI: 10.1002/wcms.1493
   
   for GFN2-xTB:
   * C. Bannwarth, S. Ehlert and S. Grimme., J. Chem. Theory Comput., 2019,
     15, 1652-1671. DOI: 10.1021/acs.jctc.8b01176
   for GFN1-xTB:
   * S. Grimme, C. Bannwarth, P. Shushkov, J. Chem. Theory Comput., 2017,
     13, 1989-2009. DOI: 10.1021/acs.jctc.7b00118
   for GFN0-xTB:
   * P. Pracht, E. Caldeweyher, S. Ehlert, S. Grimme, ChemRxiv, 2019, preprint.
     DOI: 10.26434/chemrxiv.8326202.v1
   for GFN-FF:
   * S. Spicher and S. Grimme, Angew. Chem. Int. Ed., 2020, 59, 15665-15673.
     DOI: 10.1002/anie.202004239
   
   for ALPB and GBSA implicit solvation:
   * S. Ehlert, M. Stahn, S. Spicher, S. Grimme, J. Chem. Theory Comput.,
     2021, 17, 4250-4261. DOI: 10.1021/acs.jctc.1c00471
   
   for ddCOSMO and CPCM-X implicit solvation:
   * M. Stahn, S. Ehlert, S. Grimme, J. Phys. Chem. A,
     2023, XX, XXXX-XXXX. DOI: 10.1021/acs.jpca.3c04382
   
   for DFT-D4:
   * E. Caldeweyher, C. Bannwarth and S. Grimme, J. Chem. Phys., 2017,
     147, 034112. DOI: 10.1063/1.4993215
   * E. Caldeweyher, S. Ehlert, A. Hansen, H. Neugebauer, S. Spicher,
     C. Bannwarth and S. Grimme, J. Chem. Phys., 2019, 150, 154122.
     DOI: 10.1063/1.5090222
   * E. Caldeweyher, J.-M. Mewes, S. Ehlert and S. Grimme, Phys. Chem. Chem. Phys.
     2020, 22, 8499-8512. DOI: 10.1039/D0CP00502A
   
   for sTDA-xTB:
   * S. Grimme and C. Bannwarth, J. Chem. Phys., 2016, 145, 054103.
     DOI: 10.1063/1.4959605
   
   in the mass-spec context:
   * V. Asgeirsson, C. Bauer and S. Grimme, Chem. Sci., 2017, 8, 4879.
     DOI: 10.1039/c7sc00601b
   * J. Koopman and S. Grimme, ACS Omega 2019, 4, 12, 15120-15133.
     DOI: 10.1021/acsomega.9b02011
   
   for metadynamics refer to:
   * S. Grimme, J. Chem. Theory Comput., 2019, 155, 2847-2862
     DOI: 10.1021/acs.jctc.9b00143
   
   for SPH calculations refer to:
   * S. Spicher and S. Grimme, J. Chem. Theory Comput., 2021, 17, 1701-1714
     DOI: 10.1021/acs.jctc.0c01306
   
   for ONIOM refer to:
   * C. Plett, A. Katbashev, S. Ehlert, S. Grimme, M. Bursch,
     Phys. Chem. Chem. Phys., 2023, 25, 17860-17868. DOI: 10.1039/D3CP02178E
   
   for DIPRO refer to:
   * J. Kohn, N. Gildemeister, S. Grimme, D. Fazzi, A. Hansen,
     J. Chem. Phys., 2023, just accepted.
   
   for PTB refer to:
   * S. Grimme, M. Mueller, A. Hansen, J. Chem. Phys., 2023, 158, 124111.
     DOI: 10.1063/5.0137838
   
   with help from (in alphabetical order)
   P. Atkinson, C. Bannwarth, F. Bohle, G. Brandenburg, E. Caldeweyher
   M. Checinski, S. Dohm, S. Ehlert, S. Ehrlich, I. Gerasimov, C. Hölzer
   A. Katbashev, J. Kohn, J. Koopman, C. Lavigne, S. Lehtola, F. März, M. Müller,
   F. Musil, H. Neugebauer, J. Pisarek, C. Plett, P. Pracht, F. Pultar,
   J. Seibert, P. Shushkov, S. Spicher, M. Stahn, M. Steiner, T. Strunk,
   J. Stückrath, T. Rose, and J. Unsleber
   
 * started run on 2026/04/11 at 17:16:36.073     
   ID    Z sym.   atoms
    1    7 N      1, 5, 9
    2    6 C      2, 3, 6, 7, 10, 11
    3    8 O      4, 8, 12, 13
    4    1 H      14-24

           -------------------------------------------------
          |                Calculation Setup                |
           -------------------------------------------------

          program call               : /home/analima/Programs/orca-6.1.0-f.0_linux_x86-64/bin/otool_xtb geo_opt_XTB.xyz --grad -c 0 -u 0 -P 1 --namespace geo_opt --input geo_opt_XTB.input.tmp --alpb WATER --acc 0.200000
          calculation namespace      : geo_opt
          coordinate file            : geo_opt_XTB.xyz
          omp threads                :                     1


           -------------------------------------------------
          |                 G F N 2 - x T B                 |
           -------------------------------------------------

        Reference                      10.1021/acs.jctc.8b01176
      * Hamiltonian:
        H0-scaling (s, p, d)           1.850000    2.230000    2.230000
        zeta-weighting                 0.500000
      * Dispersion:
        s8                             2.700000
        a1                             0.520000
        a2                             5.000000
        s9                             5.000000
      * Repulsion:
        kExp                           1.500000    1.000000
        rExp                           1.000000
      * Coulomb:
        alpha                          2.000000
        third order                    shell-resolved
        anisotropic                    true
        a3                             3.000000
        a5                             4.000000
        cn-shift                       1.200000
        cn-exp                         4.000000
        max-rad                        5.000000

      * Solvation model:               ALPB
        Solvent                        WATER
        Parameter file                 internal GFN2-xTB/ALPB
        Dielectric constant                8.0200E+01
        Reference state                gsolv [1 M gas/solution]
        Free energy shift                  1.0808E-03 Eh       6.7819E-01 kcal/mol
        Temperature                        2.9815E+02 K
        Density                            1.0000E+00 kg/L
        Solvent mass                       1.8000E+01 g/mol
        Interaction kernel             P16
        Born radius scaling (c1)           1.4744E+00
        Born radii integrator          GBOBC
        Born offset                        0.0000E+00 a0       0.0000E+00 AA
        H-bond correction              true
        Ion screening                  false
        Surface tension                    1.0000E-05 Eh       1.5569E+01 dyn/cm
        Grid points                               230 per atom
q/qsh data taken from xtbrestart
CAMM data taken from xtbrestart

          ...................................................
          :                      SETUP                      :
          :.................................................:
          :  # basis functions                  63          :
          :  # atomic orbitals                  63          :
          :  # shells                           37          :
          :  # electrons                        74          :
          :  max. iterations                   250          :
          :  Hamiltonian                  GFN2-xTB          :
          :  restarted?                       true          :
          :  GBSA solvation                   true          :
          :  PC potential                    false          :
          :  electronic temp.          300.0000000     K    :
          :  accuracy                    0.2000000          :
          :  -> integral cutoff          0.3198970E+02      :
          :  -> integral neglect         0.2000000E-08      :
          :  -> SCF convergence          0.2000000E-06 Eh   :
          :  -> wf. convergence          0.2000000E-04 e    :
          :  Broyden damping             0.4000000          :
          :  net charge                          0          :
          :  unpaired electrons                  0          :
          ...................................................

 iter      E             dE          RMSdq      gap      omega  full diag
   1    -43.9665881 -0.439666E+02  0.834E-03    3.85       0.0  T
   2    -43.9665881 -0.222172E-07  0.484E-03    3.85       4.2  T
   3    -43.9665881 -0.215240E-08  0.471E-04    3.85      43.4  T
   4    -43.9665881 -0.159918E-08  0.176E-04    3.85     115.7  T
   5    -43.9665881 -0.870202E-10  0.902E-05    3.85     226.3  T

   *** convergence criteria satisfied after 5 iterations ***

         #    Occupation            Energy/Eh            Energy/eV
      -------------------------------------------------------------
         1        2.0000           -0.7312250             -19.8976
       ...           ...                  ...                  ...
        31        2.0000           -0.4466435             -12.1538
        32        2.0000           -0.4312231             -11.7342
        33        2.0000           -0.4196234             -11.4185
        34        2.0000           -0.4128541             -11.2343
        35        2.0000           -0.3999016             -10.8819
        36        2.0000           -0.3970541             -10.8044
        37        2.0000           -0.3738762             -10.1737 (HOMO)
        38                         -0.2324061              -6.3241 (LUMO)
        39                         -0.2192157              -5.9652
        40                         -0.1839962              -5.0068
        41                         -0.0514656              -1.4004
        42                         -0.0054808              -0.1491
       ...                                ...                  ...
        63                          0.6376954              17.3526
      -------------------------------------------------------------
                  HL-Gap            0.1414701 Eh            3.8496 eV
             Fermi-level           -0.3031411 Eh           -8.2489 eV

 SCC (total)                   0 d,  0 h,  0 min,  0.010 sec
 SCC setup                      ...        0 min,  0.000 sec (  3.692%)
 Dispersion                     ...        0 min,  0.000 sec (  0.878%)
 classical contributions        ...        0 min,  0.000 sec (  0.195%)
 integral evaluation            ...        0 min,  0.001 sec ( 13.035%)
 iterations                     ...        0 min,  0.004 sec ( 44.155%)
 molecular gradient             ...        0 min,  0.004 sec ( 37.463%)
 printout                       ...        0 min,  0.000 sec (  0.489%)

         :::::::::::::::::::::::::::::::::::::::::::::::::::::
         ::                     SUMMARY                     ::
         :::::::::::::::::::::::::::::::::::::::::::::::::::::
         :: total energy             -43.540993744982 Eh    ::
         :: total w/o Gsasa/hb       -43.529674752619 Eh    ::
         :: gradient norm              0.000396243078 Eh/a0 ::
         :: HOMO-LUMO gap              3.849596780495 eV    ::
         ::.................................................::
         :: SCC energy               -43.966362498122 Eh    ::
         :: -> isotropic ES            0.315173106828 Eh    ::
         :: -> anisotropic ES         -0.023445147934 Eh    ::
         :: -> anisotropic XC          0.009007736647 Eh    ::
         :: -> dispersion             -0.019448462323 Eh    ::
         :: -> Gsolv                  -0.127152085311 Eh    ::
         ::    -> Gelec               -0.115833092949 Eh    ::
         ::    -> Gsasa                0.005025980667 Eh    ::
         ::    -> Ghb                 -0.017425732727 Eh    ::
         ::    -> Gshift               0.001080759698 Eh    ::
         :: repulsion energy           0.425368753140 Eh    ::
         :: add. restraining           0.000000000000 Eh    ::
         :: total charge              -0.000000000000 e     ::
         :::::::::::::::::::::::::::::::::::::::::::::::::::::


Property printout bound to 'properties.out'

           -------------------------------------------------
          | TOTAL ENERGY              -43.540993744982 Eh   |
          | GRADIENT NORM               0.000396243078 Eh/α |
          | HOMO-LUMO GAP               3.849596780495 eV   |
           -------------------------------------------------

------------------------------------------------------------------------
 * finished run on 2026/04/11 at 17:16:36.091     
------------------------------------------------------------------------
 total:
 * wall-time:     0 d,  0 h,  0 min,  0.018 sec
 *  cpu-time:     0 d,  0 h,  0 min,  0.014 sec
 * ratio c/w:     0.786 speedup
 SCF:
 * wall-time:     0 d,  0 h,  0 min,  0.010 sec
 *  cpu-time:     0 d,  0 h,  0 min,  0.008 sec
 * ratio c/w:     0.857 speedup


-------------------------   --------------------
FINAL SINGLE POINT ENERGY       -43.540993744980
-------------------------   --------------------


-------------
DIPOLE MOMENT
-------------
                                X             Y             Z
Total Dipole Moment    :     -9.07800       0.97800       1.58600
                        -----------------------------------------
Magnitude (a.u.)       :      9.26725
Magnitude (Debye)      :     23.55548


------------------
CARTESIAN GRADIENT
------------------

   1   N   :    0.000009807    0.000003232   -0.000059392
   2   C   :   -0.000016403   -0.000036470    0.000051080
   3   C   :   -0.000012436    0.000031428    0.000112872
   4   O   :   -0.000007850   -0.000007778   -0.000040870
   5   N   :    0.000030644    0.000059476   -0.000102083
   6   C   :   -0.000002730    0.000110406    0.000113436
   7   C   :   -0.000022171   -0.000013660   -0.000024472
   8   O   :   -0.000012836    0.000019483   -0.000002242
   9   N   :    0.000028358   -0.000163399   -0.000017399
  10   C   :    0.000071550    0.000094996    0.000099274
  11   C   :   -0.000037232   -0.000048590    0.000031751
  12   O   :    0.000002681    0.000018570   -0.000022231
  13   O   :    0.000022229   -0.000000768   -0.000007976
  14   H   :    0.000044736    0.000000829   -0.000008139
  15   H   :    0.000006671   -0.000015210    0.000023141
  16   H   :   -0.000006157   -0.000028046   -0.000021187
  17   H   :   -0.000053762   -0.000049349   -0.000029538
  18   H   :    0.000032488    0.000035223    0.000002636
  19   H   :   -0.000021068   -0.000044895   -0.000010562
  20   H   :    0.000022608   -0.000031181   -0.000044123
  21   H   :   -0.000031476   -0.000032255   -0.000002065
  22   H   :   -0.000054884    0.000082081    0.000016584
  23   H   :   -0.000009023    0.000021600   -0.000013981
  24   H   :    0.000016255   -0.000005722   -0.000044513

Difference to translation invariance:
           :   -0.0000000000    0.0000000000    0.0000000000

Difference to rotation invariance:
           :   -0.0000533414   -0.0005023624    0.0006264207

Norm of the Cartesian gradient     ...    0.0003962431
RMS gradient                       ...    0.0000466977
MAX gradient                       ...    0.0001633990
------------------------------------------------------------------------------
                         ORCA GEOMETRY RELAXATION STEP
------------------------------------------------------------------------------

Reading the OPT-File                    .... done
Getting information on internals        .... done
Copying old internal coords+grads       .... done
Making the new internal coordinates     .... (2022 redundants) done
Validating the new internal coordinates .... (2022 redundants) done
Calculating the B-matrix                .... done
Calculating the G,G- and P matrices     .... done
Transforming gradient to internals      .... done
Projecting the internal gradient        .... done
Number of atoms                         ....  24
Number of internal coordinates          .... 102
Current Energy                          ....   -43.540993745 Eh
Current gradient norm                   ....     0.000396243 Eh/bohr
Maximum allowed component of the step   ....  0.300
Current trust radius                    ....  0.700
Updating the Hessian (BFGS)             .... done
Forming the augmented Hessian           .... done
Diagonalizing the augmented Hessian     .... done
Last element of RFO vector              ....  0.999959598
Lowest eigenvalues of augmented Hessian:
 -0.000000810  0.001012842  0.002378262  0.006213247  0.011594338
Length of the computed step             ....  0.008989398
The final length of the internal step   ....  0.008989398
Converting the step to Cartesian space:
 Initial RMS(Int)=    0.0008900831
Transforming coordinates:
 Iter   0:  RMS(Cart)=    0.0015576031 RMS(Int)=    0.0008899893
done
Storing new coordinates                 .... done
The predicted energy change is          ....    -0.000000405
Previously predicted energy change      ....    -0.000000831
Actually observed energy change         ....    -0.000001141
Ratio of predicted to observed change   ....     1.373571889
New trust radius                        ....     0.700000000

                                .--------------------.
          ----------------------|Geometry convergence|-------------------------
          Item                value                   Tolerance       Converged
          ---------------------------------------------------------------------
          Energy change      -0.0000011409            0.0000050000      YES
          RMS gradient        0.0000306474            0.0001000000      YES
          MAX gradient        0.0001188341            0.0003000000      YES
          RMS step            0.0008900831            0.0020000000      YES
          MAX step            0.0032929541            0.0040000000      YES
          -------------------------------------------------------------------------
          ........................................................
          Max(Bonds)      0.0007      Max(Angles)    0.04
          Max(Dihed)        0.19      Max(Improp)    0.00
          ---------------------------------------------------------------------

                    ***********************HURRAY********************
                    ***        THE OPTIMIZATION HAS CONVERGED     ***
                    *************************************************


    ---------------------------------------------------------------------------
                         Redundant Internal Coordinates

                          --- Optimized Parameters ---  
                            (Angstroem and degrees)

        Definition                    OldVal   dE/dq     Step     FinalVal
    ----------------------------------------------------------------------------
     1. B(C   1,N   0)                1.4742  0.000021  0.0000    1.4742   
     2. B(C   2,C   1)                1.5311  0.000042 -0.0002    1.5310   
     3. B(O   3,C   2)                1.2258  0.000034  0.0000    1.2259   
     4. B(N   4,C   2)                1.3360 -0.000033  0.0000    1.3360   
     5. B(C   5,N   4)                1.4449  0.000006 -0.0000    1.4449   
     6. B(C   6,C   5)                1.5367  0.000018 -0.0002    1.5365   
     7. B(O   7,C   6)                1.2263  0.000004  0.0000    1.2263   
     8. B(N   8,C   6)                1.3376  0.000037 -0.0000    1.3376   
     9. B(C   9,N   8)                1.4388 -0.000008  0.0000    1.4388   
    10. B(C  10,C   9)                1.5701  0.000049 -0.0000    1.5701   
    11. B(O  11,C  10)                1.2487 -0.000006  0.0001    1.2488   
    12. B(O  12,C  10)                1.2379  0.000018 -0.0000    1.2379   
    13. B(H  13,N   0)                1.0234 -0.000003  0.0000    1.0234   
    14. B(H  14,N   0)                1.0250 -0.000005  0.0000    1.0250   
    15. B(H  15,N   0)                1.0470 -0.000005 -0.0001    1.0469   
    16. B(H  15,O   3)                1.8933  0.000002  0.0007    1.8940   
    17. B(H  16,C   1)                1.0944 -0.000007  0.0000    1.0945   
    18. B(H  17,C   1)                1.0874 -0.000008  0.0000    1.0874   
    19. B(H  18,N   4)                1.0098  0.000012 -0.0000    1.0097   
    20. B(H  19,C   5)                1.0930  0.000006 -0.0000    1.0930   
    21. B(H  20,C   5)                1.0895 -0.000022  0.0001    1.0895   
    22. B(H  21,N   8)                1.0225  0.000007  0.0000    1.0225   
    23. B(H  22,C   9)                1.0919  0.000017 -0.0001    1.0918   
    24. B(H  23,C   9)                1.0937 -0.000019  0.0000    1.0938   
    25. A(H  14,N   0,H  15)          108.67  0.000009   -0.01    108.66   
    26. A(H  13,N   0,H  15)          109.11 -0.000021   -0.00    109.11   
    27. A(C   1,N   0,H  13)          112.44 -0.000027    0.01    112.45   
    28. A(C   1,N   0,H  14)          112.57 -0.000030    0.00    112.57   
    29. A(H  13,N   0,H  14)          109.99  0.000027   -0.00    109.99   
    30. A(C   1,N   0,H  15)          103.79  0.000043   -0.00    103.79   
    31. A(N   0,C   1,H  17)          112.26  0.000057   -0.02    112.24   
    32. A(N   0,C   1,C   2)          106.83 -0.000015    0.01    106.84   
    33. A(C   2,C   1,H  16)          105.56  0.000055   -0.02    105.55   
    34. A(N   0,C   1,H  16)          110.46 -0.000055    0.00    110.46   
    35. A(C   2,C   1,H  17)          111.61 -0.000066    0.01    111.62   
    36. A(H  16,C   1,H  17)          109.88  0.000021    0.00    109.89   
    37. A(C   1,C   2,N   4)          116.04  0.000005    0.00    116.05   
    38. A(C   1,C   2,O   3)          118.94 -0.000030    0.01    118.95   
    39. A(O   3,C   2,N   4)          125.01  0.000025   -0.01    125.00   
    40. A(C   2,N   4,H  18)          119.01 -0.000090    0.03    119.03   
    41. A(C   2,N   4,C   5)          121.23  0.000103   -0.03    121.20   
    42. A(C   5,N   4,H  18)          117.44 -0.000011    0.01    117.45   
    43. A(N   4,C   5,H  20)          109.94 -0.000024    0.00    109.94   
    44. A(C   6,C   5,H  19)          106.33 -0.000041    0.02    106.35   
    45. A(N   4,C   5,H  19)          109.46  0.000013    0.01    109.46   
    46. A(N   4,C   5,C   6)          113.12 -0.000005    0.01    113.13   
    47. A(H  19,C   5,H  20)          108.87  0.000027   -0.02    108.85   
    48. A(C   6,C   5,H  20)          108.99  0.000032   -0.02    108.97   
    49. A(C   5,C   6,O   7)          121.04 -0.000045    0.01    121.05   
    50. A(O   7,C   6,N   8)          124.37 -0.000005   -0.00    124.37   
    51. A(C   5,C   6,N   8)          114.54  0.000051   -0.01    114.53   
    52. A(C   6,N   8,C   9)          124.69 -0.000069    0.01    124.70   
    53. A(C   9,N   8,H  21)          108.22  0.000119   -0.04    108.18   
    54. A(C   6,N   8,H  21)          118.33 -0.000058    0.04    118.37   
    55. A(H  22,C   9,H  23)          108.69 -0.000016    0.01    108.71   
    56. A(N   8,C   9,C  10)          107.30 -0.000009   -0.01    107.29   
    57. A(C  10,C   9,H  23)          108.31 -0.000007   -0.01    108.30   
    58. A(N   8,C   9,H  23)          111.66  0.000049   -0.04    111.62   
    59. A(C  10,C   9,H  22)          109.70 -0.000001    0.00    109.71   
    60. A(N   8,C   9,H  22)          111.13 -0.000016    0.03    111.16   
    61. A(O  11,C  10,O  12)          127.23  0.000011   -0.00    127.23   
    62. A(C   9,C  10,O  12)          117.39 -0.000011    0.01    117.39   
    63. A(C   9,C  10,O  11)          115.38  0.000000   -0.00    115.38   
    64. D(H  16,C   1,N   0,H  15)   -101.51 -0.000014    0.09   -101.42   
    65. D(C   2,C   1,N   0,H  15)     12.82  0.000015    0.08     12.90   
    66. D(H  16,C   1,N   0,H  13)     16.27 -0.000027    0.10     16.36   
    67. D(H  16,C   1,N   0,H  14)    141.17 -0.000036    0.10    141.27   
    68. D(C   2,C   1,N   0,H  14)   -104.50 -0.000007    0.09   -104.41   
    69. D(C   2,C   1,N   0,H  13)    130.60  0.000002    0.08    130.68   
    70. D(N   4,C   2,C   1,H  16)    -74.04 -0.000019   -0.03    -74.07   
    71. D(N   4,C   2,C   1,N   0)    168.36  0.000025   -0.03    168.32   
    72. D(O   3,C   2,C   1,H  17)   -133.93  0.000003   -0.03   -133.96   
    73. D(O   3,C   2,C   1,N   0)    -10.87  0.000023   -0.03    -10.91   
    74. D(O   3,C   2,C   1,H  16)    106.73 -0.000020   -0.04    106.69   
    75. D(H  18,N   4,C   2,C   1)      4.58 -0.000001   -0.01      4.57   
    76. D(C   5,N   4,C   2,O   3)    -13.97  0.000004    0.01    -13.97   
    77. D(H  18,N   4,C   2,O   3)   -176.24  0.000001   -0.01   -176.25   
    78. D(C   5,N   4,C   2,C   1)    166.85  0.000003    0.00    166.86   
    79. D(H  20,C   5,N   4,C   2)    164.47  0.000006   -0.02    164.44   
    80. D(H  19,C   5,N   4,H  18)   -152.54 -0.000031    0.01   -152.52   
    81. D(H  19,C   5,N   4,C   2)     44.92 -0.000021   -0.00     44.92   
    82. D(C   6,C   5,N   4,H  18)     89.10  0.000015   -0.02     89.08   
    83. D(C   6,C   5,N   4,C   2)    -73.44  0.000026   -0.04    -73.48   
    84. D(N   8,C   6,C   5,H  19)   -145.15  0.000011    0.04   -145.11   
    85. D(N   8,C   6,C   5,N   4)    -24.98 -0.000003    0.07    -24.92   
    86. D(O   7,C   6,C   5,H  20)    -79.93 -0.000016    0.07    -79.86   
    87. D(O   7,C   6,C   5,H  19)     37.28  0.000010    0.05     37.33   
    88. D(O   7,C   6,C   5,N   4)    157.44 -0.000004    0.08    157.52   
    89. D(H  21,N   8,C   6,O   7)   -166.95 -0.000012    0.01   -166.94   
    90. D(H  21,N   8,C   6,C   5)     15.57 -0.000013    0.02     15.59   
    91. D(C   9,N   8,C   6,O   7)    -23.32  0.000013   -0.00    -23.32   
    92. D(C   9,N   8,C   6,C   5)    159.20  0.000013    0.01    159.21   
    93. D(C  10,C   9,N   8,H  21)     20.12 -0.000009    0.06     20.18   
    94. D(C  10,C   9,N   8,C   6)   -126.54  0.000015    0.06   -126.48   
    95. D(H  23,C   9,N   8,C   6)    114.92  0.000001    0.10    115.02   
    96. D(H  22,C   9,N   8,H  21)    140.04 -0.000025    0.09    140.13   
    97. D(H  22,C   9,N   8,C   6)     -6.62 -0.000001    0.08     -6.54   
    98. D(O  12,C  10,C   9,H  22)     52.84  0.000007   -0.18     52.67   
    99. D(O  12,C  10,C   9,N   8)    173.67 -0.000018   -0.14    173.54   
   100. D(O  11,C  10,C   9,H  23)    114.19  0.000045   -0.19    114.00   
   101. D(O  11,C  10,C   9,H  22)   -127.31  0.000021   -0.18   -127.49   
   102. D(O  11,C  10,C   9,N   8)     -6.48 -0.000005   -0.14     -6.62   
    ----------------------------------------------------------------------------

Geometry step timings:
Preparation and reading OPT file:      0.000 s ( 0.838 %)
Internal coordinates            :      0.000 s ( 1.006 %)
B/P matrices and projection     :      0.001 s (38.290 %)
Hessian update/contruction      :      0.000 s (11.403 %)
Making the step                 :      0.001 s (29.178 %)
Converting the step to Cartesian:      0.000 s ( 3.354 %)
Storing new data                :      0.000 s ( 1.062 %)
Checking convergence            :      0.000 s ( 1.174 %)
Final printing                  :      0.000 s (13.695 %)
Total time                      :      0.002 s
                 *******************************************************
                 *** FINAL ENERGY EVALUATION AT THE STATIONARY POINT ***
                 ***               (AFTER   26 CYCLES)               ***
                 *******************************************************
---------------------------------
CARTESIAN COORDINATES (ANGSTROEM)
---------------------------------
  N    -2.879255   -0.933413   -1.240388
  C    -2.168520   -0.621814    0.013070
  C    -1.286723    0.597643   -0.268443
  O    -1.140052    0.968890   -1.427494
  N    -0.743398    1.187916    0.799905
  C     0.318009    2.158243    0.660062
  C     1.667347    1.526770    0.283958
  O     2.544959    2.187600   -0.261040
  N     1.801315    0.246010    0.645845
  C     2.740820   -0.675508    0.064170
  C     1.929593   -1.935529   -0.404180
  O     0.724514   -1.948198   -0.076897
  O     2.540542   -2.800056   -1.045881
  H    -2.812073   -1.923139   -1.492025
  H    -3.862166   -0.643556   -1.217855
  H    -2.377873   -0.361936   -1.960184
  H    -1.477476   -1.430012    0.272158
  H    -2.851646   -0.440098    0.839325
  H    -0.877198    0.772357    1.710388
  H     0.070036    2.855908   -0.143949
  H     0.434949    2.717407    1.587810
  H     0.961124   -0.275981    0.904830
  H     3.253272   -0.229061   -0.790287
  H     3.489900   -1.000442    0.791945

----------------------------
CARTESIAN COORDINATES (A.U.)
----------------------------
  NO LB    ZA    FRAG    MASS        X           Y           Z
   0 N   7.0000    0    14.007   -5.441004   -1.763894   -2.343995
   1 C   6.0000    0    12.011   -4.097908   -1.175058    0.024698
   2 C   6.0000    0    12.011   -2.431555    1.129381   -0.507283
   3 O   8.0000    0    15.999   -2.154387    1.830937   -2.697573
   4 N   7.0000    0    14.007   -1.404819    2.244836    1.511601
   5 C   6.0000    0    12.011    0.600951    4.078488    1.247336
   6 C   6.0000    0    12.011    3.150829    2.885177    0.536603
   7 O   8.0000    0    15.999    4.809275    4.133964   -0.493295
   8 N   7.0000    0    14.007    3.403991    0.464892    1.220470
   9 C   6.0000    0    12.011    5.179400   -1.276525    0.121264
  10 C   6.0000    0    12.011    3.646403   -3.657620   -0.763790
  11 O   8.0000    0    15.999    1.369133   -3.681562   -0.145314
  12 O   8.0000    0    15.999    4.800929   -5.291340   -1.976428
  13 H   1.0000    0     1.008   -5.314047   -3.634206   -2.819519
  14 H   1.0000    0     1.008   -7.298435   -1.216145   -2.301412
  15 H   1.0000    0     1.008   -4.493529   -0.683960   -3.704210
  16 H   1.0000    0     1.008   -2.792024   -2.702331    0.514305
  17 H   1.0000    0     1.008   -5.388830   -0.831664    1.586094
  18 H   1.0000    0     1.008   -1.657665    1.459544    3.232164
  19 H   1.0000    0     1.008    0.132349    5.396883   -0.272025
  20 H   1.0000    0     1.008    0.821935    5.135156    3.000526
  21 H   1.0000    0     1.008    1.816262   -0.521528    1.709881
  22 H   1.0000    0     1.008    6.147793   -0.432862   -1.493426
  23 H   1.0000    0     1.008    6.594954   -1.890562    1.496558

      -----------------------------------------------------------      
     |                   =====================                   |     
     |                           x T B                           |     
     |                   =====================                   |     
     |                         S. Grimme                         |     
     |          Mulliken Center for Theoretical Chemistry        |     
     |                    University of Bonn                     |     
      -----------------------------------------------------------      

   * xtb version 6.7.1 (edcfbbe) compiled by 'albert@albert-system' on 2024-07-22

   xtb is free software: you can redistribute it and/or modify it under
   the terms of the GNU Lesser General Public License as published by
   the Free Software Foundation, either version 3 of the License, or
   (at your option) any later version.
   
   xtb is distributed in the hope that it will be useful,
   but WITHOUT ANY WARRANTY; without even the implied warranty of
   MERCHANTABILITY or FITNESS FOR A PARTICULAR PURPOSE.  See the
   GNU Lesser General Public License for more details.
   
   Cite this work as:
   * C. Bannwarth, E. Caldeweyher, S. Ehlert, A. Hansen, P. Pracht,
     J. Seibert, S. Spicher, S. Grimme, WIREs Comput. Mol. Sci., 2020, 11,
     e01493. DOI: 10.1002/wcms.1493
   
   for GFN2-xTB:
   * C. Bannwarth, S. Ehlert and S. Grimme., J. Chem. Theory Comput., 2019,
     15, 1652-1671. DOI: 10.1021/acs.jctc.8b01176
   for GFN1-xTB:
   * S. Grimme, C. Bannwarth, P. Shushkov, J. Chem. Theory Comput., 2017,
     13, 1989-2009. DOI: 10.1021/acs.jctc.7b00118
   for GFN0-xTB:
   * P. Pracht, E. Caldeweyher, S. Ehlert, S. Grimme, ChemRxiv, 2019, preprint.
     DOI: 10.26434/chemrxiv.8326202.v1
   for GFN-FF:
   * S. Spicher and S. Grimme, Angew. Chem. Int. Ed., 2020, 59, 15665-15673.
     DOI: 10.1002/anie.202004239
   
   for ALPB and GBSA implicit solvation:
   * S. Ehlert, M. Stahn, S. Spicher, S. Grimme, J. Chem. Theory Comput.,
     2021, 17, 4250-4261. DOI: 10.1021/acs.jctc.1c00471
   
   for ddCOSMO and CPCM-X implicit solvation:
   * M. Stahn, S. Ehlert, S. Grimme, J. Phys. Chem. A,
     2023, XX, XXXX-XXXX. DOI: 10.1021/acs.jpca.3c04382
   
   for DFT-D4:
   * E. Caldeweyher, C. Bannwarth and S. Grimme, J. Chem. Phys., 2017,
     147, 034112. DOI: 10.1063/1.4993215
   * E. Caldeweyher, S. Ehlert, A. Hansen, H. Neugebauer, S. Spicher,
     C. Bannwarth and S. Grimme, J. Chem. Phys., 2019, 150, 154122.
     DOI: 10.1063/1.5090222
   * E. Caldeweyher, J.-M. Mewes, S. Ehlert and S. Grimme, Phys. Chem. Chem. Phys.
     2020, 22, 8499-8512. DOI: 10.1039/D0CP00502A
   
   for sTDA-xTB:
   * S. Grimme and C. Bannwarth, J. Chem. Phys., 2016, 145, 054103.
     DOI: 10.1063/1.4959605
   
   in the mass-spec context:
   * V. Asgeirsson, C. Bauer and S. Grimme, Chem. Sci., 2017, 8, 4879.
     DOI: 10.1039/c7sc00601b
   * J. Koopman and S. Grimme, ACS Omega 2019, 4, 12, 15120-15133.
     DOI: 10.1021/acsomega.9b02011
   
   for metadynamics refer to:
   * S. Grimme, J. Chem. Theory Comput., 2019, 155, 2847-2862
     DOI: 10.1021/acs.jctc.9b00143
   
   for SPH calculations refer to:
   * S. Spicher and S. Grimme, J. Chem. Theory Comput., 2021, 17, 1701-1714
     DOI: 10.1021/acs.jctc.0c01306
   
   for ONIOM refer to:
   * C. Plett, A. Katbashev, S. Ehlert, S. Grimme, M. Bursch,
     Phys. Chem. Chem. Phys., 2023, 25, 17860-17868. DOI: 10.1039/D3CP02178E
   
   for DIPRO refer to:
   * J. Kohn, N. Gildemeister, S. Grimme, D. Fazzi, A. Hansen,
     J. Chem. Phys., 2023, just accepted.
   
   for PTB refer to:
   * S. Grimme, M. Mueller, A. Hansen, J. Chem. Phys., 2023, 158, 124111.
     DOI: 10.1063/5.0137838
   
   with help from (in alphabetical order)
   P. Atkinson, C. Bannwarth, F. Bohle, G. Brandenburg, E. Caldeweyher
   M. Checinski, S. Dohm, S. Ehlert, S. Ehrlich, I. Gerasimov, C. Hölzer
   A. Katbashev, J. Kohn, J. Koopman, C. Lavigne, S. Lehtola, F. März, M. Müller,
   F. Musil, H. Neugebauer, J. Pisarek, C. Plett, P. Pracht, F. Pultar,
   J. Seibert, P. Shushkov, S. Spicher, M. Stahn, M. Steiner, T. Strunk,
   J. Stückrath, T. Rose, and J. Unsleber
   
 * started run on 2026/04/11 at 17:16:36.099     
   ID    Z sym.   atoms
    1    7 N      1, 5, 9
    2    6 C      2, 3, 6, 7, 10, 11
    3    8 O      4, 8, 12, 13
    4    1 H      14-24

           -------------------------------------------------
          |                Calculation Setup                |
           -------------------------------------------------

          program call               : /home/analima/Programs/orca-6.1.0-f.0_linux_x86-64/bin/otool_xtb geo_opt_XTB.xyz --grad -c 0 -u 0 -P 1 --namespace geo_opt --input geo_opt_XTB.input.tmp --alpb WATER --acc 0.200000
          calculation namespace      : geo_opt
          coordinate file            : geo_opt_XTB.xyz
          omp threads                :                     1


           -------------------------------------------------
          |                 G F N 2 - x T B                 |
           -------------------------------------------------

        Reference                      10.1021/acs.jctc.8b01176
      * Hamiltonian:
        H0-scaling (s, p, d)           1.850000    2.230000    2.230000
        zeta-weighting                 0.500000
      * Dispersion:
        s8                             2.700000
        a1                             0.520000
        a2                             5.000000
        s9                             5.000000
      * Repulsion:
        kExp                           1.500000    1.000000
        rExp                           1.000000
      * Coulomb:
        alpha                          2.000000
        third order                    shell-resolved
        anisotropic                    true
        a3                             3.000000
        a5                             4.000000
        cn-shift                       1.200000
        cn-exp                         4.000000
        max-rad                        5.000000

      * Solvation model:               ALPB
        Solvent                        WATER
        Parameter file                 internal GFN2-xTB/ALPB
        Dielectric constant                8.0200E+01
        Reference state                gsolv [1 M gas/solution]
        Free energy shift                  1.0808E-03 Eh       6.7819E-01 kcal/mol
        Temperature                        2.9815E+02 K
        Density                            1.0000E+00 kg/L
        Solvent mass                       1.8000E+01 g/mol
        Interaction kernel             P16
        Born radius scaling (c1)           1.4744E+00
        Born radii integrator          GBOBC
        Born offset                        0.0000E+00 a0       0.0000E+00 AA
        H-bond correction              true
        Ion screening                  false
        Surface tension                    1.0000E-05 Eh       1.5569E+01 dyn/cm
        Grid points                               230 per atom
q/qsh data taken from xtbrestart
CAMM data taken from xtbrestart

          ...................................................
          :                      SETUP                      :
          :.................................................:
          :  # basis functions                  63          :
          :  # atomic orbitals                  63          :
          :  # shells                           37          :
          :  # electrons                        74          :
          :  max. iterations                   250          :
          :  Hamiltonian                  GFN2-xTB          :
          :  restarted?                       true          :
          :  GBSA solvation                   true          :
          :  PC potential                    false          :
          :  electronic temp.          300.0000000     K    :
          :  accuracy                    0.2000000          :
          :  -> integral cutoff          0.3198970E+02      :
          :  -> integral neglect         0.2000000E-08      :
          :  -> SCF convergence          0.2000000E-06 Eh   :
          :  -> wf. convergence          0.2000000E-04 e    :
          :  Broyden damping             0.4000000          :
          :  net charge                          0          :
          :  unpaired electrons                  0          :
          ...................................................

 iter      E             dE          RMSdq      gap      omega  full diag
   1    -43.9665931 -0.439666E+02  0.506E-03    3.85       0.0  T
   2    -43.9665931 -0.633428E-08  0.295E-03    3.85       6.9  T
   3    -43.9665931 -0.786052E-09  0.266E-04    3.85      76.8  T
   4    -43.9665931 -0.665594E-09  0.116E-04    3.85     175.9  T
   5    -43.9665931 -0.414673E-10  0.542E-05    3.85     376.5  T

   *** convergence criteria satisfied after 5 iterations ***

         #    Occupation            Energy/Eh            Energy/eV
      -------------------------------------------------------------
         1        2.0000           -0.7312047             -19.8971
       ...           ...                  ...                  ...
        31        2.0000           -0.4466259             -12.1533
        32        2.0000           -0.4312003             -11.7336
        33        2.0000           -0.4196458             -11.4191
        34        2.0000           -0.4128641             -11.2346
        35        2.0000           -0.3999079             -10.8820
        36        2.0000           -0.3970411             -10.8040
        37        2.0000           -0.3738731             -10.1736 (HOMO)
        38                         -0.2323946              -6.3238 (LUMO)
        39                         -0.2191920              -5.9645
        40                         -0.1840140              -5.0073
        41                         -0.0515058              -1.4015
        42                         -0.0054427              -0.1481
       ...                                ...                  ...
        63                          0.6376412              17.3511
      -------------------------------------------------------------
                  HL-Gap            0.1414785 Eh            3.8498 eV
             Fermi-level           -0.3031339 Eh           -8.2487 eV

 SCC (total)                   0 d,  0 h,  0 min,  0.010 sec
 SCC setup                      ...        0 min,  0.000 sec (  2.941%)
 Dispersion                     ...        0 min,  0.000 sec (  0.713%)
 classical contributions        ...        0 min,  0.000 sec (  0.146%)
 integral evaluation            ...        0 min,  0.001 sec ( 12.090%)
 iterations                     ...        0 min,  0.005 sec ( 48.649%)
 molecular gradient             ...        0 min,  0.004 sec ( 34.848%)
 printout                       ...        0 min,  0.000 sec (  0.545%)

         :::::::::::::::::::::::::::::::::::::::::::::::::::::
         ::                     SUMMARY                     ::
         :::::::::::::::::::::::::::::::::::::::::::::::::::::
         :: total energy             -43.540994280849 Eh    ::
         :: total w/o Gsasa/hb       -43.529672128940 Eh    ::
         :: gradient norm              0.000287148848 Eh/a0 ::
         :: HOMO-LUMO gap              3.849825560325 eV    ::
         ::.................................................::
         :: SCC energy               -43.966367508035 Eh    ::
         :: -> isotropic ES            0.315206729315 Eh    ::
         :: -> anisotropic ES         -0.023449530684 Eh    ::
         :: -> anisotropic XC          0.009007326241 Eh    ::
         :: -> dispersion             -0.019449560994 Eh    ::
         :: -> Gsolv                  -0.127172234268 Eh    ::
         ::    -> Gelec               -0.115850082360 Eh    ::
         ::    -> Gsasa                0.005026520732 Eh    ::
         ::    -> Ghb                 -0.017429432339 Eh    ::
         ::    -> Gshift               0.001080759698 Eh    ::
         :: repulsion energy           0.425373227187 Eh    ::
         :: add. restraining           0.000000000000 Eh    ::
         :: total charge              -0.000000000000 e     ::
         :::::::::::::::::::::::::::::::::::::::::::::::::::::


Property printout bound to 'properties.out'

           -------------------------------------------------
          | TOTAL ENERGY              -43.540994280849 Eh   |
          | GRADIENT NORM               0.000287148848 Eh/α |
          | HOMO-LUMO GAP               3.849825560325 eV   |
           -------------------------------------------------

------------------------------------------------------------------------
 * finished run on 2026/04/11 at 17:16:36.114     
------------------------------------------------------------------------
 total:
 * wall-time:     0 d,  0 h,  0 min,  0.015 sec
 *  cpu-time:     0 d,  0 h,  0 min,  0.013 sec
 * ratio c/w:     0.881 speedup
 SCF:
 * wall-time:     0 d,  0 h,  0 min,  0.010 sec
 *  cpu-time:     0 d,  0 h,  0 min,  0.009 sec
 * ratio c/w:     0.836 speedup


-------------------------   --------------------
FINAL SINGLE POINT ENERGY       -43.540994280850
-------------------------   --------------------


-------------
DIPOLE MOMENT
-------------
                                X             Y             Z
Total Dipole Moment    :     -9.07900       0.97400       1.58900
                        -----------------------------------------
Magnitude (a.u.)       :      9.26832
Magnitude (Debye)      :     23.55821

                                *** OPTIMIZATION RUN DONE ***


--------------------------------
SUGGESTED CITATIONS FOR THIS RUN
--------------------------------

Below you find a list of papers that are relevant to this ORCA run
We neither can nor want to force you to cite these papers, but we appreciate if you do
You receive ORCA, which is the product of decades of hard work by many enthusiastic individuals, for free
The only thing we kindly ask in return is that you cite our papers,
We deeply appreciate it, if you show your appreciation for ORCA by not just citing the generic ORCA reference.

Please note that relegating all ORCA citations to the supporting information does *not* help us.
SI sections are not indexed - citations you put there will not count into any citation statistics
But we need these citations in order to attract the funding resources that allow us to do what we are doing

Therefore, if you are a happy ORCA user, please consider citing a few of the papers listed below in the main body of your paper

In addition to the list printed below, the program has created the file geo_opt.bibtex that contains the list in bibtex format
You can import this file easily into all common literature databanks and citation aid programs


List of essential papers. We consider these as the minimum necessary citations

  1. Bannwarth, C.; Ehlert, S.; Grimme, S.
     GFN2-xTB—An Accurate and Broadly Parametrized Self-Consistent Tight-Binding Quantum Chemical Method with Multipole Electrostatics and Density-Dependent Dispersion Contributions
     J. Chem. Theory Comput. 2019 15(3), 1652-1671
     doi.org/10.1021/acs.jctc.8b01176
  2. Neese, F.
     Software update: the ORCA program system, version 6.0
     WIRES Comput. Molec. Sci. 2025 15(1), e70019
     doi.org/10.1002/wcms.7019

List of papers to cite with high priority. The work reported in these papers was absolutely
necessary for this run to complete.
Our perspective: the developers of density functionals and basis sets usually get cited in chemistry papers
Good! But without the algorithms to do something with them, the functionals or basis sets would not do anything.
Hence, in our opinion, the algorithm design and method developments papers are equally worthy of getting cited

  1. Bannwarth, C.; Caldeweyher, E.; Ehlert, S.; Hansen, A.; Pracht, P.; Seibert, J.; Spicher, S.; Grimme, S.
     Extended tight-binding quantum chemistry methods
     WIRES Comput. Molec. Sci. 2020 11(2), e1493
     doi.org/10.1002/wcms.1493

List of suggested additional citations. These are papers that are important in the 'surrounding' of 
of this run, or papers that preceded the highly important papers. If you like your results we are grateful for a citation.

  1. Neese, F.
     The ORCA program system
     WIRES Comput. Molec. Sci. 2012 2(1), 73-78
     doi.org/10.1002/wcms.81
  2. Neese, F.
     Software update: the ORCA program system, version 4.0
     WIRES Comput. Molec. Sci. 2018 8(1), 1-6
     doi.org/10.1002/wcms.1327
  3. Neese, F.; Wennmohs, F.; Becker, U.; Riplinger, C.
     The ORCA quantum chemistry program package
     J. Chem. Phys. 2020 152(22), 224108
     doi.org/10.1063/5.0004608
  4. Neese, F.
     Software update: The ORCA program system—Version 5.0
     WIRES Comput. Molec. Sci. 2022 12(1), e1606
     doi.org/10.1002/wcms.1606

List of optional additional citations

  1. Neese, F.
     Approximate second-order SCF convergence for spin unrestricted wavefunctions
     Chem. Phys. Lett. 2000 325(1-3), 93-98
     doi.org/10.1016/s0009-2614(00)00662-x

Timings for individual modules:

Sum of individual times          ...        0.634 sec (=   0.011 min)
Geometry relaxation              ...        0.055 sec (=   0.001 min)   8.7 %
XTB module                       ...        0.579 sec (=   0.010 min)  91.3 %
                             ****ORCA TERMINATED NORMALLY****
TOTAL RUN TIME: 0 days 0 hours 0 minutes 0 seconds 723 msec
