20
Coordinates from ORCA-job geo_opt E -549.041662760768
  N          -1.42769451290682     -1.29373316521462     -0.20286569394241
  C          -1.51295597096005      0.17345455200633      0.13481913069946
  C          -0.30691703578000      0.91644126118979     -0.47596654271872
  C           1.01667557784954      0.36950833989447     -0.03577215050704
  C           2.06393568170433      0.99477610258550      0.60747889524169
  N           3.03100308957551      0.02456588154262      0.77379210617407
  C           2.55945542926770     -1.13600110991074      0.24844127875145
  N           1.34159947401225     -0.96538134953856     -0.25747929079078
  C          -2.85010436462387      0.72220435728996     -0.44906746935963
  O          -3.41070823728740     -0.00516764771848     -1.32502147315224
  O          -3.22050455152902      1.84599220434315     -0.01909681021513
  H          -1.83197084686089     -1.87840491346845      0.53723497668211
  H          -0.42593870907858     -1.57626137561302     -0.35465862619191
  H          -2.01628899519946     -1.40825925223198     -1.05390088305407
  H          -1.50722787955880      0.26834238913369      1.22707667480833
  H          -0.38962615154460      1.97356437548622     -0.19351138855893
  H          -0.38711389941886      0.86511721625987     -1.57540437516790
  H           2.20501666226102      2.01401680403538      0.94955605814691
  H           3.94034044200181      0.15587608251289      1.20935597387461
  H           3.12902478807619     -2.06065071258403      0.25498958928014
