20
Coordinates from ORCA-job geo_opt E -549.035433966838
  N      -1.369777     -1.272548     -0.217146
  C      -1.504926      0.142294      0.180861
  C      -0.330829      0.945104     -0.389095
  C       0.985036      0.375115      0.024575
  C       2.094984      0.990235      0.533695
  N       3.029545      0.008288      0.706122
  C       2.470094     -1.147531      0.306084
  N       1.243252     -0.964303     -0.112119
  C      -2.831633      0.687130     -0.484105
  O      -3.266986     -0.038364     -1.400426
  O      -3.281587      1.758236     -0.061768
  H      -1.775363     -1.908299      0.470182
  H      -0.340160     -1.483672     -0.356057
  H      -1.944320     -1.325156     -1.088439
  H      -1.562168      0.262471      1.262341
  H      -0.417347      1.981138     -0.063677
  H      -0.407095      0.933502     -1.480959
  H       2.279613      2.014755      0.776495
  H       3.962495      0.136769      1.063702
  H       2.967170     -2.095162      0.329732
20
Coordinates from ORCA-job geo_opt E -549.039949704175
  N      -1.406483     -1.289907     -0.160106
  C      -1.536146      0.156365      0.178744
  C      -0.332553      0.945927     -0.384065
  C       0.995679      0.377799      0.021006
  C       2.096619      0.991015      0.574984
  N       3.053256      0.006510      0.704701
  C       2.527051     -1.149977      0.231833
  N       1.288291     -0.960215     -0.197316
  C      -2.853299      0.683536     -0.514703
  O      -3.267489     -0.045162     -1.461641
  O      -3.272843      1.804286     -0.149357
  H      -1.852364     -1.892412      0.540016
  H      -0.367020     -1.535844     -0.238390
  H      -1.951279     -1.373642     -1.051874
  H      -1.608732      0.289350      1.263528
  H      -0.418124      1.986025     -0.049270
  H      -0.408082      0.952112     -1.484801
  H       2.266151      2.016822      0.880593
  H       3.987863      0.133135      1.084394
  H       3.059505     -2.095723      0.211725
20
Coordinates from ORCA-job geo_opt E -549.039289858559
  N      -1.420793     -1.287554     -0.191035
  C      -1.534457      0.174225      0.145742
  C      -0.313545      0.949082     -0.414128
  C       1.014049      0.382432      0.005400
  C       2.110975      1.001789      0.574768
  N       3.066180      0.009889      0.723499
  C       2.544345     -1.160820      0.262470
  N       1.302067     -0.971159     -0.188682
  C      -2.847429      0.711860     -0.529021
  O      -3.354933     -0.061666     -1.408548
  O      -3.337781      1.765296     -0.037656
  H      -1.862759     -1.882595      0.521514
  H      -0.390043     -1.555665     -0.289005
  H      -1.979067     -1.377700     -1.072556
  H      -1.592069      0.293112      1.236297
  H      -0.396658      1.993772     -0.081568
  H      -0.379744      0.952913     -1.519542
  H       2.285398      2.034696      0.878018
  H       4.000277      0.137347      1.114655
  H       3.085990     -2.109256      0.269380
20
Coordinates from ORCA-job geo_opt E -549.041057791677
  N      -1.420026     -1.297134     -0.224874
  C      -1.525947      0.158359      0.149012
  C      -0.317852      0.935933     -0.425293
  C       1.011128      0.380530     -0.003770
  C       2.103196      1.011983      0.559250
  N       3.056567      0.025473      0.730792
  C       2.533233     -1.155107      0.301934
  N       1.292142     -0.978884     -0.155873
  C      -2.857583      0.702636     -0.464351
  O      -3.361727     -0.010448     -1.394501
  O      -3.268396      1.809544     -0.020800
  H      -1.817693     -1.908466      0.498037
  H      -0.404660     -1.556708     -0.390913
  H      -2.021428     -1.378467     -1.074806
  H      -1.549201      0.242363      1.242837
  H      -0.404455      1.981045     -0.098201
  H      -0.388784      0.928718     -1.528407
  H       2.278614      2.047091      0.841517
  H       3.987946      0.160047      1.119589
  H       3.074925     -2.098508      0.338823
20
Coordinates from ORCA-job geo_opt E -549.041323095009
  N      -1.415717     -1.289498     -0.176712
  C      -1.528211      0.171911      0.152744
  C      -0.318177      0.934188     -0.426142
  C       1.005290      0.372844     -0.002781
  C       2.082765      0.991333      0.592462
  N       3.041864      0.012330      0.738033
  C       2.544272     -1.143420      0.231576
  N       1.313523     -0.962804     -0.234885
  C      -2.849475      0.699176     -0.490807
  O      -3.344856     -0.042140     -1.393864
  O      -3.255256      1.821280     -0.098921
  H      -1.843180     -1.877230      0.546214
  H      -0.398142     -1.552476     -0.284472
  H      -1.979175     -1.394546     -1.049442
  H      -1.565399      0.284414      1.241495
  H      -0.400342      1.979967     -0.107487
  H      -0.391775      0.921200     -1.526125
  H       2.241543      2.010404      0.920253
  H       3.962353      0.137852      1.147845
  H       3.098092     -2.074783      0.221016
20
Coordinates from ORCA-job geo_opt E -549.041562675145
  N      -1.423016     -1.293407     -0.196155
  C      -1.524532      0.170246      0.143986
  C      -0.313727      0.928319     -0.440935
  C       1.010501      0.372441     -0.011087
  C       2.081992      0.997088      0.591275
  N       3.044232      0.020491      0.745398
  C       2.548831     -1.143654      0.252669
  N       1.318209     -0.968908     -0.221961
  C      -2.850250      0.708586     -0.475022
  O      -3.372910     -0.024439     -1.372287
  O      -3.248584      1.826391     -0.056908
  H      -1.837222     -1.883418      0.533780
  H      -0.410876     -1.562928     -0.329491
  H      -2.003672     -1.396164     -1.056832
  H      -1.545734      0.269622      1.235443
  H      -0.397009      1.977086     -0.129259
  H      -0.386681      0.906910     -1.541803
  H       2.239112      2.019978      0.914172
  H       3.964635      0.150733      1.157170
  H       3.106704     -2.074973      0.257849
20
Coordinates from ORCA-job geo_opt E -549.041628600865
  N      -1.426104     -1.294896     -0.204639
  C      -1.519446      0.170963      0.137794
  C      -0.310225      0.922567     -0.457059
  C       1.013451      0.371092     -0.021388
  C       2.075703      0.998307      0.594813
  N       3.039264      0.024095      0.757961
  C       2.552789     -1.140677      0.257039
  N       1.326998     -0.969063     -0.231047
  C      -2.849888      0.715555     -0.460895
  O      -3.394443     -0.013168     -1.348133
  O      -3.235147      1.834900     -0.032846
  H      -1.831749     -1.883448      0.531567
  H      -0.419337     -1.569751     -0.352095
  H      -2.015567     -1.401093     -1.057593
  H      -1.526068      0.263737      1.230346
  H      -0.393807      1.974744     -0.156299
  H      -0.384924      0.889283     -1.557655
  H       2.227515      2.020922      0.922449
  H       3.955156      0.155359      1.179996
  H       3.115827     -2.069429      0.267684
20
Coordinates from ORCA-job geo_opt E -549.041655033760
  N      -1.428159     -1.295046     -0.206373
  C      -1.515127      0.172627      0.133949
  C      -0.307470      0.917730     -0.470619
  C       1.015557      0.369470     -0.030237
  C       2.067534      0.996540      0.603293
  N       3.034394      0.025823      0.767934
  C       2.557317     -1.137229      0.253839
  N       1.336402     -0.967509     -0.245402
  C      -2.849627      0.720884     -0.451656
  O      -3.409648     -0.006819     -1.328548
  O      -3.222504      1.844048     -0.022225
  H      -1.830512     -1.880567      0.534074
  H      -0.425503     -1.575069     -0.359185
  H      -2.019879     -1.406467     -1.055950
  H      -1.511442      0.263810      1.226671
  H      -0.390850      1.973065     -0.181296
  H      -0.384679      0.872920     -1.570556
  H       2.212459      2.017054      0.940159
  H       3.946075      0.157455      1.198652
  H       3.125662     -2.062721      0.263475
20
Coordinates from ORCA-job geo_opt E -549.041660456852
  N      -1.428255     -1.294630     -0.205617
  C      -1.513558      0.173056      0.133779
  C      -0.306865      0.916561     -0.474680
  C       1.016415      0.369339     -0.033930
  C       2.065394      0.995945      0.605068
  N       3.032010      0.025426      0.772568
  C       2.558812     -1.136188      0.251298
  N       1.340144     -0.966205     -0.252768
  C      -2.850017      0.722130     -0.448856
  O      -3.412816     -0.005270     -1.323599
  O      -3.219716      1.846266     -0.019148
  H      -1.830433     -1.879510      0.535441
  H      -0.426503     -1.576212     -0.359237
  H      -2.019471     -1.407960     -1.054984
  H      -1.507328      0.265129      1.226359
  H      -0.390045      1.973025     -0.189696
  H      -0.385723      0.867616     -1.574299
  H       2.208004      2.015755      0.944884
  H       3.941680      0.156669      1.207501
  H       3.128272     -2.060941      0.259919
20
Coordinates from ORCA-job geo_opt E -549.041662326460
  N      -1.427996     -1.293988     -0.203490
  C      -1.512971      0.173486      0.134365
  C      -0.306764      0.916295     -0.476094
  C       1.016670      0.369330     -0.035500
  C       2.063835      0.994852      0.607591
  N       3.031185      0.024863      0.773689
  C       2.559581     -1.135838      0.248720
  N       1.341748     -0.965429     -0.257058
  C      -2.850141      0.722391     -0.448885
  O      -3.412150     -0.005371     -1.323510
  O      -3.219444      1.846842     -0.019736
  H      -1.831705     -1.878381      0.537123
  H      -0.426372     -1.576516     -0.355560
  H      -2.017208     -1.408593     -1.054030
  H      -1.506806      0.267635      1.226694
  H      -0.389620      1.973354     -0.193455
  H      -0.386670      0.865221     -1.575543
  H       2.204922      2.014011      0.949835
  H       3.940422      0.156099      1.209437
  H       3.129484     -2.060262      0.255408
20
Coordinates from ORCA-job geo_opt E -549.041662760768
  N      -1.427695     -1.293733     -0.202866
  C      -1.512956      0.173455      0.134819
  C      -0.306917      0.916441     -0.475967
  C       1.016676      0.369508     -0.035772
  C       2.063936      0.994776      0.607479
  N       3.031003      0.024566      0.773792
  C       2.559455     -1.136001      0.248441
  N       1.341599     -0.965381     -0.257479
  C      -2.850104      0.722204     -0.449067
  O      -3.410708     -0.005168     -1.325021
  O      -3.220505      1.845992     -0.019097
  H      -1.831971     -1.878405      0.537235
  H      -0.425939     -1.576261     -0.354659
  H      -2.016289     -1.408259     -1.053901
  H      -1.507228      0.268342      1.227077
  H      -0.389626      1.973564     -0.193511
  H      -0.387114      0.865117     -1.575404
  H       2.205017      2.014017      0.949556
  H       3.940340      0.155876      1.209356
  H       3.129025     -2.060651      0.254990
