20
zwitterion conformer 3
N      -1.36977669    -1.27254810    -0.21714564
C      -1.50492600     0.14229414     0.18086144
C      -0.33082886     0.94510360    -0.38909463
C       0.98503613     0.37511461     0.02457459
C       2.09498377     0.99023463     0.53369494
N       3.02954459     0.00828793     0.70612153
C       2.47009390    -1.14753126     0.30608405
N       1.24325246    -0.96430345    -0.11211901
C      -2.83163265     0.68712963    -0.48410512
O      -3.26698650    -0.03836426    -1.40042556
O      -3.28158655     1.75823597    -0.06176842
H      -1.77536318    -1.90829873     0.47018193
H      -0.34016004    -1.48367182    -0.35605694
H      -1.94431962    -1.32515598    -1.08843860
H      -1.56216792     0.26247130     1.26234109
H      -0.41734661     1.98113824    -0.06367655
H      -0.40709460     0.93350161    -1.48095875
H       2.27961270     2.01475487     0.77649516
H       3.96249518     0.13676899     1.06370249
H       2.96717048    -2.09516188     0.32973198
