20
Coordinates from ORCA-job geo_opt E -34.316907784610
  N      -2.542467     -0.494701     -0.884756
  C      -1.370092      0.182337     -0.312529
  C      -0.189767     -0.633129     -0.717915
  C       1.090068     -0.084050     -0.233699
  C       1.820150     -0.320142      0.903213
  N       2.946575      0.424138      0.878374
  C       2.948348      1.136181     -0.263329
  N       1.827651      0.827302     -0.931456
  C      -1.619815      0.239776      1.138084
  O      -1.029384     -0.420924      2.014966
  O      -2.613786      1.118611      1.577354
  H      -2.408151     -0.649722     -1.903131
  H      -2.591906     -1.417668     -0.367570
  H      -3.427127     -0.001249     -0.659759
  H      -1.335089      1.203515     -0.755475
  H      -0.285509     -1.706090     -0.401464
  H      -0.199212     -0.681328     -1.837368
  H       1.575367     -0.991024      1.710194
  H       3.681563      0.430521      1.631833
  H       3.722581      1.837646     -0.585566
20
Coordinates from ORCA-job geo_opt E -34.345672228250
  N      -2.582853     -0.481918     -0.886733
  C      -1.360331      0.167986     -0.319712
  C      -0.152646     -0.656639     -0.726911
  C       1.121380     -0.091025     -0.234364
  C       1.816728     -0.328420      0.925368
  N       2.925664      0.436970      0.893780
  C       2.909353      1.129590     -0.267026
  N       1.830791      0.823689     -0.959735
  C      -1.580676      0.250984      1.166426
  O      -0.984720     -0.433790      2.008530
  O      -2.541880      1.063905      1.538909
  H      -2.482484     -0.625746     -1.900937
  H      -2.675928     -1.394813     -0.405778
  H      -3.433255      0.050296     -0.649686
  H      -1.300157      1.180084     -0.744504
  H      -0.242023     -1.701510     -0.391238
  H      -0.127118     -0.700506     -1.827647
  H       1.568529     -0.987083      1.737023
  H       3.631103      0.472542      1.623764
  H       3.660525      1.825406     -0.579528
20
Coordinates from ORCA-job geo_opt E -34.354210435380
  N      -2.598188     -0.468537     -0.894515
  C      -1.352094      0.140566     -0.321603
  C      -0.136027     -0.694535     -0.735815
  C       1.135337     -0.104798     -0.235978
  C       1.799858     -0.333052      0.940986
  N       2.902146      0.458644      0.904341
  C       2.867232      1.127079     -0.272892
  N       1.821751      0.813308     -0.981426
  C      -1.576835      0.234689      1.207352
  O      -0.928776     -0.459409      2.000582
  O      -2.441233      1.051725      1.516482
  H      -2.518480     -0.577534     -1.910354
  H      -2.737405     -1.384534     -0.460249
  H      -3.408586      0.109833     -0.642104
  H      -1.266064      1.150076     -0.720782
  H      -0.229555     -1.714472     -0.368656
  H      -0.082522     -0.728988     -1.823946
  H       1.548504     -0.974687      1.757966
  H       3.593336      0.526452      1.623464
  H       3.607600      1.828174     -0.582855
20
Coordinates from ORCA-job geo_opt E -34.355619406950
  N      -2.586280     -0.427943     -0.909087
  C      -1.336327      0.132226     -0.303524
  C      -0.131399     -0.724008     -0.708047
  C       1.147728     -0.120598     -0.233447
  C       1.818948     -0.317973      0.943139
  N       2.920044      0.484376      0.882584
  C       2.869749      1.123908     -0.308590
  N       1.822226      0.786035     -1.005036
  C      -1.595187      0.231152      1.242756
  O      -1.014194     -0.556579      2.003388
  O      -2.558540      0.964773      1.520862
  H      -2.499391     -0.496855     -1.929010
  H      -2.761856     -1.358246     -0.515700
  H      -3.375624      0.176253     -0.648376
  H      -1.205977      1.145968     -0.680948
  H      -0.232076     -1.726933     -0.296233
  H      -0.081408     -0.785222     -1.795412
  H       1.574237     -0.934566      1.779880
  H       3.618549      0.578586      1.598509
  H       3.606779      1.825647     -0.637707
20
Coordinates from ORCA-job geo_opt E -34.356720068700
  N      -2.576556     -0.402937     -0.945061
  C      -1.330519      0.094928     -0.290934
  C      -0.133074     -0.770052     -0.690315
  C       1.145265     -0.145891     -0.233478
  C       1.821408     -0.313026      0.942428
  N       2.912405      0.510584      0.870567
  C       2.847929      1.131946     -0.327198
  N       1.802530      0.763530     -1.018439
  C      -1.642594      0.165664      1.271195
  O      -1.003822     -0.589582      2.019714
  O      -2.528291      1.024438      1.571035
  H      -2.479860     -0.397736     -1.967931
  H      -2.781944     -1.357926     -0.623794
  H      -3.348695      0.212464     -0.654751
  H      -1.161774      1.121792     -0.624304
  H      -0.232666     -1.757932     -0.237910
  H      -0.086012     -0.851590     -1.777562
  H       1.586236     -0.913342      1.794177
  H       3.613752      0.631293      1.587406
  H       3.576283      1.843375     -0.664846
20
Coordinates from ORCA-job geo_opt E -34.358089451940
  N      -2.568760     -0.382447     -0.953469
  C      -1.325479      0.096049     -0.284324
  C      -0.135353     -0.778028     -0.672204
  C       1.142645     -0.147668     -0.227197
  C       1.822735     -0.300857      0.948000
  N       2.913555      0.519564      0.862111
  C       2.846357      1.126963     -0.342345
  N       1.797750      0.752281     -1.024122
  C      -1.646969      0.152207      1.272635
  O      -1.022364     -0.606861      2.022759
  O      -2.551457      0.962505      1.556839
  H      -2.470778     -0.350730     -1.975693
  H      -2.775110     -1.344224     -0.657964
  H      -3.340300      0.226168     -0.647649
  H      -1.142483      1.124766     -0.604878
  H      -0.235190     -1.758267     -0.203854
  H      -0.092976     -0.876376     -1.757421
  H       1.592112     -0.892386      1.807680
  H       3.616885      0.646190      1.572210
  H       3.575180      1.831154     -0.691114
20
Coordinates from ORCA-job geo_opt E -34.358752734330
  N      -2.554173     -0.342099     -0.975466
  C      -1.316579      0.088744     -0.270652
  C      -0.137553     -0.802405     -0.640095
  C       1.141280     -0.159623     -0.219212
  C       1.828810     -0.283482      0.954772
  N       2.915259      0.538452      0.845406
  C       2.840641      1.119194     -0.371350
  N       1.789317      0.724930     -1.038391
  C      -1.669362      0.117491      1.282076
  O      -1.035275     -0.627110      2.034876
  O      -2.614256      0.875280      1.546977
  H      -2.453500     -0.242366     -1.993167
  H      -2.764546     -1.320208     -0.745785
  H      -3.323326      0.250261     -0.631945
  H      -1.102455      1.121583     -0.558609
  H      -0.236810     -1.765103     -0.136358
  H      -0.103005     -0.935824     -1.721638
  H       1.606816     -0.856194      1.830010
  H       3.622199      0.682457      1.547394
  H       3.566517      1.816022     -0.738841
20
Coordinates from ORCA-job geo_opt E -34.359486641080
  N      -2.540120     -0.302282     -0.995911
  C      -1.309495      0.083006     -0.258937
  C      -0.138974     -0.823767     -0.608991
  C       1.141038     -0.170752     -0.211539
  C       1.837012     -0.269135      0.960237
  N       2.919244      0.552335      0.828949
  C       2.837449      1.110036     -0.398318
  N       1.782362      0.699685     -1.050260
  C      -1.695586      0.084287      1.286376
  O      -1.033027     -0.615574      2.054772
  O      -2.698607      0.771810      1.524828
  H      -2.441083     -0.131647     -2.004067
  H      -2.747892     -1.293936     -0.834204
  H      -3.309252      0.265226     -0.609370
  H      -1.070068      1.119248     -0.513652
  H      -0.236392     -1.769040     -0.072600
  H      -0.111920     -0.993587     -1.685580
  H       1.624220     -0.825781      1.848613
  H       3.630732      0.710371      1.522764
  H       3.560359      1.799497     -0.783112
20
Coordinates from ORCA-job geo_opt E -34.360087364280
  N      -2.534055     -0.280260     -1.005982
  C      -1.306047      0.080092     -0.254915
  C      -0.138093     -0.834857     -0.592906
  C       1.142839     -0.177210     -0.207982
  C       1.844102     -0.264094      0.962391
  N       2.923152      0.557035      0.820643
  C       2.837193      1.105222     -0.411292
  N       1.780222      0.687135     -1.055440
  C      -1.711898      0.066985      1.283806
  O      -1.026345     -0.587042      2.071406
  O      -2.756684      0.704752      1.501474
  H      -2.442585     -0.067615     -2.006252
  H      -2.737058     -1.278175     -0.883202
  H      -3.302227      0.268624     -0.587521
  H      -1.056160      1.118074     -0.491063
  H      -0.233447     -1.770741     -0.039833
  H      -0.114847     -1.026979     -1.665870
  H       1.637004     -0.814184      1.856367
  H       3.637423      0.721180      1.510204
  H       3.557512      1.792057     -0.804032
20
Coordinates from ORCA-job geo_opt E -34.361027426350
  N      -2.529069     -0.256114     -1.016949
  C      -1.303440      0.076853     -0.251661
  C      -0.134296     -0.846040     -0.574396
  C       1.148990     -0.183983     -0.203943
  C       1.857817     -0.263037      0.963833
  N       2.933822      0.557488      0.810699
  C       2.840285      1.099203     -0.424869
  N       1.780003      0.676230     -1.059769
  C      -1.740108      0.050094      1.276245
  O      -1.020305     -0.515851      2.100670
  O      -2.845442      0.608266      1.456136
  H      -2.457250      0.014910     -2.003572
  H      -2.721717     -1.260971     -0.946374
  H      -3.292899      0.260766     -0.544357
  H      -1.044249      1.116733     -0.466152
  H      -0.226587     -1.771604     -0.003789
  H      -0.113883     -1.064777     -1.642205
  H       1.658239     -0.809005      1.861753
  H       3.653348      0.725911      1.494432
  H       3.556741      1.784929     -0.825730
20
Coordinates from ORCA-job geo_opt E -34.362228676050
  N      -2.516110     -0.218523     -1.033282
  C      -1.297899      0.072908     -0.243907
  C      -0.132496     -0.863492     -0.544531
  C       1.154206     -0.195464     -0.197286
  C       1.875157     -0.262175      0.964741
  N       2.946650      0.558725      0.793659
  C       2.840087      1.089819     -0.446308
  N       1.774779      0.658145     -1.066622
  C      -1.778594      0.029248      1.268988
  O      -1.025289     -0.403977      2.141104
  O      -2.956220      0.450935      1.390592
  H      -2.468899      0.139967     -1.991575
  H      -2.691802     -1.228403     -1.046143
  H      -3.275328      0.241272     -0.488683
  H      -1.019387      1.113602     -0.427316
  H      -0.222466     -1.771685      0.053827
  H      -0.117924     -1.118167     -1.604432
  H       1.687373     -0.801092      1.869373
  H       3.673735      0.734443      1.467614
  H       3.550426      1.773911     -0.859812
20
Coordinates from ORCA-job geo_opt E -34.363286850560
  N      -2.512819     -0.201713     -1.049534
  C      -1.299929      0.072443     -0.246013
  C      -0.126026     -0.870592     -0.523267
  C       1.168330     -0.203775     -0.191247
  C       1.903932     -0.286450      0.961218
  N       2.975020      0.537352      0.782504
  C       2.847521      1.081135     -0.450843
  N       1.774337      0.658852     -1.061806
  C      -1.830623      0.042049      1.249834
  O      -1.046800     -0.128937      2.184085
  O      -3.080055      0.264264      1.305974
  H      -2.543404      0.271012     -1.953880
  H      -2.641432     -1.211036     -1.171429
  H      -3.247941      0.137128     -0.367770
  H      -1.005080      1.110445     -0.416549
  H      -0.216383     -1.770494      0.087048
  H      -0.109163     -1.146979     -1.577625
  H       1.727208     -0.835977      1.860189
  H       3.713937      0.707251      1.446411
  H       3.549372      1.774023     -0.867300
20
Coordinates from ORCA-job geo_opt E -34.363966516300
  N      -2.458785     -0.120956     -1.092864
  C      -1.291276      0.069318     -0.210512
  C      -0.147911     -0.906231     -0.451531
  C       1.148270     -0.226974     -0.171900
  C       1.905101     -0.253703      0.968421
  N       2.966534      0.564778      0.740140
  C       2.822003      1.056536     -0.511407
  N       1.738886      0.601766     -1.084140
  C      -1.864766     -0.015864      1.272724
  O      -1.095861     -0.150897      2.218826
  O      -3.116926      0.085022      1.295875
  H      -2.463555      0.478169     -1.920970
  H      -2.539615     -1.102985     -1.369609
  H      -3.248240      0.099331     -0.418898
  H      -0.946169      1.102277     -0.310318
  H      -0.236839     -1.762040      0.220349
  H      -0.153838     -1.244609     -1.487782
  H       1.750689     -0.764152      1.896373
  H       3.714382      0.763038      1.383587
  H       3.517917      1.728175     -0.966367
20
Coordinates from ORCA-job geo_opt E -34.364526873980
  N      -2.481544     -0.163667     -1.088195
  C      -1.303435      0.083654     -0.228460
  C      -0.148374     -0.885815     -0.474228
  C       1.151404     -0.218396     -0.173502
  C       1.904326     -0.279090      0.967352
  N       2.972676      0.541509      0.759604
  C       2.829197      1.062612     -0.479509
  N       1.746522      0.628100     -1.067155
  C      -1.844428      0.037831      1.266650
  O      -1.040660     -0.062668      2.191067
  O      -3.096293      0.139438      1.333683
  H      -2.530215      0.430681     -1.916512
  H      -2.530752     -1.149471     -1.360253
  H      -3.265937      0.020854     -0.385749
  H      -0.964171      1.112996     -0.371721
  H      -0.245245     -1.759028      0.173071
  H      -0.141917     -1.196766     -1.519216
  H       1.742302     -0.810954      1.880943
  H       3.719539      0.722928      1.410134
  H       3.527005      1.745252     -0.918003
20
Coordinates from ORCA-job geo_opt E -34.365008136080
  N      -2.502246     -0.195222     -1.073327
  C      -1.310331      0.103148     -0.248716
  C      -0.147581     -0.867645     -0.488356
  C       1.156258     -0.213332     -0.171413
  C       1.910843     -0.307952      0.965512
  N       2.984823      0.512794      0.773851
  C       2.837833      1.064457     -0.450985
  N       1.751578      0.652478     -1.046955
  C      -1.836439      0.095697      1.244418
  O      -1.015034      0.102556      2.162145
  O      -3.091799      0.099937      1.322412
  H      -2.618111      0.416519     -1.880201
  H      -2.512097     -1.175470     -1.369344
  H      -3.265433     -0.072483     -0.325433
  H      -0.974452      1.125907     -0.433744
  H      -0.254315     -1.751520      0.141748
  H      -0.129358     -1.160697     -1.538644
  H       1.746380     -0.861313      1.865007
  H       3.733399      0.675599      1.427643
  H       3.536082      1.756543     -0.875617
20
Coordinates from ORCA-job geo_opt E -34.365443182740
  N      -2.530110     -0.247610     -1.049951
  C      -1.318219      0.126742     -0.286682
  C      -0.151758     -0.844626     -0.520877
  C       1.151359     -0.206337     -0.170217
  C       1.903500     -0.348676      0.962367
  N       2.982823      0.474630      0.802861
  C       2.837561      1.073753     -0.398563
  N       1.750554      0.690697     -1.011908
  C      -1.789897      0.179156      1.217173
  O      -0.934335      0.318563      2.094925
  O      -3.032523      0.070361      1.352402
  H      -2.723491      0.363337     -1.842391
  H      -2.500892     -1.224429     -1.354589
  H      -3.263852     -0.165935     -0.262043
  H      -0.992013      1.135862     -0.543843
  H      -0.275374     -1.743992      0.083115
  H      -0.115052     -1.105906     -1.579555
  H       1.734547     -0.935603      1.839078
  H       3.729032      0.610040      1.465489
  H       3.538142      1.779972     -0.796793
20
Coordinates from ORCA-job geo_opt E -34.365888636610
  N      -2.550340     -0.293904     -1.028574
  C      -1.322728      0.146959     -0.330547
  C      -0.159029     -0.829996     -0.549731
  C       1.140546     -0.205609     -0.165755
  C       1.896918     -0.398904      0.955632
  N       2.974590      0.432706      0.831334
  C       2.825082      1.086137     -0.339921
  N       1.737622      0.728684     -0.968099
  C      -1.735953      0.268874      1.184860
  O      -0.873548      0.602988      2.001166
  O      -2.943262      0.010246      1.395706
  H      -2.840407      0.330750     -1.781001
  H      -2.478405     -1.254396     -1.371685
  H      -3.234795     -0.278217     -0.191532
  H      -1.005157      1.135983     -0.662526
  H      -0.303246     -1.737857      0.036648
  H      -0.104090     -1.069341     -1.613303
  H       1.733021     -1.025551      1.805497
  H       3.719433      0.540165      1.500147
  H       3.523748      1.810283     -0.708318
20
Coordinates from ORCA-job geo_opt E -34.366232258710
  N      -2.572704     -0.347669     -0.989513
  C      -1.320443      0.162600     -0.389849
  C      -0.165034     -0.821623     -0.599089
  C       1.124432     -0.210022     -0.168514
  C       1.877102     -0.454027      0.945103
  N       2.945609      0.393514      0.873293
  C       2.797407      1.107597     -0.261560
  N       1.718380      0.770973     -0.915706
  C      -1.644422      0.371234      1.139889
  O      -0.772470      0.855798      1.863897
  O      -2.800299      0.011222      1.453049
  H      -2.963040      0.272581     -1.700995
  H      -2.473881     -1.295139     -1.359831
  H      -3.193934     -0.371327     -0.111981
  H      -1.025042      1.123687     -0.811595
  H      -0.334362     -1.737272     -0.031388
  H      -0.088336     -1.038108     -1.666700
  H       1.718599     -1.125857      1.761659
  H       3.681210      0.475222      1.555477
  H       3.491227      1.856615     -0.585647
20
Coordinates from ORCA-job geo_opt E -34.366349197250
  N      -2.575473     -0.345821     -0.987716
  C      -1.313948      0.164966     -0.410483
  C      -0.168200     -0.832500     -0.603301
  C       1.119465     -0.220985     -0.168001
  C       1.873382     -0.470374      0.944025
  N       2.934201      0.385995      0.883305
  C       2.782723      1.111075     -0.244544
  N       1.707987      0.771099     -0.903920
  C      -1.617940      0.399253      1.124824
  O      -0.769174      0.965112      1.813382
  O      -2.742079     -0.028328      1.472572
  H      -3.017977      0.302699     -1.640482
  H      -2.466431     -1.265392     -1.420402
  H      -3.155346     -0.434687     -0.088289
  H      -1.014277      1.116992     -0.849593
  H      -0.349538     -1.736566     -0.020492
  H      -0.088578     -1.068817     -1.666373
  H       1.723048     -1.151431      1.755063
  H       3.666562      0.469228      1.568962
  H       3.471593      1.868482     -0.558537
20
Coordinates from ORCA-job geo_opt E -34.366390349190
  N      -2.572536     -0.335701     -0.991282
  C      -1.309958      0.162791     -0.405961
  C      -0.167153     -0.837665     -0.599395
  C       1.121043     -0.222253     -0.170545
  C       1.872057     -0.459324      0.946632
  N       2.932654      0.396149      0.879324
  C       2.783923      1.109614     -0.257045
  N       1.710889      0.762198     -0.914925
  C      -1.621832      0.381424      1.132620
  O      -0.762160      0.902625      1.841643
  O      -2.763752     -0.018052      1.458707
  H      -3.003977      0.317032     -1.647432
  H      -2.464907     -1.255259     -1.425412
  H      -3.162833     -0.419540     -0.102091
  H      -1.011067      1.121284     -0.831721
  H      -0.347732     -1.735834     -0.006948
  H      -0.092097     -1.088243     -1.659205
  H       1.722204     -1.132810      1.764123
  H       3.663532      0.487980      1.565547
  H       3.473703      1.863586     -0.576635
20
Coordinates from ORCA-job geo_opt E -34.366408573980
  N      -2.575773     -0.342657     -0.987211
  C      -1.311857      0.166720     -0.412505
  C      -0.166889     -0.833662     -0.603490
  C       1.121436     -0.220446     -0.170866
  C       1.871305     -0.464877      0.945525
  N       2.933108      0.390146      0.883120
  C       2.784351      1.110686     -0.248971
  N       1.711203      0.768620     -0.909114
  C      -1.617763      0.393174      1.125596
  O      -0.758592      0.927805      1.826074
  O      -2.753246     -0.017384      1.464232
  H      -3.017740      0.306509     -1.639385
  H      -2.464688     -1.261385     -1.422243
  H      -3.158323     -0.429468     -0.090923
  H      -1.018160      1.122658     -0.846510
  H      -0.349405     -1.733812     -0.014581
  H      -0.088432     -1.083742     -1.663207
  H       1.721619     -1.144178      1.757875
  H       3.663620      0.478415      1.570252
  H       3.474228      1.866879     -0.563668
20
Coordinates from ORCA-job geo_opt E -34.366413623850
  N      -2.575800     -0.342973     -0.988193
  C      -1.312466      0.168437     -0.413637
  C      -0.167454     -0.832861     -0.601209
  C       1.121618     -0.219957     -0.170343
  C       1.872093     -0.465825      0.945290
  N       2.934302      0.388986      0.882675
  C       2.784777      1.110378     -0.248800
  N       1.711363      0.768889     -0.908767
  C      -1.618825      0.393970      1.124301
  O      -0.761776      0.933935      1.823625
  O      -2.752014     -0.021637      1.464665
  H      -3.020985      0.308304     -1.636099
  H      -2.462332     -1.258691     -1.428556
  H      -3.157253     -0.434434     -0.090264
  H      -1.019142      1.124301     -0.847144
  H      -0.350776     -1.731647     -0.010465
  H      -0.088691     -1.087052     -1.660042
  H       1.723812     -1.146646      1.756547
  H       3.664945      0.477740      1.569619
  H       3.474604      1.866781     -0.563202
20
Coordinates from ORCA-job geo_opt E -34.366415157080
  N      -2.575717     -0.343547     -0.988439
  C      -1.312636      0.169459     -0.415120
  C      -0.168097     -0.832550     -0.600014
  C       1.121102     -0.219555     -0.169941
  C       1.871701     -0.466165      0.945417
  N       2.934517      0.388019      0.882616
  C       2.784629      1.110233     -0.248233
  N       1.710523      0.769890     -0.907730
  C      -1.618054      0.394758      1.122940
  O      -0.762038      0.938514      1.820750
  O      -2.749388     -0.024438      1.464875
  H      -3.024382      0.310010     -1.631820
  H      -2.460625     -1.256392     -1.434098
  H      -3.155155     -0.439081     -0.089397
  H      -1.019454      1.124988     -0.849130
  H      -0.352319     -1.729976     -0.007448
  H      -0.088893     -1.089620     -1.658264
  H       1.724403     -1.148108      1.755929
  H       3.665158      0.477075      1.569519
  H       3.474723      1.866485     -0.562411
20
Coordinates from ORCA-job geo_opt E -34.366415487240
  N      -2.575479     -0.342970     -0.989075
  C      -1.312685      0.169516     -0.414913
  C      -0.168384     -0.832763     -0.598924
  C       1.120982     -0.219554     -0.169736
  C       1.871849     -0.465808      0.945528
  N       2.934736      0.388255      0.882150
  C       2.784682      1.110000     -0.248936
  N       1.710603      0.769188     -0.908281
  C      -1.618545      0.393949      1.123095
  O      -0.762886      0.937557      1.821481
  O      -2.749764     -0.025993      1.464426
  H      -3.024424      0.311960     -1.630934
  H      -2.460100     -1.254704     -1.436918
  H      -3.154687     -0.439968     -0.090153
  H      -1.018793      1.125100     -0.848415
  H      -0.352654     -1.729435     -0.005237
  H      -0.089302     -1.090948     -1.656948
  H       1.724776     -1.147491      1.756317
  H       3.665248      0.478115      1.569091
  H       3.474829      1.865995     -0.563618
