20
Coordinates from ORCA-job geo_opt E -34.366415487240
  N          -2.57547927445444     -0.34297013654589     -0.98907490428469
  C          -1.31268511046755      0.16951579567443     -0.41491257014891
  C          -0.16838394044421     -0.83276255459954     -0.59892439364091
  C           1.12098198938999     -0.21955440087416     -0.16973558712647
  C           1.87184874871481     -0.46580789847750      0.94552776752166
  N           2.93473574254928      0.38825470753358      0.88215009128657
  C           2.78468155669715      1.10999996278615     -0.24893638862424
  N           1.71060274037552      0.76918781695868     -0.90828139439121
  C          -1.61854504296269      0.39394852869037      1.12309455499590
  O          -0.76288550256739      0.93755662225569      1.82148111597339
  O          -2.74976429840222     -0.02599305057628      1.46442597091117
  H          -3.02442423173576      0.31196005805786     -1.63093425521332
  H          -2.46010020927482     -1.25470358440714     -1.43691783526748
  H          -3.15468707715212     -0.43996769688088     -0.09015250355197
  H          -1.01879333846655      1.12509952017931     -0.84841537333997
  H          -0.35265411780614     -1.72943466604157     -0.00523699922020
  H          -0.08930171759074     -1.09094764973361     -1.65694832786417
  H           1.72477567107842     -1.14749084237785      1.75631734625112
  H           3.66524843979959      0.47811460957826      1.56909119901264
  H           3.47482897271988      1.86599484880009     -0.56361751327893
