20
zwitterion conformer 4
N      -2.54246692    -0.49470097    -0.88475639
C      -1.37009176     0.18233723    -0.31252879
C      -0.18976705    -0.63312869    -0.71791538
C       1.09006787    -0.08404968    -0.23369906
C       1.82015030    -0.32014227     0.90321309
N       2.94657475     0.42413769     0.87837383
C       2.94834758     1.13618136    -0.26332852
N       1.82765138     0.82730197    -0.93145628
C      -1.61981461     0.23977566     1.13808421
O      -1.02938362    -0.42092400     2.01496595
O      -2.61378568     1.11861061     1.57735381
H      -2.40815051    -0.64972227    -1.90313134
H      -2.59190634    -1.41766845    -0.36756978
H      -3.42712717    -0.00124926    -0.65975947
H      -1.33508887     1.20351540    -0.75547469
H      -0.28550934    -1.70608953    -0.40146356
H      -0.19921165    -0.68132755    -1.83736801
H       1.57536729    -0.99102362     1.71019412
H       3.68156317     0.43052070     1.63183268
H       3.72258118     1.83764566    -0.58556642
