24
Coordinates from ORCA-job geo_opt E -700.794961529681
  N          -2.18438774905086      1.09100170563848      0.92807921767587
  C          -2.50047400498566     -0.37676884722969      0.90656448480224
  C          -1.75792216619284     -1.23844372872798     -0.11908004732375
  O          -2.14054250162890     -2.41022305829677     -0.26065181353152
  N          -0.73010599020242     -0.67206654142945     -0.78765182700620
  C           0.26858659034596     -1.45718888518067     -1.52922196642215
  C           1.58063634887604     -1.18804039483208     -0.77914631141653
  O           2.02472153977249     -1.96726325978396      0.07611455488764
  N           2.10650729300685      0.04627481963893     -1.02737317840344
  C           2.74455553869453      0.81980202368642      0.03033493278930
  C           1.72583706151931      1.58426202300312      0.92963542108956
  O           0.48786340421861      1.52856073316070      0.59528307100109
  O           2.20583159981994      2.20945529799382      1.90207532899024
  H          -2.67663707956750      1.53877024755905      1.71261919042286
  H          -1.15008845027096      1.30576092175209      1.03362808304900
  H          -2.50861221641928      1.55685593040069      0.06960446108007
  H          -3.57683507813412     -0.48559473916250      0.73434777704213
  H          -2.26521755502148     -0.77474847167973      1.90198173696586
  H          -0.35926835656487      0.23589549396634     -0.45144336320282
  H           0.31680142238716     -1.12659056890499     -2.57732239603763
  H           0.00545449919499     -2.51841974428158     -1.48580997153811
  H           1.61637332890041      0.60324076983571     -1.72519613351772
  H           3.43520847961152      1.55123723190915     -0.41105024250990
  H           3.33171404169105      0.14423107096489      0.66379359111390
