24
Coordinates from ORCA-job geo_opt E -700.789131898032
  N      -2.199282      1.105975      0.829897
  C      -2.464227     -0.341521      0.929021
  C      -1.710176     -1.239262     -0.053818
  O      -2.040849     -2.411396     -0.173797
  N      -0.743763     -0.644165     -0.770578
  C       0.237296     -1.419614     -1.517852
  C       1.562933     -1.158751     -0.802338
  O       2.086124     -1.970662     -0.050572
  N       2.030046      0.089581     -1.005183
  C       2.749439      0.797488      0.024986
  C       1.742899      1.518440      0.980744
  O       0.525987      1.398673      0.691347
  O       2.203794      2.144881      1.938067
  H      -2.751280      1.605106      1.535502
  H      -1.190699      1.332033      0.995570
  H      -2.449019      1.459256     -0.099886
  H      -3.527734     -0.542876      0.785830
  H      -2.191259     -0.701523      1.923578
  H      -0.354124      0.232170     -0.408202
  H       0.270377     -1.086994     -2.556929
  H      -0.027860     -2.477154     -1.466673
  H       1.490280      0.689009     -1.616002
  H       3.427875      1.535087     -0.404109
  H       3.323222      0.086220      0.621510
24
Coordinates from ORCA-job geo_opt E -700.792793585790
  N      -2.136108      1.075030      0.950295
  C      -2.485751     -0.373967      0.916732
  C      -1.769868     -1.244236     -0.131940
  O      -2.153572     -2.407131     -0.294640
  N      -0.741451     -0.665751     -0.797416
  C       0.255898     -1.450021     -1.543236
  C       1.569716     -1.196569     -0.785953
  O       2.025771     -1.991358      0.043651
  N       2.076830      0.047209     -1.009186
  C       2.724777      0.806190      0.045941
  C       1.690303      1.648718      0.885825
  O       0.469148      1.616952      0.504783
  O       2.151048      2.323646      1.829512
  H      -2.671018      1.545819      1.692013
  H      -1.105405      1.236104      1.145512
  H      -2.361757      1.533303      0.057315
  H      -3.562984     -0.485986      0.751087
  H      -2.250895     -0.813102      1.895372
  H      -0.330391      0.190232     -0.385205
  H       0.319705     -1.110905     -2.587205
  H      -0.016338     -2.509030     -1.507805
  H       1.598346      0.623149     -1.698864
  H       3.473648      1.488645     -0.374837
  H       3.230347      0.113059      0.728367
24
Coordinates from ORCA-job geo_opt E -700.793004694372
  N      -2.246314      1.116612      0.844904
  C      -2.476045     -0.361820      0.938348
  C      -1.739196     -1.239833     -0.084889
  O      -2.077234     -2.434373     -0.167699
  N      -0.736817     -0.653512     -0.798551
  C       0.256494     -1.448986     -1.553413
  C       1.595521     -1.199108     -0.836620
  O       2.079688     -2.013164     -0.028042
  N       2.076302      0.068960     -1.024460
  C       2.750184      0.806634      0.042216
  C       1.762369      1.567324      0.997264
  O       0.501561      1.455513      0.745139
  O       2.285784      2.168119      1.972311
  H      -2.773905      1.601815      1.585263
  H      -1.225452      1.392003      0.942237
  H      -2.579096      1.493383     -0.054952
  H      -3.552966     -0.552394      0.838658
  H      -2.164057     -0.690466      1.942082
  H      -0.347956      0.257970     -0.445586
  H       0.292827     -1.123328     -2.608260
  H      -0.015004     -2.509619     -1.505157
  H       1.550762      0.658265     -1.673230
  H       3.450278      1.541129     -0.387390
  H       3.332272      0.098875      0.649942
24
Coordinates from ORCA-job geo_opt E -700.793917091114
  N      -2.223897      1.103143      0.872662
  C      -2.478144     -0.370978      0.932015
  C      -1.734515     -1.241083     -0.087532
  O      -2.094146     -2.421722     -0.207360
  N      -0.734458     -0.654115     -0.791171
  C       0.255044     -1.441585     -1.546900
  C       1.583875     -1.194852     -0.818279
  O       2.066564     -2.012311     -0.019495
  N       2.078972      0.061163     -1.013836
  C       2.747965      0.794698      0.052598
  C       1.748977      1.551280      0.986082
  O       0.504866      1.493801      0.673853
  O       2.259953      2.255364      1.888190
  H      -2.755382      1.579564      1.613652
  H      -1.205027      1.358495      0.992832
  H      -2.535568      1.502194     -0.023348
  H      -3.553580     -0.540790      0.805690
  H      -2.192719     -0.721755      1.932777
  H      -0.349540      0.247048     -0.437330
  H       0.294267     -1.105251     -2.594217
  H      -0.016160     -2.501287     -1.508727
  H       1.563185      0.648246     -1.667473
  H       3.451800      1.524143     -0.371795
  H       3.317668      0.086591      0.667226
24
Coordinates from ORCA-job geo_opt E -700.794117359997
  N      -2.170918      1.081558      0.936819
  C      -2.483446     -0.381810      0.916480
  C      -1.750330     -1.239151     -0.119698
  O      -2.141536     -2.399394     -0.286616
  N      -0.733692     -0.662435     -0.793546
  C       0.258390     -1.446174     -1.538312
  C       1.566677     -1.190694     -0.781075
  O       2.026160     -1.991679      0.039876
  N       2.088188      0.045054     -1.009625
  C       2.733648      0.805485      0.046094
  C       1.717148      1.633912      0.889936
  O       0.483936      1.564677      0.558771
  O       2.189799      2.288852      1.840261
  H      -2.702770      1.540504      1.686566
  H      -1.147458      1.282266      1.101721
  H      -2.440090      1.535421      0.054602
  H      -3.558889     -0.502621      0.756867
  H      -2.236455     -0.785867      1.904474
  H      -0.343219      0.212363     -0.420932
  H       0.316312     -1.108686     -2.580739
  H      -0.012303     -2.504660     -1.504001
  H       1.608389      0.612160     -1.702804
  H       3.471366      1.494434     -0.379624
  H       3.261094      0.116486      0.714618
24
Coordinates from ORCA-job geo_opt E -700.794833389354
  N      -2.203434      1.093324      0.907369
  C      -2.482585     -0.379681      0.923743
  C      -1.748554     -1.237512     -0.111704
  O      -2.119868     -2.412447     -0.247528
  N      -0.734178     -0.658557     -0.795579
  C       0.259633     -1.445826     -1.543318
  C       1.578403     -1.195320     -0.799094
  O       2.038483     -1.998934      0.024824
  N       2.092128      0.049488     -1.015343
  C       2.742654      0.802819      0.047831
  C       1.735944      1.603093      0.931144
  O       0.493329      1.530492      0.619762
  O       2.228957      2.259019      1.876916
  H      -2.725905      1.555683      1.663441
  H      -1.179921      1.327231      1.034198
  H      -2.511886      1.525211      0.025532
  H      -3.559974     -0.523093      0.787291
  H      -2.208349     -0.754877      1.918339
  H      -0.350118      0.236913     -0.437720
  H       0.309761     -1.110387     -2.589828
  H      -0.012046     -2.505100     -1.506983
  H       1.598293      0.622505     -1.697401
  H       3.467025      1.509590     -0.378841
  H       3.292208      0.106366      0.693064
24
Coordinates from ORCA-job geo_opt E -700.794885522980
  N      -2.197917      1.092504      0.913254
  C      -2.486966     -0.380018      0.920748
  C      -1.749507     -1.239270     -0.110817
  O      -2.127828     -2.411799     -0.252396
  N      -0.732406     -0.662774     -0.791561
  C       0.262267     -1.447973     -1.540547
  C       1.580883     -1.193923     -0.796916
  O       2.039387     -1.993399      0.032078
  N       2.095927      0.049551     -1.018674
  C       2.742586      0.806022      0.044956
  C       1.732410      1.599001      0.929621
  O       0.490343      1.525902      0.615130
  O       2.223416      2.258715      1.874016
  H      -2.718613      1.553238      1.671638
  H      -1.172305      1.321488      1.041308
  H      -2.504322      1.531499      0.034145
  H      -3.564385     -0.513288      0.774213
  H      -2.223955     -0.759404      1.916795
  H      -0.352323      0.236377     -0.438934
  H       0.309462     -1.111216     -2.586889
  H      -0.006771     -2.508015     -1.504580
  H       1.600753      0.619100     -1.702813
  H       3.463651      1.516146     -0.382460
  H       3.296211      0.111536      0.688801
24
Coordinates from ORCA-job geo_opt E -700.794933352700
  N      -2.188998      1.090139      0.924123
  C      -2.491023     -0.381770      0.915552
  C      -1.756918     -1.238785     -0.119744
  O      -2.140591     -2.409711     -0.265216
  N      -0.731101     -0.668745     -0.789057
  C       0.266149     -1.450694     -1.536875
  C       1.580379     -1.191128     -0.787166
  O       2.029287     -1.982007      0.054874
  N       2.104468      0.046488     -1.021928
  C       2.742301      0.810234      0.042354
  C       1.725253      1.598506      0.921680
  O       0.485716      1.529360      0.596202
  O       2.209151      2.257447      1.869933
  H      -2.693713      1.542768      1.697949
  H      -1.157723      1.312837      1.035597
  H      -2.509247      1.543578      0.057420
  H      -3.569264     -0.500273      0.763321
  H      -2.234741     -0.770192      1.909702
  H      -0.356374      0.233880     -0.441838
  H       0.313715     -1.111147     -2.582226
  H       0.000393     -2.511638     -1.502915
  H       1.613047      0.608982     -1.714461
  H       3.461575      1.521643     -0.385968
  H       3.298257      0.120228      0.688801
24
Coordinates from ORCA-job geo_opt E -700.794946430066
  N      -2.186078      1.090165      0.926770
  C      -2.494495     -0.380580      0.912154
  C      -1.757351     -1.239196     -0.119600
  O      -2.144716     -2.408772     -0.267708
  N      -0.729195     -0.671872     -0.786349
  C       0.267709     -1.453559     -1.534118
  C       1.581562     -1.189953     -0.785198
  O       2.027993     -1.975706      0.062757
  N       2.106005      0.046890     -1.025101
  C       2.742540      0.814106      0.038112
  C       1.724904      1.596476      0.922058
  O       0.485042      1.524959      0.598402
  O       2.207286      2.247736      1.876171
  H      -2.686864      1.540171      1.704550
  H      -1.153286      1.309753      1.036283
  H      -2.507731      1.548640      0.063306
  H      -3.572212     -0.493456      0.752136
  H      -2.246319     -0.772519      1.906905
  H      -0.356409      0.233486     -0.444157
  H       0.313780     -1.115424     -2.579950
  H       0.003558     -2.514823     -1.497898
  H       1.612876      0.606732     -1.718585
  H       3.456032      1.529574     -0.392710
  H       3.305370      0.127170      0.681883
24
Coordinates from ORCA-job geo_opt E -700.794952755536
  N      -2.185796      1.090024      0.927368
  C      -2.496212     -0.379828      0.910650
  C      -1.758323     -1.238919     -0.120371
  O      -2.145253     -2.408667     -0.267989
  N      -0.728946     -0.672536     -0.785763
  C       0.267942     -1.454485     -1.532873
  C       1.581004     -1.189252     -0.783107
  O       2.026095     -1.973140      0.067120
  N       2.106495      0.046746     -1.025750
  C       2.743515      0.815408      0.036265
  C       1.725856      1.595518      0.922679
  O       0.486395      1.526672      0.596775
  O       2.207186      2.241248      1.880851
  H      -2.682428      1.538256      1.708781
  H      -1.152235      1.308655      1.033195
  H      -2.510633      1.550632      0.066295
  H      -3.573634     -0.491993      0.748127
  H      -2.250325     -0.774136      1.905011
  H      -0.356588      0.233602     -0.445332
  H       0.314569     -1.117577     -2.579048
  H       0.004291     -2.515805     -1.495286
  H       1.613573      0.606061     -1.719798
  H       3.453440      1.533144     -0.396465
  H       3.310010      0.130372      0.678782
24
Coordinates from ORCA-job geo_opt E -700.794957487259
  N      -2.185176      1.090229      0.928435
  C      -2.498568     -0.378213      0.908494
  C      -1.758938     -1.238373     -0.120746
  O      -2.144251     -2.408811     -0.266476
  N      -0.728671     -0.672813     -0.785587
  C       0.268357     -1.455951     -1.531175
  C       1.581022     -1.188820     -0.781243
  O       2.025337     -1.970431      0.071411
  N       2.106606      0.046601     -1.026594
  C       2.744384      0.817069      0.033621
  C       1.726466      1.592603      0.924412
  O       0.487586      1.528099      0.594959
  O       2.206714      2.231111      1.887778
  H      -2.678216      1.536805      1.713078
  H      -1.151309      1.307105      1.032813
  H      -2.511270      1.553796      0.069475
  H      -3.575397     -0.489388      0.741283
  H      -2.257360     -0.775937      1.902638
  H      -0.356988      0.234438     -0.447982
  H       0.315584     -1.121778     -2.578176
  H       0.005130     -2.517265     -1.490846
  H       1.613684      0.605499     -1.720952
  H       3.447943      1.539272     -0.402100
  H       3.317329      0.135153      0.673594
24
Coordinates from ORCA-job geo_opt E -700.794959035314
  N      -2.185200      1.090278      0.928583
  C      -2.499761     -0.377681      0.907633
  C      -1.758955     -1.238401     -0.120358
  O      -2.143844     -2.409047     -0.265506
  N      -0.728799     -0.672746     -0.785519
  C       0.268495     -1.456449     -1.530275
  C       1.581095     -1.188624     -0.780400
  O       2.025807     -1.969716      0.072633
  N       2.106645      0.046504     -1.026818
  C       2.744840      0.817840      0.032434
  C       1.726865      1.590710      0.925653
  O       0.488197      1.529263      0.594347
  O       2.207123      2.225454      1.891558
  H      -2.676985      1.536762      1.714123
  H      -1.151163      1.306366      1.032586
  H      -2.511421      1.555048      0.070313
  H      -3.576341     -0.488291      0.738175
  H      -2.260991     -0.776342      1.901987
  H      -0.357393      0.234865     -0.448659
  H       0.315908     -1.123489     -2.577671
  H       0.005454     -2.517774     -1.488813
  H       1.614024      0.605153     -1.721588
  H       3.444777      1.542600     -0.405073
  H       3.321623      0.137716      0.670770
24
Coordinates from ORCA-job geo_opt E -700.794960363524
  N      -2.184862      1.090579      0.928742
  C      -2.500646     -0.377024      0.906726
  C      -1.758668     -1.238307     -0.119916
  O      -2.142608     -2.409419     -0.263627
  N      -0.729077     -0.672508     -0.786037
  C       0.268714     -1.457068     -1.529379
  C       1.581347     -1.188519     -0.779851
  O       2.026324     -1.968751      0.073949
  N       2.106618      0.046370     -1.027149
  C       2.744851      0.818804      0.031195
  C       1.726521      1.587720      0.927361
  O       0.488173      1.529467      0.594200
  O       2.206707      2.217946      1.896344
  H      -2.676103      1.537341      1.714502
  H      -1.150747      1.305743      1.033267
  H      -2.510376      1.556607      0.070868
  H      -3.576998     -0.486618      0.734995
  H      -2.264541     -0.776190      1.901496
  H      -0.358066      0.235439     -0.449944
  H       0.316282     -1.125652     -2.577253
  H       0.005725     -2.518356     -1.486526
  H       1.614619      0.604436     -1.722808
  H       3.440122      1.546956     -0.408314
  H       3.326689      0.141004      0.667273
24
Coordinates from ORCA-job geo_opt E -700.794961098509
  N      -2.184680      1.090782      0.928447
  C      -2.500803     -0.376847      0.906478
  C      -1.758298     -1.238392     -0.119434
  O      -2.141634     -2.409817     -0.262124
  N      -0.729550     -0.672284     -0.786725
  C       0.268697     -1.457229     -1.529086
  C       1.581135     -1.188313     -0.779475
  O       2.026057     -1.968138      0.074799
  N       2.106543      0.046321     -1.027261
  C       2.744759      0.819406      0.030625
  C       1.726251      1.585764      0.928632
  O       0.488087      1.529207      0.594734
  O       2.206462      2.213088      1.899566
  H      -2.676241      1.538109      1.713692
  H      -1.150453      1.305603      1.033490
  H      -2.509502      1.556993      0.070396
  H      -3.577120     -0.485883      0.734082
  H      -2.265624     -0.775525      1.901647
  H      -0.358665      0.235709     -0.450611
  H       0.316506     -1.126429     -2.577146
  H       0.005666     -2.518491     -1.485756
  H       1.615391      0.603837     -1.723946
  H       3.437227      1.549548     -0.410080
  H       3.329788      0.142982      0.665170
24
Coordinates from ORCA-job geo_opt E -700.794961529681
  N      -2.184388      1.091002      0.928079
  C      -2.500474     -0.376769      0.906564
  C      -1.757922     -1.238444     -0.119080
  O      -2.140543     -2.410223     -0.260652
  N      -0.730106     -0.672067     -0.787652
  C       0.268587     -1.457189     -1.529222
  C       1.580636     -1.188040     -0.779146
  O       2.024722     -1.967263      0.076115
  N       2.106507      0.046275     -1.027373
  C       2.744556      0.819802      0.030335
  C       1.725837      1.584262      0.929635
  O       0.487863      1.528561      0.595283
  O       2.205832      2.209455      1.902075
  H      -2.676637      1.538770      1.712619
  H      -1.150088      1.305761      1.033628
  H      -2.508612      1.556856      0.069604
  H      -3.576835     -0.485595      0.734348
  H      -2.265218     -0.774748      1.901982
  H      -0.359268      0.235895     -0.451443
  H       0.316801     -1.126591     -2.577322
  H       0.005454     -2.518420     -1.485810
  H       1.616373      0.603241     -1.725196
  H       3.435208      1.551237     -0.411050
  H       3.331714      0.144231      0.663794
