24
zwitterion conformer 1
N      -2.19928217     1.10597493     0.82989724
C      -2.46422737    -0.34152123     0.92902147
C      -1.71017641    -1.23926209    -0.05381810
O      -2.04084918    -2.41139649    -0.17379698
N      -0.74376315    -0.64416505    -0.77057774
C       0.23729585    -1.41961369    -1.51785175
C       1.56293332    -1.15875114    -0.80233787
O       2.08612416    -1.97066182    -0.05057206
N       2.03004558     0.08958085    -1.00518342
C       2.74943950     0.79748801     0.02498635
C       1.74289920     1.51843992     0.98074441
O       0.52598707     1.39867294     0.69134745
O       2.20379425     2.14488052     1.93806673
H      -2.75127952     1.60510626     1.53550222
H      -1.19069912     1.33203299     0.99556979
H      -2.44901879     1.45925568    -0.09988573
H      -3.52773388    -0.54287592     0.78582991
H      -2.19125879    -0.70152268     1.92357752
H      -0.35412381     0.23217043    -0.40820153
H       0.27037653    -1.08699447    -2.55692903
H      -0.02786036    -2.47715372    -1.46667336
H       1.49027982     0.68900873    -1.61600162
H       3.42787526     1.53508725    -0.40410943
H       3.32322201     0.08621982     0.62151013
