20
Coordinates from ORCA-job geo_opt E -34.316239296290
  N      -1.471238     -1.243553      0.115433
  C      -1.447037      0.144021      0.501882
  C      -0.395860      0.891795     -0.275282
  C       0.943753      0.308976     -0.020152
  C       2.114931      0.771251     -0.585226
  N       3.128481      0.005939     -0.129153
  C       2.618390     -0.926920      0.710202
  N       1.286194     -0.733275      0.769483
  C      -2.803695      0.688333      0.310694
  O      -3.076030      1.460852     -0.669701
  O      -3.802103      0.351000      1.218027
  H      -0.667751     -1.437849     -0.543137
  H      -2.357403     -1.529247     -0.371290
  H      -1.394991     -1.835413      0.991876
  H      -1.223569      0.267691      1.580936
  H      -0.610002      0.745704     -1.347422
  H      -0.368852      1.959157     -0.086355
  H       2.166858      1.619006     -1.281176
  H       4.125411      0.155170     -0.412056
  H       3.234516     -1.662636      1.206783
20
Coordinates from ORCA-job geo_opt E -34.346071910550
  N      -1.479034     -1.291412      0.140543
  C      -1.448707      0.138648      0.508776
  C      -0.389790      0.883408     -0.294255
  C       0.971710      0.317768     -0.050127
  C       2.144864      0.805668     -0.594467
  N       3.140161      0.027612     -0.125933
  C       2.588830     -0.910026      0.678812
  N       1.278391     -0.746199      0.732370
  C      -2.828010      0.730347      0.320021
  O      -3.092136      1.476216     -0.649058
  O      -3.744364      0.379094      1.169544
  H      -0.697175     -1.509251     -0.497256
  H      -2.356014     -1.563987     -0.328062
  H      -1.401193     -1.867547      0.992700
  H      -1.210293      0.258869      1.575507
  H      -0.619464      0.764429     -1.362183
  H      -0.382006      1.949272     -0.085213
  H       2.232475      1.647354     -1.258773
  H       4.116749      0.161106     -0.362946
  H       3.175004     -1.651371      1.174369
20
Coordinates from ORCA-job geo_opt E -34.353166078530
  N      -1.482133     -1.327656      0.165532
  C      -1.448738      0.126429      0.505148
  C      -0.396219      0.856068     -0.328363
  C       0.988145      0.324541     -0.090954
  C       2.162411      0.844326     -0.592839
  N       3.153113      0.052364     -0.110313
  C       2.565151     -0.900098      0.646087
  N       1.268889     -0.765379      0.675814
  C      -2.863378      0.740027      0.310175
  O      -3.071147      1.520226     -0.629424
  O      -3.679493      0.435159      1.169729
  H      -0.710853     -1.562378     -0.462463
  H      -2.364853     -1.584234     -0.285265
  H      -1.392428     -1.887949      1.013423
  H      -1.202874      0.238924      1.561715
  H      -0.647864      0.757136     -1.388947
  H      -0.422174      1.919862     -0.100705
  H       2.291325      1.693170     -1.222878
  H       4.129432      0.178944     -0.297481
  H       3.123686     -1.659484      1.146376
20
Coordinates from ORCA-job geo_opt E -34.354851733250
  N      -1.487714     -1.317384      0.200637
  C      -1.439197      0.145751      0.517126
  C      -0.393242      0.852825     -0.340261
  C       0.995768      0.329201     -0.112260
  C       2.172686      0.863025     -0.581936
  N       3.162897      0.055383     -0.106912
  C       2.561596     -0.916599      0.610823
  N       1.265444     -0.786711      0.626742
  C      -2.870247      0.780030      0.329883
  O      -3.062846      1.492319     -0.667367
  O      -3.723039      0.342165      1.108648
  H      -0.721586     -1.568343     -0.429952
  H      -2.380834     -1.563796     -0.236640
  H      -1.388905     -1.867594      1.056244
  H      -1.179761      0.266677      1.567889
  H      -0.664875      0.760771     -1.395313
  H      -0.424377      1.917097     -0.108633
  H       2.325846      1.729088     -1.183929
  H       4.145764      0.182090     -0.271026
  H       3.106622     -1.695996      1.100605
20
Coordinates from ORCA-job geo_opt E -34.356238023160
  N      -1.483261     -1.330929      0.229433
  C      -1.435803      0.141668      0.502062
  C      -0.398248      0.826587     -0.376893
  C       0.994586      0.325452     -0.141264
  C       2.173685      0.889559     -0.552950
  N       3.167833      0.073953     -0.085717
  C       2.562260     -0.935397      0.571407
  N       1.260453     -0.822198      0.555637
  C      -2.891791      0.763742      0.296524
  O      -3.032434      1.550894     -0.655284
  O      -3.749677      0.382644      1.145918
  H      -0.711229     -1.597977     -0.393300
  H      -2.380784     -1.582477     -0.200186
  H      -1.378818     -1.857582      1.103382
  H      -1.179319      0.285722      1.552268
  H      -0.680000      0.725141     -1.428103
  H      -0.442991      1.894713     -0.156472
  H       2.349145      1.783616     -1.112750
  H       4.157953      0.216720     -0.213565
  H       3.098441     -1.733853      1.044220
20
Coordinates from ORCA-job geo_opt E -34.357795976380
  N      -1.478536     -1.324072      0.264097
  C      -1.431493      0.152260      0.505054
  C      -0.400649      0.821917     -0.389446
  C       0.991308      0.325632     -0.151863
  C       2.172416      0.907206     -0.527239
  N       3.164099      0.077632     -0.079743
  C       2.555735     -0.956957      0.532949
  N       1.253694     -0.846389      0.505829
  C      -2.889578      0.762402      0.283796
  O      -3.025740      1.559800     -0.653677
  O      -3.746364      0.344371      1.087275
  H      -0.702105     -1.601767     -0.348223
  H      -2.374908     -1.582931     -0.162596
  H      -1.375995     -1.831369      1.148695
  H      -1.177993      0.319248      1.552814
  H      -0.687829      0.704398     -1.437554
  H      -0.445435      1.893956     -0.186288
  H       2.358241      1.820299     -1.052048
  H       4.154552      0.226300     -0.190065
  H       3.086581     -1.771937      0.982601
20
Coordinates from ORCA-job geo_opt E -34.359585185490
  N      -1.470483     -1.309343      0.339577
  C      -1.425667      0.174084      0.507985
  C      -0.404073      0.809164     -0.417638
  C       0.986886      0.323054     -0.175293
  C       2.170724      0.939871     -0.470208
  N       3.159144      0.085860     -0.064997
  C       2.548905     -1.000785      0.445582
  N       1.245937     -0.897373      0.391532
  C      -2.890337      0.758203      0.253221
  O      -3.011544      1.597902     -0.642958
  O      -3.758816      0.258013      0.970356
  H      -0.678108     -1.610422     -0.242040
  H      -2.361597     -1.587235     -0.085075
  H      -1.379229     -1.772256      1.248098
  H      -1.179775      0.394283      1.548220
  H      -0.700607      0.655094     -1.458711
  H      -0.447739      1.888859     -0.256481
  H       2.374842      1.890959     -0.915101
  H       4.150163      0.248897     -0.134761
  H       3.071374     -1.846829      0.843060
20
Coordinates from ORCA-job geo_opt E -34.361562740170
  N      -1.461831     -1.290477      0.414343
  C      -1.422897      0.196064      0.509993
  C      -0.406977      0.796960     -0.442365
  C       0.982751      0.319368     -0.193974
  C       2.167280      0.964740     -0.410623
  N       3.153526      0.089792     -0.052220
  C       2.545745     -1.040300      0.355812
  N       1.242448     -0.940633      0.279660
  C      -2.891197      0.750557      0.220608
  O      -3.005783      1.641228     -0.622748
  O      -3.769566      0.166057      0.846473
  H      -0.644996     -1.610160     -0.126212
  H      -2.343190     -1.590994     -0.014745
  H      -1.392302     -1.708130      1.345198
  H      -1.187502      0.471702      1.539923
  H      -0.708740      0.602472     -1.475930
  H      -0.448318      1.882554     -0.327734
  H       2.384337      1.947140     -0.774029
  H       4.143878      0.264208     -0.084682
  H       3.063335     -1.912149      0.697621
20
Coordinates from ORCA-job geo_opt E -34.363783496460
  N      -1.438698     -1.266882      0.485389
  C      -1.419865      0.220265      0.509907
  C      -0.412738      0.788869     -0.468753
  C       0.974760      0.317418     -0.213285
  C       2.159691      0.980792     -0.351865
  N       3.141995      0.084895     -0.037908
  C       2.533167     -1.075761      0.269543
  N       1.230950     -0.974556      0.169474
  C      -2.895423      0.737954      0.188677
  O      -3.011506      1.679688     -0.594337
  O      -3.770620      0.073705      0.725571
  H      -0.591645     -1.593910     -0.009466
  H      -2.305309     -1.597249      0.047730
  H      -1.393548     -1.639355      1.436070
  H      -1.194363      0.550116      1.526423
  H      -0.719755      0.556770     -1.493413
  H      -0.452993      1.878105     -0.395212
  H       2.389927      1.986574     -0.634641
  H       4.132018      0.263006     -0.032875
  H       3.043957     -1.970444      0.557337
20
Coordinates from ORCA-job geo_opt E -34.366743841850
  N      -1.384944     -1.219253      0.586994
  C      -1.413616      0.261637      0.507471
  C      -0.424714      0.784789     -0.509807
  C       0.956613      0.317316     -0.241873
  C       2.142144      0.989233     -0.262824
  N       3.114844      0.063120     -0.011994
  C       2.501637     -1.124756      0.143707
  N       1.202714     -1.010271      0.007027
  C      -2.903731      0.708476      0.144184
  O      -3.046516      1.715472     -0.542844
  O      -3.746692     -0.071740      0.542363
  H      -0.490061     -1.537557      0.158579
  H      -2.223363     -1.604659      0.139075
  H      -1.373157     -1.524926      1.561293
  H      -1.204861      0.671969      1.498593
  H      -0.740394      0.500528     -1.518885
  H      -0.462401      1.876690     -0.492979
  H       2.393626      2.016559     -0.425046
  H       4.103571      0.235532      0.050154
  H       2.999301     -2.048156      0.351180
20
Coordinates from ORCA-job geo_opt E -34.370718649590
  N      -1.327150     -1.165138      0.689730
  C      -1.428257      0.302220      0.515214
  C      -0.434844      0.804327     -0.522148
  C       0.947941      0.319280     -0.263371
  C       2.140956      0.978873     -0.205644
  N       3.099223      0.022944     -0.012916
  C       2.475157     -1.167178      0.033270
  N       1.181251     -1.026455     -0.117919
  C      -2.917576      0.657925      0.081215
  O      -3.110079      1.747265     -0.460089
  O      -3.728097     -0.244788      0.305907
  H      -0.352933     -1.448143      0.375157
  H      -2.104993     -1.611504      0.186777
  H      -1.416542     -1.420019      1.674742
  H      -1.258351      0.791480      1.478287
  H      -0.755011      0.479888     -1.517030
  H      -0.463874      1.895427     -0.536080
  H       2.402747      2.013242     -0.275662
  H       4.089037      0.179743      0.080533
  H       2.961395     -2.109386      0.174395
20
Coordinates from ORCA-job geo_opt E -34.372128069950
  N      -1.368728     -1.178344      0.691118
  C      -1.444827      0.294301      0.532614
  C      -0.425050      0.802873     -0.495493
  C       0.968448      0.304719     -0.261601
  C       2.161904      0.975026     -0.257215
  N       3.130469      0.033325     -0.049609
  C       2.513828     -1.154082      0.071967
  N       1.217331     -1.028015     -0.054955
  C      -2.913584      0.664610      0.074753
  O      -3.109824      1.817487     -0.333914
  O      -3.737052     -0.276973      0.168962
  H      -0.393583     -1.489507      0.390012
  H      -2.145555     -1.589064      0.153555
  H      -1.512697     -1.451657      1.665783
  H      -1.277175      0.778861      1.497627
  H      -0.749795      0.473132     -1.486740
  H      -0.448726      1.891632     -0.498755
  H       2.396654      2.010612     -0.377690
  H       4.122239      0.203996      0.006890
  H       3.015724     -2.082934      0.247057
20
Coordinates from ORCA-job geo_opt E -34.374266962440
  N      -1.327622     -1.145617      0.719018
  C      -1.433615      0.318913      0.537394
  C      -0.430879      0.807898     -0.515661
  C       0.953515      0.298054     -0.277239
  C       2.150462      0.962063     -0.257863
  N       3.109822      0.013576     -0.043921
  C       2.481994     -1.168898      0.073514
  N       1.187519     -1.035117     -0.068471
  C      -2.905991      0.644021      0.072244
  O      -3.191209      1.837075     -0.110370
  O      -3.638954     -0.363450     -0.073990
  H      -0.349759     -1.445524      0.416975
  H      -2.100661     -1.558642      0.171826
  H      -1.488642     -1.415209      1.691518
  H      -1.263695      0.835264      1.484013
  H      -0.770155      0.445352     -1.491137
  H      -0.448782      1.894514     -0.540770
  H       2.387168      1.997849     -0.375413
  H       4.102482      0.178133      0.017914
  H       2.977002     -2.100254      0.254787
20
Coordinates from ORCA-job geo_opt E -34.375533474350
  N      -1.323928     -1.141576      0.713843
  C      -1.413232      0.322988      0.549561
  C      -0.434129      0.786553     -0.532224
  C       0.945935      0.285587     -0.282288
  C       2.138234      0.955723     -0.291317
  N       3.101092      0.021354     -0.034277
  C       2.476281     -1.159882      0.118185
  N       1.180427     -1.038463     -0.026400
  C      -2.888402      0.652023      0.093870
  O      -3.232573      1.840970      0.132770
  O      -3.542348     -0.340951     -0.282990
  H      -0.376310     -1.463870      0.362510
  H      -2.133216     -1.505123      0.167294
  H      -1.469769     -1.426822      1.683017
  H      -1.217347      0.843855      1.487332
  H      -0.789492      0.396471     -1.492424
  H      -0.454204      1.872353     -0.581251
  H       2.364508      1.987981     -0.453784
  H       4.092204      0.192676      0.020773
  H       2.976271     -2.081845      0.332167
20
Coordinates from ORCA-job geo_opt E -34.375752331500
  N      -1.336120     -1.148280      0.710624
  C      -1.410254      0.318892      0.557644
  C      -0.436306      0.775187     -0.532663
  C       0.948383      0.284225     -0.281677
  C       2.138355      0.957537     -0.301004
  N       3.105218      0.027859     -0.038232
  C       2.484695     -1.153559      0.129596
  N       1.188170     -1.037300     -0.012111
  C      -2.882930      0.662757      0.099423
  O      -3.229261      1.848530      0.167525
  O      -3.532186     -0.322549     -0.300097
  H      -0.385746     -1.477035      0.371111
  H      -2.140733     -1.490821      0.137967
  H      -1.498556     -1.443626      1.673866
  H      -1.204432      0.836655      1.494930
  H      -0.793955      0.380404     -1.489689
  H      -0.458994      1.861703     -0.590957
  H       2.360263      1.988517     -0.475670
  H       4.096069      0.202394      0.011264
  H       2.988318     -2.071489      0.352515
20
Coordinates from ORCA-job geo_opt E -34.375858917280
  N      -1.345791     -1.154698      0.706200
  C      -1.407624      0.313903      0.570535
  C      -0.440765      0.766565     -0.528646
  C       0.949182      0.283880     -0.280535
  C       2.138563      0.957344     -0.316476
  N       3.107813      0.032605     -0.044313
  C       2.490152     -1.147292      0.143497
  N       1.193073     -1.034163      0.007003
  C      -2.876846      0.671980      0.107794
  O      -3.225934      1.854549      0.194787
  O      -3.519823     -0.306107     -0.320828
  H      -0.390747     -1.484730      0.386842
  H      -2.136836     -1.474175      0.098915
  H      -1.531300     -1.464356      1.660358
  H      -1.190513      0.825673      1.507975
  H      -0.801047      0.370038     -1.483186
  H      -0.463700      1.853912     -0.593718
  H       2.356548      1.986116     -0.507727
  H       4.098657      0.209478     -0.001872
  H       2.996939     -2.060524      0.377760
20
Coordinates from ORCA-job geo_opt E -34.375867107470
  N      -1.347030     -1.155576      0.706918
  C      -1.407713      0.312899      0.573354
  C      -0.442081      0.765508     -0.527222
  C       0.948751      0.283793     -0.280338
  C       2.138347      0.956884     -0.318954
  N       3.107865      0.032896     -0.046991
  C       2.490389     -1.146427      0.145212
  N       1.193186     -1.033479      0.010538
  C      -2.875392      0.673649      0.108362
  O      -3.227423      1.854795      0.202129
  O      -3.514849     -0.301908     -0.333141
  H      -0.389149     -1.484479      0.394795
  H      -2.132985     -1.472926      0.093085
  H      -1.539237     -1.466876      1.659299
  H      -1.188311      0.823556      1.510589
  H      -0.802523      0.368368     -1.481376
  H      -0.464152      1.852698     -0.593647
  H       2.355689      1.985422     -0.512504
  H       4.098757      0.210098     -0.006503
  H       2.997860     -2.058894      0.380761
20
Coordinates from ORCA-job geo_opt E -34.375870326050
  N      -1.347074     -1.157088      0.704609
  C      -1.407594      0.311627      0.574344
  C      -0.443012      0.765695     -0.526099
  C       0.947928      0.284196     -0.279824
  C       2.137900      0.956394     -0.321878
  N       3.107240      0.033258     -0.047927
  C       2.489353     -1.145320      0.148244
  N       1.192130     -1.032374      0.014414
  C      -2.874536      0.675269      0.109546
  O      -3.225015      1.856980      0.201283
  O      -3.515484     -0.299761     -0.331215
  H      -0.387472     -1.483831      0.396477
  H      -2.129313     -1.474706      0.087780
  H      -1.542167     -1.470099      1.655958
  H      -1.185899      0.819442      1.512454
  H      -0.803253      0.369808     -1.480888
  H      -0.464232      1.852865     -0.591616
  H       2.355408      1.984390     -0.518556
  H       4.098134      0.210492     -0.008332
  H       2.996958     -2.057236      0.385597
20
Coordinates from ORCA-job geo_opt E -34.375871976370
  N      -1.346986     -1.157310      0.704253
  C      -1.407815      0.311433      0.574290
  C      -0.443280      0.765774     -0.526077
  C       0.947669      0.284122     -0.279917
  C       2.137748      0.956039     -0.323142
  N       3.107093      0.033194     -0.048333
  C       2.489068     -1.145076      0.149359
  N       1.191835     -1.032136      0.015797
  C      -2.874534      0.675706      0.109691
  O      -3.225753      1.856906      0.205908
  O      -3.514578     -0.297918     -0.335558
  H      -0.386028     -1.482907      0.397577
  H      -2.128004     -1.476236      0.087189
  H      -1.543472     -1.470148      1.655391
  H      -1.185162      0.818396      1.512679
  H      -0.803518      0.369789     -1.480882
  H      -0.464322      1.852911     -0.591426
  H       2.355351      1.983800     -0.520989
  H       4.097971      0.210474     -0.008881
  H       2.996717     -2.056811      0.387437
