20
Coordinates from ORCA-job geo_opt E -34.375871976370
  N          -1.34698591212331     -1.15730989953891      0.70425274100982
  C          -1.40781542561094      0.31143250600018      0.57428951048382
  C          -0.44327951817092      0.76577359628003     -0.52607656302637
  C           0.94766858064620      0.28412192165244     -0.27991674810188
  C           2.13774848596186      0.95603853889992     -0.32314175694896
  N           3.10709346001857      0.03319358383914     -0.04833255601813
  C           2.48906823380078     -1.14507604509149      0.14935897670538
  N           1.19183452734518     -1.03213572591301      0.01579745592633
  C          -2.87453420999696      0.67570598995275      0.10969139383360
  O          -3.22575313698932      1.85690566887974      0.20590781945253
  O          -3.51457849397456     -0.29791757696953     -0.33555783181560
  H          -0.38602778702671     -1.48290744088180      0.39757721365029
  H          -2.12800353476453     -1.47623647268900      0.08718886150704
  H          -1.54347172582992     -1.47014782885440      1.65539116219894
  H          -1.18516236162403      0.81839573304488      1.51267909665278
  H          -0.80351845776516      0.36978933219186     -1.48088188793016
  H          -0.46432229656442      1.85291066207981     -0.59142624605022
  H           2.35535135709401      1.98379983003748     -0.52098930050940
  H           4.09797098748269      0.21047428770768     -0.00888086749647
  H           2.99671722809148     -2.05681069062779      0.38743679647665
