20
zwitterion conformer 5
N      -1.47123833    -1.24355274     0.11543270
C      -1.44703749     0.14402051     0.50188221
C      -0.39585982     0.89179538    -0.27528181
C       0.94375298     0.30897554    -0.02015187
C       2.11493114     0.77125090    -0.58522593
N       3.12848085     0.00593862    -0.12915345
C       2.61838956    -0.92692014     0.71020190
N       1.28619356    -0.73327461     0.76948349
C      -2.80369534     0.68833312     0.31069445
O      -3.07603037     1.46085153    -0.66970092
O      -3.80210320     0.35100011     1.21802743
H      -0.66775092    -1.43784925    -0.54313680
H      -2.35740347    -1.52924667    -0.37128987
H      -1.39499104    -1.83541333     0.99187646
H      -1.22356874     0.26769131     1.58093571
H      -0.61000193     0.74570358    -1.34742220
H      -0.36885204     1.95915664    -0.08635498
H       2.16685792     1.61900592    -1.28117595
H       4.12541077     0.15516973    -0.41205615
H       3.23451591    -1.66263618     1.20678285
