20
Coordinates from ORCA-job geo_opt E -34.338141561510
  N      -0.933309      1.301985      0.875945
  C      -1.192292     -0.042472      0.394318
  C      -0.151169     -0.364587     -0.687855
  C       1.213979     -0.280788     -0.101964
  C       1.850981     -1.367039      0.479081
  N       3.072364     -0.951191      0.910059
  C       3.173873      0.357528      0.597527
  N       2.043893      0.776924     -0.021043
  C      -2.501435     -0.055406     -0.315172
  O      -3.219560      0.976093     -0.440157
  O      -2.896141     -1.296875     -0.843902
  H      -1.734416      1.721389      1.374701
  H      -0.666697      1.952751      0.105921
  H      -1.136948     -0.763422      1.217686
  H      -0.310423     -1.377021     -1.088203
  H      -0.202218      0.371619     -1.510271
  H       1.441341     -2.382041      0.573896
  H       4.025129      1.019574      0.796141
  H       1.822934      1.746399     -0.384647
  H      -3.699885     -1.343420     -1.470375
20
Coordinates from ORCA-job geo_opt E -34.359515374940
  N      -0.957736      1.322408      0.888709
  C      -1.210831     -0.006137      0.366274
  C      -0.146115     -0.346581     -0.703008
  C       1.225677     -0.296913     -0.108669
  C       1.886515     -1.354792      0.482796
  N       3.106095     -0.947243      0.914260
  C       3.189255      0.329790      0.597143
  N       2.066250      0.754489     -0.025166
  C      -2.539396     -0.058318     -0.335871
  O      -3.268201      0.912137     -0.487356
  O      -2.877643     -1.267628     -0.825944
  H      -1.761023      1.692637      1.382654
  H      -0.752415      1.971166      0.136366
  H      -1.160437     -0.729364      1.181588
  H      -0.322580     -1.348030     -1.094772
  H      -0.202653      0.375148     -1.525765
  H       1.511033     -2.353015      0.592043
  H       4.024178      0.971042      0.793658
  H       1.865990      1.685881     -0.368917
  H      -3.675962     -1.306677     -1.398336
20
Coordinates from ORCA-job geo_opt E -34.363524274290
  N      -0.962351      1.358846      0.860892
  C      -1.204639      0.034865      0.319775
  C      -0.126724     -0.318893     -0.733120
  C       1.233584     -0.318067     -0.120122
  C       1.902626     -1.370316      0.461674
  N       3.115061     -0.966328      0.916641
  C       3.188046      0.303477      0.626254
  N       2.074307      0.742698     -0.002322
  C      -2.554563     -0.062306     -0.366173
  O      -3.302868      0.874280     -0.519201
  O      -2.860089     -1.275482     -0.772877
  H      -1.768283      1.678779      1.383078
  H      -0.835462      2.017362      0.101903
  H      -1.151711     -0.690548      1.135059
  H      -0.326345     -1.310684     -1.131362
  H      -0.170171      0.408225     -1.546748
  H       1.555878     -2.376473      0.557821
  H       4.018641      0.935620      0.849645
  H       1.881693      1.675429     -0.315506
  H      -3.706629     -1.340485     -1.243620
20
Coordinates from ORCA-job geo_opt E -34.364853925880
  N      -0.959687      1.412097      0.815517
  C      -1.192839      0.076798      0.297393
  C      -0.117068     -0.298194     -0.749105
  C       1.235299     -0.340518     -0.129758
  C       1.910814     -1.399159      0.424767
  N       3.117497     -0.997762      0.902831
  C       3.177926      0.280093      0.653479
  N       2.066983      0.730715      0.028453
  C      -2.565864     -0.072138     -0.350860
  O      -3.318506      0.856094     -0.546452
  O      -2.828027     -1.301649     -0.727555
  H      -1.747191      1.695564      1.387333
  H      -0.927004      2.065872      0.039449
  H      -1.125487     -0.631604      1.129031
  H      -0.344558     -1.283461     -1.151127
  H      -0.144084      0.434571     -1.557741
  H       1.588180     -2.417291      0.492986
  H       4.004317      0.909846      0.906698
  H       1.867321      1.676401     -0.246784
  H      -3.698022     -1.396276     -1.156868
20
Coordinates from ORCA-job geo_opt E -34.365468140910
  N      -0.946466      1.476865      0.719206
  C      -1.168482      0.126895      0.234493
  C      -0.087543     -0.272880     -0.794064
  C       1.246214     -0.368588     -0.151416
  C       1.932115     -1.439341      0.354903
  N       3.118159     -1.038475      0.890526
  C       3.150038      0.255808      0.722931
  N       2.046290      0.717786      0.095742
  C      -2.557836     -0.074656     -0.380588
  O      -3.340343      0.837613     -0.562017
  O      -2.832982     -1.341999     -0.601835
  H      -1.691998      1.721155      1.363731
  H      -1.034391      2.120538     -0.065188
  H      -1.093110     -0.561763      1.085697
  H      -0.345948     -1.246723     -1.209848
  H      -0.080576      0.470445     -1.593496
  H       1.652033     -2.474507      0.357889
  H       3.957576      0.885575      1.039932
  H       1.824345      1.678918     -0.111113
  H      -3.747094     -1.472667     -0.933800
20
Coordinates from ORCA-job geo_opt E -34.366122119200
  N      -0.934038      1.508849      0.672648
  C      -1.160853      0.143667      0.237330
  C      -0.092587     -0.284104     -0.792478
  C       1.243739     -0.385291     -0.155578
  C       1.949417     -1.457896      0.316473
  N       3.127119     -1.048657      0.866340
  C       3.131634      0.253053      0.741578
  N       2.019074      0.709114      0.127840
  C      -2.558795     -0.074970     -0.346551
  O      -3.334489      0.834657     -0.564894
  O      -2.824088     -1.345728     -0.575191
  H      -1.639340      1.762798      1.357829
  H      -1.072497      2.133120     -0.120592
  H      -1.075967     -0.518112      1.109009
  H      -0.366228     -1.259223     -1.196834
  H      -0.078692      0.450076     -1.600728
  H       1.694829     -2.499384      0.286095
  H       3.925360      0.889174      1.080400
  H       1.771022      1.670824     -0.041291
  H      -3.724621     -1.481968     -0.939716
20
Coordinates from ORCA-job geo_opt E -34.366809552000
  N      -0.907472      1.560784      0.572499
  C      -1.145315      0.172649      0.228311
  C      -0.096946     -0.308471     -0.798097
  C       1.243053     -0.412781     -0.166634
  C       1.995206     -1.484713      0.227440
  N       3.149558     -1.061792      0.816964
  C       3.090796      0.246088      0.794230
  N       1.961216      0.690826      0.206437
  C      -2.552097     -0.068193     -0.312759
  O      -3.324177      0.831537     -0.572971
  O      -2.823756     -1.345390     -0.501298
  H      -1.536330      1.843867      1.316581
  H      -1.129358      2.145156     -0.230725
  H      -1.047013     -0.439432      1.133808
  H      -0.391883     -1.286514     -1.179346
  H      -0.070537      0.405273     -1.624619
  H       1.797046     -2.532165      0.115116
  H       3.850151      0.890665      1.188876
  H       1.654601      1.646852      0.122233
  H      -3.716743     -1.494243     -0.874358
20
Coordinates from ORCA-job geo_opt E -34.367489283650
  N      -0.860805      1.617145      0.428684
  C      -1.124564      0.208204      0.211286
  C      -0.104379     -0.354973     -0.802506
  C       1.242613     -0.447327     -0.179948
  C       2.076643     -1.497203      0.089253
  N       3.191988     -1.056710      0.738611
  C       3.027035      0.235749      0.876187
  N       1.867136      0.654346      0.331153
  C      -2.540802     -0.048492     -0.283259
  O      -3.307028      0.838613     -0.594696
  O      -2.838143     -1.330177     -0.389855
  H      -1.378853      1.958581      1.229860
  H      -1.181496      2.146601     -0.377324
  H      -1.012423     -0.333472      1.157680
  H      -0.420707     -1.341859     -1.138507
  H      -0.068677      0.318013     -1.662752
  H       1.969464     -2.534959     -0.152923
  H       3.731101      0.884172      1.355403
  H       1.463030      1.576884      0.375969
  H      -3.731134     -1.493135     -0.750629
20
Coordinates from ORCA-job geo_opt E -34.367816954000
  N      -0.827969      1.623475      0.383008
  C      -1.121672      0.212557      0.210684
  C      -0.112952     -0.400023     -0.787998
  C       1.241279     -0.465342     -0.174290
  C       2.132452     -1.485295      0.021532
  N       3.230584     -1.027163      0.686846
  C       3.001490      0.243884      0.903824
  N       1.815449      0.633993      0.393688
  C      -2.536818     -0.026513     -0.290282
  O      -3.284867      0.865878     -0.629146
  O      -2.867613     -1.302009     -0.353286
  H      -1.311222      1.998287      1.190613
  H      -1.161370      2.136815     -0.427108
  H      -1.021161     -0.303183      1.171383
  H      -0.431071     -1.398436     -1.083556
  H      -0.083362      0.236639     -1.676218
  H       2.074628     -2.509469     -0.285004
  H       3.677671      0.897795      1.413755
  H       1.351227      1.525278      0.497890
  H      -3.764702     -1.457167     -0.704648
20
Coordinates from ORCA-job geo_opt E -34.368129012310
  N      -0.822177      1.603614      0.422641
  C      -1.136176      0.197908      0.226727
  C      -0.119949     -0.432724     -0.756033
  C       1.240283     -0.469398     -0.149843
  C       2.158295     -1.473180      0.012654
  N       3.263653     -1.000201      0.652794
  C       3.018848      0.264280      0.881214
  N       1.812535      0.637902      0.404509
  C      -2.537540     -0.009102     -0.326611
  O      -3.258806      0.899862     -0.681206
  O      -2.900354     -1.274585     -0.376974
  H      -1.345101      1.982408      1.203744
  H      -1.104228      2.125030     -0.401590
  H      -1.067895     -0.327924      1.183678
  H      -0.426917     -1.443050     -1.019324
  H      -0.103525      0.174979     -1.665177
  H       2.103474     -2.495568     -0.300910
  H       3.697698      0.929102      1.373452
  H       1.327595      1.520796      0.510131
  H      -3.799713     -1.410146     -0.732189
20
Coordinates from ORCA-job geo_opt E -34.368273723920
  N      -0.817618      1.615996      0.405726
  C      -1.136238      0.209128      0.222277
  C      -0.119762     -0.446154     -0.743152
  C       1.241394     -0.477926     -0.142009
  C       2.183751     -1.464658     -0.026987
  N       3.287985     -0.988601      0.612911
  C       3.017297      0.260706      0.890247
  N       1.796265      0.624148      0.445158
  C      -2.536945     -0.000877     -0.339488
  O      -3.241520      0.906750     -0.731977
  O      -2.910329     -1.263946     -0.342726
  H      -1.350105      1.997536      1.179683
  H      -1.102336      2.127402     -0.425754
  H      -1.077831     -0.304907      1.186722
  H      -0.431284     -1.462712     -0.977321
  H      -0.105794      0.136696     -1.668837
  H       2.144726     -2.478898     -0.370761
  H       3.687933      0.922791      1.398981
  H       1.283509      1.486966      0.583837
  H      -3.813097     -1.399439     -0.694844
20
Coordinates from ORCA-job geo_opt E -34.368346718260
  N      -0.818224      1.610147      0.423362
  C      -1.140139      0.205545      0.229718
  C      -0.122069     -0.450621     -0.731305
  C       1.240262     -0.476012     -0.134765
  C       2.186667     -1.460023     -0.033053
  N       3.294751     -0.983156      0.599344
  C       3.024350      0.265779      0.880064
  N       1.798498      0.627363      0.448626
  C      -2.538697      0.002162     -0.343031
  O      -3.226463      0.912603     -0.757153
  O      -2.920078     -1.258682     -0.341478
  H      -1.377571      1.991887      1.178338
  H      -1.073490      2.122894     -0.417269
  H      -1.089483     -0.312835      1.192713
  H      -0.431861     -1.471150     -0.952636
  H      -0.112515      0.122490     -1.663166
  H       2.142678     -2.474850     -0.374763
  H       3.697124      0.928797      1.384963
  H       1.282416      1.488317      0.585665
  H      -3.816159     -1.390655     -0.712484
20
Coordinates from ORCA-job geo_opt E -34.368379242520
  N      -0.817632      1.611942      0.420313
  C      -1.140590      0.206856      0.232638
  C      -0.123995     -0.454247     -0.725298
  C       1.239960     -0.476224     -0.131731
  C       2.194177     -1.454525     -0.050546
  N       3.302515     -0.978043      0.582053
  C       3.023582      0.264579      0.883573
  N       1.792872      0.622612      0.464776
  C      -2.538969      0.003651     -0.340463
  O      -3.214570      0.911088     -0.779065
  O      -2.929061     -1.254662     -0.321928
  H      -1.390563      2.002113      1.160880
  H      -1.051994      2.119146     -0.429567
  H      -1.091779     -0.307245      1.198216
  H      -0.434734     -1.476951     -0.937028
  H      -0.115205      0.110844     -1.662205
  H       2.154430     -2.464834     -0.405371
  H       3.692857      0.925274      1.395839
  H       1.267817      1.476852      0.612176
  H      -3.819117     -1.388225     -0.705575
20
Coordinates from ORCA-job geo_opt E -34.368391664090
  N      -0.816258      1.612374      0.417387
  C      -1.140030      0.207237      0.232711
  C      -0.124636     -0.455873     -0.724430
  C       1.240161     -0.476904     -0.131618
  C       2.199729     -1.450840     -0.062094
  N       3.305980     -0.974914      0.575007
  C       3.020941      0.263507      0.888430
  N       1.787551      0.618440      0.475585
  C      -2.538795      0.004039     -0.339099
  O      -3.207958      0.908884     -0.792449
  O      -2.936512     -1.251689     -0.304531
  H      -1.398496      2.008979      1.147117
  H      -1.033956      2.116218     -0.438650
  H      -1.091932     -0.304602      1.199556
  H      -0.436397     -1.478933     -0.933514
  H      -0.115252      0.106450     -1.662933
  H       2.165934     -2.457557     -0.427385
  H       3.687026      0.922852      1.406454
  H       1.257253      1.468741      0.628499
  H      -3.824353     -1.386408     -0.692358
20
Coordinates from ORCA-job geo_opt E -34.368397780850
  N      -0.816648      1.613616      0.415161
  C      -1.138996      0.208194      0.231365
  C      -0.124286     -0.454289     -0.726643
  C       1.240763     -0.477047     -0.133374
  C       2.201927     -1.449643     -0.067712
  N       3.306914     -0.974654      0.572549
  C       3.018432      0.260902      0.893811
  N       1.784932      0.615591      0.481091
  C      -2.538260      0.002998     -0.338187
  O      -3.206383      0.905072     -0.798769
  O      -2.939371     -1.251269     -0.291277
  H      -1.406377      2.013713      1.136808
  H      -1.022937      2.115152     -0.444907
  H      -1.089987     -0.302805      1.198631
  H      -0.437095     -1.476537     -0.937985
  H      -0.113695      0.109277     -1.664345
  H       2.172471     -2.454219     -0.439153
  H       3.682496      0.918530      1.416557
  H       1.253734      1.465212      0.635490
  H      -3.827635     -1.387795     -0.677422
20
Coordinates from ORCA-job geo_opt E -34.368399843980
  N      -0.816477      1.615346      0.412272
  C      -1.137997      0.209575      0.230059
  C      -0.124028     -0.453289     -0.728395
  C       1.241102     -0.477579     -0.135031
  C       2.203486     -1.449058     -0.071666
  N       3.306509     -0.975320      0.572924
  C       3.016455      0.258908      0.897464
  N       1.782827      0.613351      0.484617
  C      -2.537622      0.002433     -0.337757
  O      -3.206854      0.902636     -0.800627
  O      -2.939147     -1.251414     -0.284314
  H      -1.409205      2.017180      1.130452
  H      -1.019478      2.114899     -0.449753
  H      -1.087854     -0.300286      1.197877
  H      -0.437608     -1.474863     -0.941490
  H      -0.112931      0.111249     -1.665562
  H       2.177314     -2.452270     -0.447045
  H       3.679095      0.915230      1.423654
  H       1.251377      1.462539      0.640584
  H      -3.828963     -1.389267     -0.666576
20
Coordinates from ORCA-job geo_opt E -34.368400408180
  N      -0.816266      1.615646      0.412180
  C      -1.137885      0.209851      0.230089
  C      -0.124148     -0.453205     -0.728468
  C       1.241039     -0.477709     -0.135363
  C       2.203514     -1.449083     -0.071980
  N       3.306572     -0.975228      0.572360
  C       3.016113      0.258584      0.897946
  N       1.782430      0.613029      0.485054
  C      -2.537458      0.002474     -0.337771
  O      -3.207474      0.902537     -0.799815
  O      -2.938324     -1.251599     -0.284560
  H      -1.410416      2.017833      1.129026
  H      -1.018309      2.114628     -0.450462
  H      -1.087450     -0.299825      1.197986
  H      -0.437684     -1.474688     -0.941951
  H      -0.113409      0.111502     -1.665603
  H       2.177853     -2.452223     -0.447618
  H       3.678577      0.914604      1.424737
  H       1.251567      1.462521      0.641112
  H      -3.828840     -1.389648     -0.665212
