20
Coordinates from ORCA-job geo_opt E -34.368400408180
  N          -0.81626643467285      1.61564592798548      0.41218044004879
  C          -1.13788499903731      0.20985147861333      0.23008856520725
  C          -0.12414821904943     -0.45320545119742     -0.72846773673957
  C           1.24103872353752     -0.47770916791707     -0.13536256220883
  C           2.20351414199224     -1.44908349046026     -0.07198007190413
  N           3.30657204371919     -0.97522812708397      0.57236031480437
  C           3.01611344219556      0.25858402582771      0.89794581972872
  N           1.78242985676356      0.61302928600548      0.48505366690991
  C          -2.53745833837371      0.00247406139573     -0.33777140692546
  O          -3.20747394096718      0.90253663620469     -0.79981493786676
  O          -2.93832431913654     -1.25159876946666     -0.28456008827908
  H          -1.41041568803114      2.01783318653515      1.12902562238161
  H          -1.01830858109464      2.11462780754295     -0.45046211008060
  H          -1.08744950586172     -0.29982516187740      1.19798596362217
  H          -0.43768445837578     -1.47468774420850     -0.94195080886292
  H          -0.11340936603752      0.11150153246570     -1.66560257500007
  H           2.17785264457222     -2.45222269087794     -0.44761759358969
  H           3.67857656067698      0.91460385890966      1.42473735632495
  H           1.25156690128492      1.46252065244922      0.64111248653487
  H          -3.82884046410437     -1.38964785084588     -0.66521231410553
