20
neutral_delta conformer 1
N      -0.93330910     1.30198474     0.87594482
C      -1.19229222    -0.04247208     0.39431793
C      -0.15116949    -0.36458668    -0.68785478
C       1.21397949    -0.28078833    -0.10196402
C       1.85098107    -1.36703900     0.47908104
N       3.07236365    -0.95119052     0.91005949
C       3.17387334     0.35752803     0.59752702
N       2.04389337     0.77692373    -0.02104314
C      -2.50143546    -0.05540572    -0.31517162
O      -3.21955973     0.97609255    -0.44015728
O      -2.89614068    -1.29687481    -0.84390168
H      -1.73441645     1.72138944     1.37470143
H      -0.66669742     1.95275100     0.10592069
H      -1.13694833    -0.76342208     1.21768621
H      -0.31042335    -1.37702139    -1.08820276
H      -0.20221762     0.37161861    -1.51027069
H       1.44134051    -2.38204077     0.57389631
H       4.02512933     1.01957404     0.79614130
H       1.82293393     1.74639887    -0.38464686
H      -3.69988484    -1.34341963    -1.47037538
