20
Coordinates from ORCA-job geo_opt_tzvp E -549.053181866839
  N          -1.42687166051306     -1.29349130096147     -0.20786711633395
  C          -1.51445671830763      0.17057012884700      0.13480837190225
  C          -0.30815192742239      0.91619361069879     -0.47224005890914
  C           1.01563103628782      0.36987410894410     -0.03202573205645
  C           2.06810459217707      0.99732161271801      0.60073714829232
  N           3.03254506983534      0.02583972825889      0.77002908681158
  C           2.55565807270028     -1.13722841056744      0.25677194440569
  N           1.33591749456279     -0.96695825940793     -0.24358655794063
  C          -2.85116416400182      0.72242597378357     -0.44672847918652
  O          -3.40880607431639      0.00249354994713     -1.32891829748439
  O          -3.22361990657474      1.84137608729152     -0.00870781324039
  H          -1.83547949397919     -1.88232937055238      0.52655940473082
  H          -0.42265015868545     -1.57435560210118     -0.35352270215147
  H          -2.00822266433529     -1.40687022291677     -1.06368119396243
  H          -1.50882531584279      0.26188644434923      1.22768600862116
  H          -0.39223940002894      1.97305187518774     -0.18889618823936
  H          -0.38758475462293      0.86641507935630     -1.57212702153065
  H           2.21367785925110      2.01903072068027      0.93335866951562
  H           3.94446290453546      0.15844911469623      1.20005580664900
  H           3.12207518928077     -2.06369483825160      0.26829471010695
