20
Coordinates from ORCA-job geo_opt_tzvp E -549.053175970613
  N      -1.427695     -1.293733     -0.202866
  C      -1.512956      0.173455      0.134819
  C      -0.306917      0.916441     -0.475967
  C       1.016676      0.369508     -0.035772
  C       2.063936      0.994776      0.607479
  N       3.031003      0.024566      0.773792
  C       2.559455     -1.136001      0.248441
  N       1.341599     -0.965381     -0.257479
  C      -2.850104      0.722204     -0.449067
  O      -3.410708     -0.005168     -1.325021
  O      -3.220505      1.845992     -0.019097
  H      -1.831971     -1.878405      0.537235
  H      -0.425939     -1.576261     -0.354659
  H      -2.016289     -1.408259     -1.053901
  H      -1.507228      0.268342      1.227077
  H      -0.389626      1.973564     -0.193511
  H      -0.387114      0.865117     -1.575404
  H       2.205017      2.014017      0.949556
  H       3.940340      0.155876      1.209356
  H       3.129025     -2.060651      0.254990
20
Coordinates from ORCA-job geo_opt_tzvp E -549.053180562523
  N      -1.427296     -1.293382     -0.206170
  C      -1.512744      0.172214      0.134353
  C      -0.307054      0.915809     -0.475883
  C       1.016531      0.369552     -0.035082
  C       2.065006      0.995818      0.605056
  N       3.030991      0.025394      0.773268
  C       2.557676     -1.136261      0.253050
  N       1.339331     -0.966321     -0.250989
  C      -2.850165      0.722489     -0.446806
  O      -3.410789     -0.001299     -1.324521
  O      -3.220829      1.843804     -0.012835
  H      -1.829729     -1.880058      0.533321
  H      -0.425438     -1.574857     -0.360586
  H      -2.017107     -1.406878     -1.056515
  H      -1.505850      0.264994      1.227008
  H      -0.390356      1.973096     -0.193894
  H      -0.387010      0.863919     -1.575502
  H       2.207574      2.016122      0.943259
  H       3.941209      0.157422      1.207050
  H       3.126050     -2.061576      0.262417
20
Coordinates from ORCA-job geo_opt_tzvp E -549.053181504631
  N      -1.426686     -1.292995     -0.205209
  C      -1.513738      0.171949      0.134756
  C      -0.307687      0.916181     -0.474017
  C       1.015987      0.369698     -0.033742
  C       2.065963      0.995830      0.604123
  N       3.031131      0.024854      0.772017
  C       2.556915     -1.136484      0.252591
  N       1.338506     -0.965757     -0.250496
  C      -2.850649      0.721850     -0.447714
  O      -3.408966     -0.000885     -1.327029
  O      -3.221996      1.842757     -0.014486
  H      -1.831716     -1.880077      0.532529
  H      -0.423740     -1.574094     -0.355176
  H      -2.012696     -1.407178     -1.058113
  H      -1.507965      0.265016      1.227511
  H      -0.391207      1.973324     -0.191422
  H      -0.387645      0.865241     -1.573807
  H       2.209581      2.016297      0.941362
  H       3.941897      0.156617      1.204819
  H       3.124709     -2.062144      0.261503
20
Coordinates from ORCA-job geo_opt_tzvp E -549.053174349606
  N      -1.426374     -1.292421     -0.206297
  C      -1.514243      0.171940      0.133945
  C      -0.307477      0.916645     -0.473081
  C       1.015997      0.369912     -0.032506
  C       2.067649      0.996298      0.602549
  N       3.031989      0.024731      0.770822
  C       2.555996     -1.137171      0.254605
  N       1.337167     -0.965999     -0.247160
  C      -2.850385      0.722743     -0.449563
  O      -3.410015     -0.000939     -1.326904
  O      -3.226556      1.839205     -0.009478
  H      -1.834564     -1.880122      0.529224
  H      -0.422353     -1.573617     -0.351746
  H      -2.008265     -1.406711     -1.061901
  H      -1.509456      0.264947      1.226767
  H      -0.391185      1.973705     -0.190240
  H      -0.386866      0.866363     -1.573012
  H       2.212715      2.017351      0.937387
  H       3.943512      0.156613      1.201984
  H       3.122713     -2.063475      0.264605
20
Coordinates from ORCA-job geo_opt_tzvp E -549.053181368651
  N      -1.426882     -1.293343     -0.207345
  C      -1.514273      0.170890      0.134622
  C      -0.307941      0.916190     -0.472720
  C       1.015777      0.369893     -0.032340
  C       2.067531      0.996902      0.602034
  N       3.032393      0.025686      0.770251
  C       2.555924     -1.137059      0.255991
  N       1.336429     -0.966653     -0.244785
  C      -2.850991      0.722413     -0.447173
  O      -3.409110      0.001555     -1.328185
  O      -3.223344      1.841626     -0.010058
  H      -1.834292     -1.881800      0.528031
  H      -0.422987     -1.574391     -0.354411
  H      -2.009720     -1.406849     -1.062284
  H      -1.508644      0.262720      1.227470
  H      -0.391920      1.973167     -0.189762
  H      -0.387428      0.865959     -1.572586
  H       2.212621      2.018281      0.935883
  H       3.944216      0.158174      1.200510
  H       3.122641     -2.063362      0.266858
20
Coordinates from ORCA-job geo_opt_tzvp E -549.053181866839
  N      -1.426872     -1.293491     -0.207867
  C      -1.514457      0.170570      0.134808
  C      -0.308152      0.916194     -0.472240
  C       1.015631      0.369874     -0.032026
  C       2.068105      0.997322      0.600737
  N       3.032545      0.025840      0.770029
  C       2.555658     -1.137228      0.256772
  N       1.335917     -0.966958     -0.243587
  C      -2.851164      0.722426     -0.446728
  O      -3.408806      0.002494     -1.328918
  O      -3.223620      1.841376     -0.008708
  H      -1.835479     -1.882329      0.526559
  H      -0.422650     -1.574356     -0.353523
  H      -2.008223     -1.406870     -1.063681
  H      -1.508825      0.261886      1.227686
  H      -0.392239      1.973052     -0.188896
  H      -0.387585      0.866415     -1.572127
  H       2.213678      2.019031      0.933359
  H       3.944463      0.158449      1.200056
  H       3.122075     -2.063695      0.268295
