20
zwitterion conformer 3
N      -1.42769451    -1.29373317    -0.20286569
C      -1.51295597     0.17345455     0.13481913
C      -0.30691704     0.91644126    -0.47596654
C       1.01667558     0.36950834    -0.03577215
C       2.06393568     0.99477610     0.60747890
N       3.03100309     0.02456588     0.77379211
C       2.55945543    -1.13600111     0.24844128
N       1.34159947    -0.96538135    -0.25747929
C      -2.85010436     0.72220436    -0.44906747
O      -3.41070824    -0.00516765    -1.32502147
O      -3.22050455     1.84599220    -0.01909681
H      -1.83197085    -1.87840491     0.53723498
H      -0.42593871    -1.57626138    -0.35465863
H      -2.01628900    -1.40825925    -1.05390088
H      -1.50722788     0.26834239     1.22707667
H      -0.38962615     1.97356438    -0.19351139
H      -0.38711390     0.86511722    -1.57540438
H       2.20501666     2.01401680     0.94955606
H       3.94034044     0.15587608     1.20935597
H       3.12902479    -2.06065071     0.25498959
