20
Coordinates from ORCA-job geo_opt E -549.041791531849
  N           1.44319025083119     -0.34438572692791     -1.47874959248827
  C           1.64307868344902      0.44088983371855     -0.20691844936543
  C           0.40463146085144      1.29165190823916      0.11979405021619
  C          -0.86425605451752      0.49750024380569      0.19749914083735
  C          -1.77114900758717      0.37737310521621      1.22925166301085
  N          -2.75238039897925     -0.47499573384535      0.76609764493707
  C          -2.42492737156449     -0.84881145430022     -0.49814118602808
  N          -1.28787427818809     -0.27495095881034     -0.88086864230527
  C           2.04464170350759     -0.58547533875088      0.90383969614208
  O           2.29344445376961     -1.76494203178060      0.49977578821430
  O           2.11979396788800     -0.13923162930992      2.07653406180213
  H           0.41411742500747     -0.50068131559272     -1.63068143397391
  H           1.89528911342003     -1.26510635498578     -1.27238130771780
  H           1.85768659324310      0.09970271170096     -2.30428728143150
  H           2.50705141825783      1.10097062180962     -0.36406886274630
  H           0.59070393972281      1.79392645324163      1.07702681672165
  H           0.30795593670627      2.07885429954498     -0.64608684486733
  H          -1.80718973782008      0.81145441800999      2.22223223690177
  H          -3.57965606254754     -0.76775669681573      1.27964704188433
  H          -3.03415202545022     -1.52598635416734     -1.08951451974385
