20
Coordinates from ORCA-job geo_opt E -549.035468687954
  N       1.367893     -0.332098     -1.467321
  C       1.625053      0.462426     -0.252419
  C       0.425594      1.330436      0.127625
  C      -0.819202      0.511934      0.198213
  C      -1.738494      0.384643      1.200873
  N      -2.679496     -0.495976      0.746260
  C      -2.307016     -0.871452     -0.490465
  N      -1.197087     -0.281041     -0.854781
  C       1.964014     -0.581838      0.890270
  O       2.137819     -1.746520      0.473264
  O       2.042354     -0.158916      2.047879
  H       0.317091     -0.421041     -1.572430
  H       1.740968     -1.276934     -1.194153
  H       1.808122      0.027033     -2.312588
  H       2.513725      1.086959     -0.366498
  H       0.621201      1.773213      1.104281
  H       0.303632      2.129952     -0.606554
  H      -1.781773      0.830706      2.171459
  H      -3.491691     -0.807187      1.254057
  H      -2.852706     -1.564300     -1.096971
20
Coordinates from ORCA-job geo_opt E -549.040373660871
  N       1.397822     -0.363179     -1.461115
  C       1.639944      0.456544     -0.240794
  C       0.414043      1.308987      0.140910
  C      -0.851553      0.505198      0.203380
  C      -1.775089      0.372573      1.215030
  N      -2.744945     -0.481343      0.733964
  C      -2.395488     -0.840517     -0.525801
  N      -1.261085     -0.256399     -0.882462
  C       2.056616     -0.564509      0.899529
  O       2.278554     -1.742975      0.491648
  O       2.201632     -0.102810      2.051633
  H       0.341303     -0.523780     -1.545831
  H       1.841065     -1.283715     -1.199179
  H       1.796888      0.023320     -2.321535
  H       2.508194      1.110246     -0.395804
  H       0.612844      1.756470      1.120906
  H       0.298590      2.126560     -0.588009
  H      -1.811148      0.800293      2.210086
  H      -3.570660     -0.788033      1.241781
  H      -2.977525     -1.512933     -1.148336
20
Coordinates from ORCA-job geo_opt E -549.039110674584
  N       1.432484     -0.335821     -1.487749
  C       1.656559      0.456790     -0.231610
  C       0.418831      1.302645      0.138621
  C      -0.852405      0.503384      0.211253
  C      -1.786074      0.400357      1.224591
  N      -2.753968     -0.470799      0.756506
  C      -2.392080     -0.883052     -0.489250
  N      -1.245370     -0.308045     -0.856782
  C       2.086658     -0.578136      0.880459
  O       2.232698     -1.778377      0.469493
  O       2.067956     -0.164941      2.069032
  H       0.381154     -0.477703     -1.614200
  H       1.864994     -1.266629     -1.249162
  H       1.852541      0.076747     -2.327886
  H       2.519857      1.118976     -0.392365
  H       0.617830      1.769771      1.112679
  H       0.305064      2.115758     -0.601135
  H      -1.840154      0.861975      2.209602
  H      -3.590057     -0.758770      1.264576
  H      -2.976520     -1.584129     -1.086673
20
Coordinates from ORCA-job geo_opt E -549.040998904411
  N       1.433633     -0.321177     -1.493077
  C       1.645075      0.441608     -0.209796
  C       0.410046      1.292918      0.142506
  C      -0.864032      0.501338      0.213440
  C      -1.811016      0.424147      1.217670
  N      -2.772290     -0.456556      0.756103
  C      -2.391275     -0.905290     -0.471653
  N      -1.235851     -0.342723     -0.839020
  C       2.052428     -0.610397      0.881392
  O       2.307727     -1.785127      0.443142
  O       2.162948     -0.184072      2.062788
  H       0.393151     -0.421581     -1.661567
  H       1.832670     -1.267703     -1.269886
  H       1.887009      0.102132     -2.309208
  H       2.510760      1.102878     -0.359450
  H       0.604035      1.772752      1.111606
  H       0.308028      2.097856     -0.607144
  H      -1.884854      0.909836      2.188220
  H      -3.617410     -0.728477      1.255385
  H      -2.970783     -1.622364     -1.051452
20
Coordinates from ORCA-job geo_opt E -549.041386664291
  N       1.414204     -0.371776     -1.459859
  C       1.641263      0.446785     -0.220076
  C       0.406567      1.287283      0.142950
  C      -0.861365      0.491176      0.206048
  C      -1.783638      0.368053      1.221513
  N      -2.761788     -0.473587      0.738387
  C      -2.426980     -0.824961     -0.528005
  N      -1.284180     -0.252729     -0.890310
  C       2.087209     -0.557054      0.898540
  O       2.328316     -1.739545      0.500667
  O       2.226680     -0.090180      2.053819
  H       0.378945     -0.552101     -1.561359
  H       1.885213     -1.279834     -1.226429
  H       1.799258      0.045578     -2.311436
  H       2.492804      1.114643     -0.402975
  H       0.601670      1.754636      1.114866
  H       0.301438      2.098178     -0.594502
  H      -1.824006      0.791000      2.216556
  H      -3.590950     -0.772003      1.242510
  H      -3.030658     -1.483560     -1.140907
20
Coordinates from ORCA-job geo_opt E -549.041725966915
  N       1.431925     -0.351861     -1.475527
  C       1.645001      0.444241     -0.214457
  C       0.406278      1.285768      0.137694
  C      -0.863832      0.491333      0.207378
  C      -1.788809      0.383716      1.224541
  N      -2.767893     -0.465091      0.750699
  C      -2.422628     -0.851957     -0.504282
  N      -1.274872     -0.287454     -0.872695
  C       2.076806     -0.575267      0.892965
  O       2.321929     -1.756463      0.485068
  O       2.175840     -0.128187      2.063123
  H       0.396940     -0.507958     -1.609956
  H       1.882659     -1.271984     -1.250609
  H       1.842711      0.076623     -2.310611
  H       2.499852      1.112479     -0.385671
  H       0.599415      1.764749      1.105595
  H       0.302892      2.090446     -0.608873
  H      -1.836623      0.826982      2.212988
  H      -3.603245     -0.750608      1.255347
  H      -3.024348     -1.529507     -1.102718
20
Coordinates from ORCA-job geo_opt E -549.041758301507
  N       1.435745     -0.348350     -1.477755
  C       1.644466      0.442677     -0.211480
  C       0.405811      1.286163      0.133636
  C      -0.863876      0.492057      0.205517
  C      -1.786150      0.385205      1.225123
  N      -2.764576     -0.466786      0.755513
  C      -2.422285     -0.853651     -0.500383
  N      -1.276868     -0.287751     -0.872623
  C       2.068205     -0.579525      0.894704
  O       2.314891     -1.759655      0.486404
  O       2.160387     -0.134442      2.066323
  H       0.402543     -0.500898     -1.620810
  H       1.884671     -1.269859     -1.257917
  H       1.850965      0.085102     -2.308225
  H       2.501308      1.109496     -0.378998
  H       0.597267      1.771442      1.098788
  H       0.304235      2.086281     -0.618147
  H      -1.832973      0.829105      2.213443
  H      -3.598410     -0.753282      1.262212
  H      -3.025357     -1.533327     -1.095327
20
Coordinates from ORCA-job geo_opt E -549.041784185833
  N       1.441565     -0.345399     -1.479251
  C       1.643398      0.440960     -0.207456
  C       0.404465      1.287736      0.125258
  C      -0.864014      0.493191      0.201171
  C      -1.777187      0.380485      1.228030
  N      -2.759031     -0.469669      0.762266
  C      -2.424625     -0.851352     -0.497488
  N      -1.283240     -0.283414     -0.875724
  C       2.054533     -0.583432      0.899633
  O       2.303790     -1.762416      0.493674
  O       2.135641     -0.138436      2.072175
  H       0.411958     -0.498430     -1.631851
  H       1.892630     -1.266245     -1.267954
  H       1.858901      0.096238     -2.304542
  H       2.503436      1.105039     -0.369725
  H       0.592572      1.784333      1.085178
  H       0.305717      2.079505     -0.635636
  H      -1.818162      0.819133      2.218798
  H      -3.590033     -0.757923      1.272334
  H      -3.032312     -1.529905     -1.088890
20
Coordinates from ORCA-job geo_opt E -549.041788638413
  N       1.442678     -0.345011     -1.479143
  C       1.643297      0.440708     -0.206870
  C       0.404449      1.289262      0.122502
  C      -0.864250      0.495012      0.199251
  C      -1.774611      0.379628      1.228381
  N      -2.755723     -0.472572      0.764630
  C      -2.425359     -0.849706     -0.497744
  N      -1.286358     -0.278811     -0.878466
  C       2.049951     -0.584614      0.901698
  O       2.299874     -1.763558      0.496691
  O       2.127289     -0.139191      2.074464
  H       0.413602     -0.498897     -1.632564
  H       1.894116     -1.265784     -1.270158
  H       1.859536      0.098102     -2.303958
  H       2.505007      1.103092     -0.367027
  H       0.591500      1.788881      1.081007
  H       0.306837      2.078709     -0.640926
  H      -1.813256      0.816024      2.220219
  H      -3.584484     -0.763608      1.276720
  H      -3.034094     -1.527667     -1.088706
20
Coordinates from ORCA-job geo_opt E -549.041790990886
  N       1.443274     -0.344766     -1.478843
  C       1.643132      0.440842     -0.206829
  C       0.404454      1.290950      0.120320
  C      -0.864351      0.496731      0.197794
  C      -1.771842      0.377696      1.229113
  N      -2.753342     -0.474339      0.765853
  C      -2.425475     -0.848647     -0.498139
  N      -1.288092     -0.275506     -0.880510
  C       2.046046     -0.585158      0.903430
  O       2.295497     -1.764378      0.499253
  O       2.121535     -0.138990      2.076115
  H       0.414370     -0.500524     -1.631572
  H       1.895515     -1.265323     -1.271739
  H       1.858598      0.099228     -2.304001
  H       2.506424      1.101599     -0.364890
  H       0.590681      1.792715      1.077801
  H       0.307566      2.078635     -0.645011
  H      -1.808247      0.811858      2.222017
  H      -3.580860     -0.766810      1.279134
  H      -3.034884     -1.525813     -1.089298
20
Coordinates from ORCA-job geo_opt E -549.041791531849
  N       1.443190     -0.344386     -1.478750
  C       1.643079      0.440890     -0.206918
  C       0.404631      1.291652      0.119794
  C      -0.864256      0.497500      0.197499
  C      -1.771149      0.377373      1.229252
  N      -2.752380     -0.474996      0.766098
  C      -2.424927     -0.848811     -0.498141
  N      -1.287874     -0.274951     -0.880869
  C       2.044642     -0.585475      0.903840
  O       2.293444     -1.764942      0.499776
  O       2.119794     -0.139232      2.076534
  H       0.414117     -0.500681     -1.630681
  H       1.895289     -1.265106     -1.272381
  H       1.857687      0.099703     -2.304287
  H       2.507051      1.100971     -0.364069
  H       0.590704      1.793926      1.077027
  H       0.307956      2.078854     -0.646087
  H      -1.807190      0.811454      2.222232
  H      -3.579656     -0.767757      1.279647
  H      -3.034152     -1.525986     -1.089515
