20
zwitterion conformer 1
N       1.36789281    -0.33209825    -1.46732106
C       1.62505279     0.46242551    -0.25241852
C       0.42559391     1.33043598     0.12762505
C      -0.81920234     0.51193404     0.19821312
C      -1.73849390     0.38464294     1.20087259
N      -2.67949561    -0.49597595     0.74625996
C      -2.30701612    -0.87145229    -0.49046549
N      -1.19708711    -0.28104067    -0.85478093
C       1.96401420    -0.58183836     0.89027033
O       2.13781943    -1.74651973     0.47326413
O       2.04235435    -0.15891573     2.04787913
H       0.31709093    -0.42104061    -1.57243007
H       1.74096827    -1.27693401    -1.19415349
H       1.80812168     0.02703317    -2.31258847
H       2.51372497     1.08695871    -0.36649795
H       0.62120052     1.77321336     1.10428075
H       0.30363170     2.12995238    -0.60655429
H      -1.78177338     0.83070607     2.17145863
H      -3.49169105    -0.80718661     1.25405748
H      -2.85270604    -1.56429995    -1.09697088
