17
Coordinates from ORCA-job geo_opt E -492.690891791971
  N           2.78830787793603      0.15928761949133     -0.09710158175623
  C           1.48700929985757      0.49016070087299     -0.75106685884593
  C           0.39086539547995     -0.21890000013635      0.05949691166445
  O           0.68294221547643     -0.72676664643264      1.16108517431916
  N          -0.82563173847055     -0.22747591623044     -0.49771775981031
  C          -2.01926990839080     -0.72833446812794      0.16943494408042
  C          -2.87739348027216      0.34428205346708      0.90978225461831
  O          -3.95397459829641     -0.10991090819151      1.39881633813337
  O          -2.44788066693669      1.53049918279587      0.96569354650740
  H           3.38210468857713      0.98450019414642      0.04375758002052
  H           2.53623802640258     -0.25647472292591      0.82944039432702
  H           3.32473604751646     -0.53787607545575     -0.62721920990490
  H           1.50490515120774      0.16908045232396     -1.79732432302366
  H           1.33732800204121      1.57527330138722     -0.70833603379725
  H          -0.94759962495191      0.26255368019731     -1.38128461705715
  H          -1.71060044237544     -1.48579612209826      0.90142613667760
  H          -2.65208625480114     -1.22410232508336     -0.57888288615282
