17
Coordinates from ORCA-job geo_opt E -492.683409582814
  N       2.634903      0.310439      0.027897
  C       1.398327      0.467361     -0.758660
  C       0.313640     -0.342424     -0.028533
  O       0.608445     -0.858693      1.048295
  N      -0.840325     -0.500248     -0.678897
  C      -2.027942     -0.830759      0.068576
  C      -2.465107      0.405911      0.945962
  O      -3.565545      0.313051      1.513136
  O      -1.657762      1.350901      0.983317
  H       3.046899      1.202953      0.312094
  H       2.301506     -0.207314      0.882432
  H       3.337226     -0.262507     -0.448696
  H       1.511964      0.107927     -1.779595
  H       1.064362      1.505074     -0.774935
  H      -1.003275      0.100155     -1.475861
  H      -1.814724     -1.649176      0.758236
  H      -2.842593     -1.112652     -0.594769
17
Coordinates from ORCA-job geo_opt E -492.688541245048
  N       2.692179      0.282554     -0.004081
  C       1.437492      0.458733     -0.774876
  C       0.350613     -0.336816     -0.021723
  O       0.639549     -0.831121      1.081263
  N      -0.828505     -0.465617     -0.650842
  C      -2.037618     -0.791744      0.093878
  C      -2.607809      0.413239      0.958383
  O      -3.723185      0.197159      1.499562
  O      -1.885389      1.438123      1.063860
  H       3.122870      1.170956      0.274039
  H       2.376213     -0.241083      0.857110
  H       3.385733     -0.289406     -0.499172
  H       1.546621      0.096634     -1.801567
  H       1.141242      1.513781     -0.793509
  H      -0.975009      0.120065     -1.471802
  H      -1.818740     -1.611003      0.789979
  H      -2.816257     -1.124453     -0.600503
17
Coordinates from ORCA-job geo_opt E -492.687815302866
  N       2.736025      0.246894     -0.034542
  C       1.462528      0.457394     -0.780846
  C       0.372490     -0.302090      0.002714
  O       0.666874     -0.801693      1.109273
  N      -0.826519     -0.400683     -0.600121
  C      -2.037750     -0.766902      0.133287
  C      -2.685249      0.375031      1.008207
  O      -3.844508      0.090870      1.435621
  O      -2.108901      1.501699      1.035660
  H       3.201799      1.125112      0.221224
  H       2.438739     -0.261439      0.839860
  H       3.405071     -0.340949     -0.546144
  H       1.553975      0.088557     -1.809171
  H       1.219398      1.527480     -0.801832
  H      -0.967419      0.178702     -1.429191
  H      -1.800404     -1.601950      0.807404
  H      -2.786149     -1.116034     -0.591404
17
Coordinates from ORCA-job geo_opt E -492.689918725863
  N       2.756827      0.222046     -0.045484
  C       1.479925      0.443593     -0.798531
  C       0.374101     -0.247025      0.018671
  O       0.653483     -0.720646      1.144938
  N      -0.831130     -0.330981     -0.574312
  C      -2.050333     -0.731016      0.130519
  C      -2.772983      0.360622      0.973470
  O      -3.879037     -0.042320      1.461776
  O      -2.213924      1.489261      1.138900
  H       3.255038      1.095565      0.160918
  H       2.464702     -0.234103      0.853661
  H       3.407446     -0.401774     -0.538257
  H       1.572154      0.032112     -1.811033
  H       1.294838      1.523224     -0.864473
  H      -0.951905      0.216931     -1.427170
  H      -1.802371     -1.567323      0.800513
  H      -2.756830     -1.108167     -0.624106
17
Coordinates from ORCA-job geo_opt E -492.690415457202
  N       2.740902      0.235391     -0.032863
  C       1.470749      0.441184     -0.792353
  C       0.368004     -0.275704      0.003988
  O       0.644344     -0.755416      1.122273
  N      -0.833422     -0.345265     -0.589227
  C      -2.044470     -0.743343      0.121009
  C      -2.732215      0.369092      0.975876
  O      -3.831900      0.006499      1.491090
  O      -2.154356      1.485737      1.099452
  H       3.222577      1.115139      0.184448
  H       2.444072     -0.230443      0.859899
  H       3.401468     -0.379109     -0.522829
  H       1.571058      0.040191     -1.805787
  H       1.256709      1.514605     -0.849086
  H      -0.959623      0.209080     -1.434633
  H      -1.797385     -1.579015      0.788937
  H      -2.766511     -1.108623     -0.620194
17
Coordinates from ORCA-job geo_opt E -492.690574238203
  N       2.745460      0.228516     -0.035116
  C       1.474304      0.439435     -0.791381
  C       0.367224     -0.264699      0.009450
  O       0.642681     -0.753232      1.123311
  N      -0.835424     -0.319056     -0.579109
  C      -2.042390     -0.739014      0.122677
  C      -2.744601      0.361119      0.978900
  O      -3.833396     -0.017740      1.503534
  O      -2.195631      1.492863      1.081454
  H       3.236122      1.106188      0.170536
  H       2.451278     -0.226461      0.863033
  H       3.397890     -0.396149     -0.523175
  H       1.570608      0.032519     -1.802797
  H       1.269189      1.514192     -0.853254
  H      -0.960353      0.226754     -1.429754
  H      -1.786297     -1.575871      0.785332
  H      -2.756663     -1.109365     -0.623642
17
Coordinates from ORCA-job geo_opt E -492.690746753812
  N       2.757613      0.212232     -0.042139
  C       1.483617      0.434645     -0.792083
  C       0.369497     -0.244240      0.019514
  O       0.639997     -0.734469      1.133810
  N      -0.838290     -0.262217     -0.555321
  C      -2.039208     -0.724183      0.127303
  C      -2.781197      0.345326      0.982706
  O      -3.844649     -0.079643      1.524151
  O      -2.293304      1.505932      1.060669
  H       3.267022      1.084447      0.140189
  H       2.471185     -0.222613      0.866101
  H       3.393238     -0.432092     -0.527012
  H       1.571958      0.014685     -1.798931
  H       1.298938      1.512262     -0.866262
  H      -0.957217      0.259935     -1.420680
  H      -1.765806     -1.562863      0.780373
  H      -2.733395     -1.107145     -0.632386
17
Coordinates from ORCA-job geo_opt E -492.690796007831
  N       2.766958      0.198156     -0.050369
  C       1.490117      0.438738     -0.790003
  C       0.372322     -0.223538      0.030687
  O       0.644068     -0.720372      1.142054
  N      -0.837719     -0.228768     -0.538657
  C      -2.035275     -0.715940      0.132236
  C      -2.811558      0.337078      0.978673
  O      -3.858375     -0.118589      1.527953
  O      -2.362238      1.514384      1.044285
  H       3.293635      1.062173      0.121348
  H       2.484605     -0.227692      0.862956
  H       3.385760     -0.460442     -0.538030
  H       1.564539      0.015147     -1.796567
  H       1.321017      1.518769     -0.865162
  H      -0.953947      0.274316     -1.415417
  H      -1.750161     -1.548700      0.787848
  H      -2.713747     -1.114721     -0.633833
17
Coordinates from ORCA-job geo_opt E -492.690819392888
  N       2.770622      0.193346     -0.054703
  C       1.492316      0.443414     -0.787722
  C       0.375322     -0.221244      0.033292
  O       0.648504     -0.717284      1.144940
  N      -0.836687     -0.221640     -0.532758
  C      -2.033586     -0.714506      0.135585
  C      -2.822806      0.337088      0.974236
  O      -3.866263     -0.125805      1.523772
  O      -2.382652      1.518722      1.035117
  H       3.303008      1.053386      0.119127
  H       2.489228     -0.235402      0.858013
  H       3.382906     -0.467667     -0.547359
  H       1.559513      0.025201     -1.797115
  H       1.325264      1.524274     -0.855736
  H      -0.952212      0.271279     -1.415481
  H      -1.745361     -1.541408      0.797316
  H      -2.707115     -1.121755     -0.630526
17
Coordinates from ORCA-job geo_opt E -492.690835946207
  N       2.773780      0.188271     -0.060916
  C       1.493388      0.451821     -0.783793
  C       0.379002     -0.219369      0.036682
  O       0.655962     -0.715857      1.147474
  N      -0.834434     -0.221057     -0.527029
  C      -2.031034     -0.715687      0.140760
  C      -2.832983      0.339165      0.966295
  O      -3.879634     -0.124915      1.508188
  O      -2.394826      1.522174      1.026591
  H       3.313342      1.042762      0.117959
  H       2.492230     -0.245752      0.850124
  H       3.377722     -0.474429     -0.561514
  H       1.550441      0.044947     -1.798506
  H       1.327528      1.533677     -0.837529
  H      -0.950166      0.261671     -1.415416
  H      -1.740638     -1.532652      0.813840
  H      -2.699682     -1.134770     -0.623209
17
Coordinates from ORCA-job geo_opt E -492.690845133411
  N       2.775853      0.184101     -0.066342
  C       1.493286      0.458149     -0.780549
  C       0.381529     -0.218107      0.039626
  O       0.661581     -0.714137      1.150046
  N      -0.832628     -0.221793     -0.522047
  C      -2.028828     -0.717034      0.145506
  C      -2.839795      0.340401      0.959529
  O      -3.892501     -0.122551      1.490241
  O      -2.401542      1.523362      1.022650
  H       3.321785      1.034223      0.114080
  H       2.494648     -0.251868      0.844374
  H       3.372617     -0.480584     -0.572835
  H       1.543046      0.061430     -1.799654
  H       1.329185      1.540822     -0.821915
  H      -0.948640      0.255416     -1.413364
  H      -1.736642     -1.525907      0.827542
  H      -2.692953     -1.145923     -0.616887
17
Coordinates from ORCA-job geo_opt E -492.690857407396
  N       2.778203      0.178473     -0.073754
  C       1.492266      0.466167     -0.775889
  C       0.384286     -0.216581      0.043730
  O       0.668688     -0.712628      1.153217
  N      -0.830507     -0.223437     -0.515350
  C      -2.025999     -0.719450      0.151932
  C      -2.847856      0.341655      0.949628
  O      -3.910770     -0.117767      1.462503
  O      -2.407533      1.523275      1.019291
  H       3.333735      1.022822      0.104657
  H       2.498244     -0.256437      0.838300
  H       3.364139     -0.490657     -0.586904
  H       1.533330      0.084404     -1.801002
  H       1.331215      1.549849     -0.799574
  H      -0.947192      0.249702     -1.408738
  H      -1.730849     -1.516940      0.846009
  H      -2.683399     -1.162450     -0.608057
17
Coordinates from ORCA-job geo_opt E -492.690860973979
  N       2.783340      0.166238     -0.089544
  C       1.490101      0.481808     -0.765448
  C       0.389514     -0.212592      0.053382
  O       0.682281     -0.709504      1.160623
  N      -0.826572     -0.224844     -0.500958
  C      -2.020504     -0.724151      0.165325
  C      -2.865664      0.342989      0.928417
  O      -3.948592     -0.110024      1.403790
  O      -2.423062      1.522425      1.011646
  H       3.359424      0.998662      0.079534
  H       2.509126     -0.263757      0.826924
  H       3.344897     -0.513586     -0.615570
  H       1.514083      0.131286     -1.802067
  H       1.337352      1.566990     -0.753167
  H      -0.944856      0.243213     -1.396807
  H      -1.718466     -1.497662      0.883251
  H      -2.662401     -1.197491     -0.589331
17
Coordinates from ORCA-job geo_opt E -492.690872203758
  N       2.781354      0.171173     -0.083021
  C       1.490167      0.474948     -0.769030
  C       0.386893     -0.215761      0.049146
  O       0.676176     -0.713938      1.156488
  N      -0.828705     -0.224629     -0.506971
  C      -2.023032     -0.722903      0.159911
  C      -2.858265      0.342560      0.935742
  O      -3.933974     -0.111290      1.426725
  O      -2.415629      1.522328      1.012997
  H       3.350075      1.008780      0.085330
  H       2.506649     -0.257388      0.833392
  H       3.351469     -0.506438     -0.602749
  H       1.522605      0.114302     -1.801958
  H       1.333905      1.559690     -0.769023
  H      -0.946887      0.249837     -1.399441
  H      -1.722352     -1.505138      0.868869
  H      -2.670449     -1.186133     -0.596405
17
Coordinates from ORCA-job geo_opt E -492.690878952952
  N       2.781715      0.170390     -0.082662
  C       1.489847      0.474725     -0.767840
  C       0.386207     -0.215979      0.049422
  O       0.674441     -0.715948      1.156072
  N      -0.829317     -0.223285     -0.507530
  C      -2.023361     -0.723042      0.159241
  C      -2.859102      0.342091      0.934592
  O      -3.931314     -0.113122      1.432304
  O      -2.419869      1.523503      1.005650
  H       3.351933      1.007866      0.081177
  H       2.509905     -0.255638      0.835182
  H       3.349705     -0.509553     -0.601750
  H       1.523417      0.115902     -1.801362
  H       1.334367      1.559630     -0.766457
  H      -0.947943      0.255459     -1.397665
  H      -1.720802     -1.504519      0.868242
  H      -2.669827     -1.188481     -0.596616
17
Coordinates from ORCA-job geo_opt E -492.690885886831
  N       2.783488      0.167040     -0.086196
  C       1.488510      0.478836     -0.762707
  C       0.386913     -0.217528      0.051842
  O       0.675802     -0.720604      1.156727
  N      -0.828880     -0.224567     -0.505656
  C      -2.022623     -0.725141      0.161696
  C      -2.863947      0.342819      0.926848
  O      -3.936709     -0.111136      1.424975
  O      -2.427265      1.525609      0.991471
  H       3.360670      1.001382      0.068960
  H       2.518300     -0.254894      0.834709
  H       3.342059     -0.518652     -0.608077
  H       1.519237      0.132399     -1.800529
  H       1.334723      1.564001     -0.748339
  H      -0.948916      0.260613     -1.392148
  H      -1.716600     -1.498888      0.877679
  H      -2.664763     -1.201290     -0.591254
17
Coordinates from ORCA-job geo_opt E -492.690889500613
  N       2.785777      0.162900     -0.091316
  C       1.487650      0.484403     -0.757067
  C       0.388592     -0.218036      0.055378
  O       0.678957     -0.723669      1.158592
  N      -0.827583     -0.225550     -0.502063
  C      -2.021076     -0.726869      0.165407
  C      -2.870659      0.343511      0.918244
  O      -3.945108     -0.110307      1.412843
  O      -2.437416      1.528002      0.978027
  H       3.371111      0.992845      0.056747
  H       2.526851     -0.256144      0.832229
  H       3.333485     -0.528431     -0.617374
  H       1.512718      0.150990     -1.799301
  H       1.336146      1.569685     -0.728409
  H      -0.948727      0.262641     -1.386760
  H      -1.712568     -1.491889      0.889650
  H      -2.658150     -1.214081     -0.584827
17
Coordinates from ORCA-job geo_opt E -492.690891298021
  N       2.787771      0.159796     -0.096007
  C       1.487030      0.489154     -0.752225
  C       0.390382     -0.218834      0.058537
  O       0.682248     -0.726414      1.160362
  N      -0.826123     -0.227060     -0.498630
  C      -2.019624     -0.728185      0.168818
  C      -2.876215      0.344234      0.911078
  O      -3.952768     -0.109465      1.400875
  O      -2.445544      1.529961      0.967926
  H       3.379875      0.985944      0.046395
  H       2.534195     -0.256888      0.829801
  H       3.326345     -0.536094     -0.625586
  H       1.506570      0.166401     -1.797931
  H       1.337086      1.574314     -0.711607
  H      -0.948057      0.262907     -1.382237
  H      -1.710299     -1.486329      0.899869
  H      -2.652873     -1.223444     -0.579437
17
Coordinates from ORCA-job geo_opt E -492.690891791971
  N       2.788308      0.159288     -0.097102
  C       1.487009      0.490161     -0.751067
  C       0.390865     -0.218900      0.059497
  O       0.682942     -0.726767      1.161085
  N      -0.825632     -0.227476     -0.497718
  C      -2.019270     -0.728334      0.169435
  C      -2.877393      0.344282      0.909782
  O      -3.953975     -0.109911      1.398816
  O      -2.447881      1.530499      0.965694
  H       3.382105      0.984500      0.043758
  H       2.536238     -0.256475      0.829440
  H       3.324736     -0.537876     -0.627219
  H       1.504905      0.169080     -1.797324
  H       1.337328      1.575273     -0.708336
  H      -0.947600      0.262554     -1.381285
  H      -1.710600     -1.485796      0.901426
  H      -2.652086     -1.224102     -0.578883
