17
zwitterion conformer 2
N       2.63490310     0.31043912     0.02789657
C       1.39832656     0.46736143    -0.75865985
C       0.31364041    -0.34242404    -0.02853348
O       0.60844477    -0.85869252     1.04829541
N      -0.84032476    -0.50024847    -0.67889690
C      -2.02794171    -0.83075871     0.06857586
C      -2.46510709     0.40591055     0.94596236
O      -3.56554500     0.31305123     1.51313601
O      -1.65776198     1.35090102     0.98331726
H       3.04689855     1.20295335     0.31209417
H       2.30150617    -0.20731400     0.88243235
H       3.33722608    -0.26250659    -0.44869598
H       1.51196406     0.10792692    -1.77959479
H       1.06436195     1.50507383    -0.77493543
H      -1.00327464     0.10015518    -1.47586052
H      -1.81472372    -1.64917604     0.75823566
H      -2.84259276    -1.11265226    -0.59476869
