24
Coordinates from ORCA-job geo_opt E -43.482982593310
  N       4.575454     -0.127790     -0.090133
  C       3.276630     -0.174193     -0.734330
  C       2.188532     -0.118634      0.298564
  O       2.435895     -0.043311      1.528540
  N       0.846585     -0.153702     -0.152791
  C      -0.301093     -0.107254      0.734189
  C      -1.579421     -0.162162     -0.054435
  O      -1.545148     -0.237338     -1.309815
  N      -2.786101     -0.124149      0.697370
  C      -4.028722     -0.175999     -0.043927
  C      -4.123927      0.972768     -0.976502
  O      -3.170082      1.816361     -1.018186
  O      -5.249552      1.098527     -1.779196
  H       5.259809     -0.779342     -0.528476
  H       4.996519      0.840294     -0.184052
  H       4.540404     -0.354921      0.923002
  H       3.155213      0.642887     -1.478220
  H       3.217101     -1.151078     -1.264353
  H       0.663109     -0.217501     -1.197131
  H      -0.329288     -0.994047      1.393616
  H      -0.221537      0.813490      1.322744
  H      -2.751108     -0.060523      1.753674
  H      -4.217062     -1.146238     -0.538333
  H      -4.852211     -0.056146      0.693604
24
Coordinates from ORCA-job geo_opt E -43.519317662420
  N       4.550192     -0.121463     -0.082311
  C       3.235274     -0.195474     -0.729954
  C       2.148379     -0.118558      0.306935
  O       2.395785     -0.022771      1.513109
  N       0.862908     -0.165822     -0.141910
  C      -0.280569     -0.104136      0.731023
  C      -1.548937     -0.168977     -0.081476
  O      -1.515386     -0.270885     -1.311112
  N      -2.712484     -0.136229      0.642429
  C      -3.973808     -0.168008     -0.059535
  C      -4.149696      1.015825     -0.974094
  O      -3.278488      1.911481     -1.027513
  O      -5.259302      1.083979     -1.663962
  H       5.233267     -0.772285     -0.499622
  H       4.957242      0.828952     -0.181630
  H       4.497671     -0.328464      0.930542
  H       3.104804      0.595951     -1.478001
  H       3.157051     -1.168605     -1.238551
  H       0.683806     -0.246920     -1.149424
  H      -0.302396     -0.972102      1.406243
  H      -0.218827      0.823918      1.307442
  H      -2.665535     -0.085148      1.658884
  H      -4.145835     -1.120819     -0.576603
  H      -4.775118     -0.093441      0.694512
24
Coordinates from ORCA-job geo_opt E -43.529462294620
  N       4.525753     -0.082292     -0.099068
  C       3.197247     -0.215668     -0.734375
  C       2.113398     -0.122285      0.326516
  O       2.388843      0.002319      1.513096
  N       0.868772     -0.198697     -0.120187
  C      -0.278184     -0.126986      0.744918
  C      -1.543709     -0.213775     -0.096648
  O      -1.500168     -0.343052     -1.311000
  N      -2.673281     -0.176169      0.604014
  C      -3.950929     -0.152347     -0.063565
  C      -4.121614      1.077365     -0.967140
  O      -3.237592      1.945991     -0.998632
  O      -5.165993      1.115904     -1.621461
  H       5.215640     -0.729299     -0.496653
  H       4.898571      0.866255     -0.209949
  H       4.452026     -0.265492      0.916012
  H       3.040965      0.548422     -1.492143
  H       3.114043     -1.192338     -1.214441
  H       0.677932     -0.301626     -1.105233
  H      -0.281909     -0.970013      1.445285
  H      -0.249186      0.810633      1.308055
  H      -2.623820     -0.114426      1.601250
  H      -4.126162     -1.073892     -0.624908
  H      -4.740642     -0.088534      0.691678
24
Coordinates from ORCA-job geo_opt E -43.532519471530
  N       4.526207     -0.035565     -0.101570
  C       3.210439     -0.271114     -0.733824
  C       2.120633     -0.120523      0.325552
  O       2.412941      0.082897      1.499009
  N       0.877207     -0.248763     -0.120967
  C      -0.278466     -0.129900      0.731179
  C      -1.535550     -0.279804     -0.125257
  O      -1.462002     -0.518636     -1.324886
  N      -2.674471     -0.231271      0.565994
  C      -3.951644     -0.153251     -0.101762
  C      -4.120523      1.157344     -0.920369
  O      -3.285972      2.064863     -0.755938
  O      -5.189091      1.249723     -1.549635
  H       5.242890     -0.688507     -0.436295
  H       4.859362      0.918916     -0.271889
  H       4.422512     -0.145252      0.922823
  H       3.032442      0.428957     -1.546677
  H       3.154244     -1.283420     -1.134421
  H       0.676736     -0.411515     -1.099958
  H      -0.274279     -0.918283      1.491480
  H      -0.273541      0.843237      1.230993
  H      -2.635126     -0.133635      1.566317
  H      -4.102191     -1.016144     -0.754932
  H      -4.752757     -0.160351      0.640456
24
Coordinates from ORCA-job geo_opt E -43.533806818850
  N       4.491020      0.056192     -0.134646
  C       3.196999     -0.309493     -0.748095
  C       2.109527     -0.135212      0.324094
  O       2.436114      0.131626      1.477062
  N       0.863542     -0.324021     -0.104516
  C      -0.293406     -0.188260      0.747709
  C      -1.546436     -0.393656     -0.113535
  O      -1.445348     -0.682690     -1.304757
  N      -2.695283     -0.314031      0.568402
  C      -3.960805     -0.127463     -0.100405
  C      -4.057656      1.277554     -0.817513
  O      -3.133826      2.082847     -0.583986
  O      -4.983953      1.377682     -1.667274
  H       5.249643     -0.572973     -0.415780
  H       4.753178      1.023445     -0.351647
  H       4.350227      0.000779      0.892426
  H       2.972592      0.326960     -1.601564
  H       3.188558     -1.347957     -1.075191
  H       0.636003     -0.529070     -1.074294
  H      -0.264405     -0.931938      1.549832
  H      -0.323922      0.805813      1.203075
  H      -2.662312     -0.147915      1.565310
  H      -4.102798     -0.903469     -0.856157
  H      -4.777254     -0.174747      0.616872
24
Coordinates from ORCA-job geo_opt E -43.536379675540
  N       4.463284      0.096008     -0.147708
  C       3.182141     -0.315031     -0.756292
  C       2.097330     -0.151076      0.321848
  O       2.433295      0.120354      1.469503
  N       0.854364     -0.352116     -0.093677
  C      -0.298094     -0.230669      0.766438
  C      -1.550224     -0.435945     -0.093041
  O      -1.447945     -0.675594     -1.293416
  N      -2.699140     -0.336475      0.577322
  C      -3.947931     -0.125761     -0.108643
  C      -3.971349      1.269349     -0.853775
  O      -3.043035      2.052238     -0.585899
  O      -4.929093      1.440282     -1.632235
  H       5.239336     -0.519281     -0.409720
  H       4.699006      1.066056     -0.380726
  H       4.306334      0.057552      0.880276
  H       2.937313      0.300216     -1.620318
  H       3.201995     -1.359745     -1.062941
  H       0.614212     -0.553316     -1.060394
  H      -0.258969     -0.978873      1.564193
  H      -0.339437      0.760619      1.227902
  H      -2.666980     -0.090852      1.555186
  H      -4.098663     -0.900977     -0.862865
  H      -4.777750     -0.136961      0.594405
24
Coordinates from ORCA-job geo_opt E -43.537159640330
  N       4.472385      0.056552     -0.137890
  C       3.194258     -0.338465     -0.759184
  C       2.106868     -0.146432      0.311501
  O       2.449601      0.107221      1.461738
  N       0.860830     -0.315103     -0.100007
  C      -0.289434     -0.172965      0.759353
  C      -1.539131     -0.334541     -0.107544
  O      -1.429652     -0.586408     -1.304258
  N      -2.689646     -0.326893      0.567563
  C      -3.942496     -0.176103     -0.123882
  C      -4.025779      1.237669     -0.824613
  O      -3.129917      2.045346     -0.533489
  O      -5.003869      1.410861     -1.561990
  H       5.240283     -0.581921     -0.365774
  H       4.734039      1.015973     -0.387956
  H       4.281728      0.047834      0.889195
  H       2.965624      0.265875     -1.635791
  H       3.204021     -1.389002     -1.048466
  H       0.608737     -0.496247     -1.068374
  H      -0.272102     -0.929656      1.550986
  H      -0.309614      0.817798      1.224078
  H      -2.671569     -0.022272      1.528879
  H      -4.039294     -0.928530     -0.909109
  H      -4.775872     -0.260592      0.570454
24
Coordinates from ORCA-job geo_opt E -43.537746374890
  N       4.453059      0.092054     -0.150332
  C       3.188731     -0.357502     -0.761208
  C       2.098925     -0.151188      0.304392
  O       2.446146      0.141484      1.445455
  N       0.852434     -0.342480     -0.093160
  C      -0.296825     -0.190715      0.765371
  C      -1.543001     -0.380506     -0.098222
  O      -1.427468     -0.615847     -1.298681
  N      -2.700746     -0.374329      0.569991
  C      -3.935716     -0.179848     -0.143876
  C      -3.978654      1.265805     -0.784564
  O      -3.052727      2.028350     -0.464540
  O      -4.948213      1.502134     -1.520995
  H       5.235553     -0.542943     -0.330962
  H       4.700727      1.041845     -0.446060
  H       4.237285      0.134266      0.874357
  H       2.945141      0.201236     -1.663126
  H       3.226671     -1.419264     -1.004509
  H       0.590542     -0.546539     -1.055502
  H      -0.274008     -0.929336      1.572869
  H      -0.326416      0.810879      1.207183
  H      -2.686683     -0.008160      1.510830
  H      -4.019551     -0.892210     -0.966249
  H      -4.785205     -0.287185      0.526959
24
Coordinates from ORCA-job geo_opt E -43.538063069510
  N       4.458595      0.079332     -0.145163
  C       3.193095     -0.363046     -0.759714
  C       2.098290     -0.130447      0.292866
  O       2.442004      0.187314      1.430275
  N       0.852195     -0.334124     -0.097441
  C      -0.299524     -0.166223      0.754299
  C      -1.541142     -0.390998     -0.104199
  O      -1.422656     -0.626404     -1.304522
  N      -2.704184     -0.404653      0.563557
  C      -3.932527     -0.199006     -0.163390
  C      -3.992431      1.272460     -0.732166
  O      -3.046232      2.016421     -0.421341
  O      -4.979803      1.547230     -1.435143
  H       5.229252     -0.580251     -0.281927
  H       4.738735      1.008575     -0.473969
  H       4.219574      0.167873      0.874615
  H       2.961375      0.176289     -1.675584
  H       3.222737     -1.430228     -0.981479
  H       0.589035     -0.559207     -1.055580
  H      -0.277459     -0.882010      1.581331
  H      -0.335306      0.848085      1.166395
  H      -2.695152     -0.003555      1.491335
  H      -3.990129     -0.874590     -1.017459
  H      -4.788342     -0.358836      0.489827
24
Coordinates from ORCA-job geo_opt E -43.538219827280
  N       4.463655      0.070463     -0.138231
  C       3.198068     -0.366358     -0.757077
  C       2.101514     -0.134024      0.291924
  O       2.441691      0.205884      1.424840
  N       0.856217     -0.338978     -0.098995
  C      -0.299431     -0.147393      0.742428
  C      -1.537760     -0.395074     -0.113686
  O      -1.417865     -0.649108     -1.309529
  N      -2.702320     -0.411266      0.554623
  C      -3.930730     -0.206284     -0.175182
  C      -4.014946      1.276907     -0.699908
  O      -3.053752      2.013922     -0.414703
  O      -5.028888      1.569400     -1.357157
  H       5.227072     -0.601506     -0.252303
  H       4.762973      0.988795     -0.480094
  H       4.212661      0.178278      0.877243
  H       2.969824      0.174354     -1.672667
  H       3.224217     -1.433303     -0.981368
  H       0.596025     -0.572625     -1.055845
  H      -0.284536     -0.839933      1.589006
  H      -0.335325      0.877902      1.126160
  H      -2.694296      0.005394      1.475731
  H      -3.966803     -0.860176     -1.046688
  H      -4.787265     -0.405271      0.466900
24
Coordinates from ORCA-job geo_opt E -43.538364021490
  N       4.477818      0.037106     -0.119307
  C       3.209038     -0.368870     -0.752275
  C       2.107419     -0.108247      0.283244
  O       2.443393      0.234225      1.416916
  N       0.864466     -0.319315     -0.111402
  C      -0.297137     -0.107838      0.717175
  C      -1.530647     -0.390697     -0.134875
  O      -1.409166     -0.665637     -1.324983
  N      -2.693929     -0.412958      0.536593
  C      -3.929323     -0.222232     -0.187303
  C      -4.067188      1.272642     -0.652431
  O      -3.094554      2.013144     -0.414115
  O      -5.128538      1.573309     -1.225409
  H       5.215078     -0.668898     -0.190662
  H       4.826389      0.929372     -0.482236
  H       4.206612      0.184536      0.885871
  H       3.004735      0.180568     -1.668228
  H       3.208233     -1.435215     -0.981614
  H       0.611484     -0.566412     -1.066398
  H      -0.284942     -0.769917      1.587860
  H      -0.341338      0.929380      1.066108
  H      -2.686776      0.010690      1.454572
  H      -3.931365     -0.844707     -1.082346
  H      -4.779762     -0.484025      0.440665
24
Coordinates from ORCA-job geo_opt E -43.538442263840
  N       4.482944      0.030899     -0.112329
  C       3.215953     -0.376743     -0.747423
  C       2.111386     -0.115526      0.286232
  O       2.442968      0.241792      1.415905
  N       0.869596     -0.322519     -0.115149
  C      -0.294643     -0.099715      0.706839
  C      -1.527111     -0.386242     -0.146105
  O      -1.404732     -0.669615     -1.333889
  N      -2.688845     -0.400935      0.525588
  C      -3.929363     -0.222419     -0.191326
  C      -4.095158      1.274729     -0.637584
  O      -3.119950      2.019814     -0.427982
  O      -5.181584      1.572748     -1.161796
  H       5.214444     -0.682603     -0.166618
  H       4.842403      0.913890     -0.487041
  H       4.207156      0.193896      0.889312
  H       3.013820      0.178866     -1.660787
  H       3.214641     -1.441417     -0.982591
  H       0.622356     -0.571901     -1.070758
  H      -0.285778     -0.750875      1.585909
  H      -0.339177      0.941365      1.044530
  H      -2.680712      0.016102      1.446468
  H      -3.915488     -0.833162     -1.095214
  H      -4.775127     -0.510427      0.431231
24
Coordinates from ORCA-job geo_opt E -43.538474730180
  N       4.486471      0.022278     -0.107493
  C       3.219793     -0.380374     -0.746114
  C       2.113158     -0.111397      0.285134
  O       2.443338      0.249307      1.413503
  N       0.871976     -0.317380     -0.119214
  C      -0.292482     -0.093664      0.702072
  C      -1.525085     -0.381585     -0.150773
  O      -1.401677     -0.665784     -1.338570
  N      -2.685378     -0.392498      0.520540
  C      -3.928069     -0.225719     -0.193148
  C      -4.114117      1.273680     -0.628887
  O      -3.141897      2.024530     -0.430704
  O      -5.213162      1.565533     -1.129367
  H       5.209636     -0.700786     -0.147711
  H       4.858254      0.896370     -0.490907
  H       4.206882      0.199125      0.891073
  H       3.022718      0.179880     -1.658159
  H       3.213689     -1.443983     -0.983859
  H       0.627181     -0.569882     -1.074524
  H      -0.280293     -0.741174      1.583730
  H      -0.340207      0.948639      1.036534
  H      -2.677985      0.023317      1.441766
  H      -3.901660     -0.826996     -1.103689
  H      -4.771083     -0.531436      0.424187
24
Coordinates from ORCA-job geo_opt E -43.538492415540
  N       4.490556      0.012439     -0.102714
  C       3.223485     -0.381982     -0.745668
  C       2.115054     -0.105779      0.282695
  O       2.443618      0.258638      1.410096
  N       0.874215     -0.311371     -0.123360
  C      -0.290044     -0.086813      0.697783
  C      -1.522953     -0.377697     -0.153829
  O      -1.398577     -0.662750     -1.341736
  N      -2.682937     -0.385414      0.516822
  C      -3.926811     -0.229678     -0.195832
  C      -4.133288      1.272179     -0.618569
  O      -3.166398      2.030726     -0.426754
  O      -5.241325      1.556396     -1.103550
  H       5.202937     -0.721955     -0.127435
  H       4.877577      0.875710     -0.495396
  H       4.207583      0.205077      0.892246
  H       3.031907      0.182454     -1.656415
  H       3.211974     -1.444750     -0.985819
  H       0.631280     -0.568481     -1.077882
  H      -0.273994     -0.730868      1.581776
  H      -0.340412      0.956809      1.028438
  H      -2.676906      0.030427      1.438064
  H      -3.889360     -0.820010     -1.113335
  H      -4.767182     -0.553307      0.415794
24
Coordinates from ORCA-job geo_opt E -43.538514215640
  N       4.499687     -0.013723     -0.090837
  C       3.230761     -0.380925     -0.746314
  C       2.119373     -0.091081      0.275878
  O       2.445158      0.279076      1.402101
  N       0.878980     -0.294351     -0.133032
  C      -0.285123     -0.066456      0.687205
  C      -1.518209     -0.367841     -0.160585
  O      -1.392707     -0.657798     -1.347722
  N      -2.677227     -0.373382      0.509836
  C      -3.923877     -0.240228     -0.200689
  C      -4.173344      1.264349     -0.596058
  O      -3.219760      2.041120     -0.413741
  O      -5.297524      1.530104     -1.053945
  H       5.183998     -0.774698     -0.084059
  H       4.924705      0.824730     -0.497778
  H       4.208901      0.209979      0.895658
  H       3.054425      0.195678     -1.652540
  H       3.203163     -1.440876     -0.996020
  H       0.638864     -0.560046     -1.085841
  H      -0.262401     -0.701775      1.577143
  H      -0.340385      0.980334      1.007702
  H      -2.673909      0.046306      1.429238
  H      -3.866775     -0.808516     -1.131050
  H      -4.756772     -0.599980      0.400869
24
Coordinates from ORCA-job geo_opt E -43.538529204440
  N       4.502034     -0.021591     -0.088285
  C       3.231860     -0.376216     -0.748487
  C       2.120667     -0.089021      0.274339
  O       2.446354      0.278212      1.401715
  N       0.879991     -0.289698     -0.134899
  C      -0.283592     -0.061475      0.686101
  C      -1.517183     -0.365958     -0.159812
  O      -1.392253     -0.659646     -1.346175
  N      -2.676120     -0.369281      0.510789
  C      -3.923519     -0.242670     -0.199665
  C      -4.181456      1.260594     -0.595538
  O      -3.234474      2.044217     -0.407545
  O      -5.304561      1.518274     -1.060613
  H       5.177740     -0.790253     -0.077289
  H       4.937717      0.811375     -0.494587
  H       4.209978      0.205951      0.896797
  H       3.059390      0.208915     -1.649887
  H       3.199183     -1.433868     -1.007352
  H       0.639445     -0.555248     -1.087633
  H      -0.259139     -0.695740      1.576734
  H      -0.339097      0.985691      1.005057
  H      -2.673104      0.053719      1.428676
  H      -3.865358     -0.810749     -1.129874
  H      -4.754501     -0.605533      0.402853
24
Coordinates from ORCA-job geo_opt E -43.538569870640
  N       4.508977     -0.049108     -0.079494
  C       3.235565     -0.360637     -0.755762
  C       2.125347     -0.083942      0.269307
  O       2.451440      0.273494      1.400390
  N       0.883680     -0.273302     -0.141456
  C      -0.278959     -0.041923      0.680597
  C      -1.513052     -0.360020     -0.159196
  O      -1.390084     -0.669088     -1.341815
  N      -2.671266     -0.358423      0.512838
  C      -3.921850     -0.251206     -0.195823
  C      -4.207264      1.246810     -0.591863
  O      -3.286983      2.054796     -0.372860
  O      -5.321956      1.476445     -1.090043
  H       5.153953     -0.843388     -0.050792
  H       4.982494      0.762904     -0.484639
  H       4.209839      0.194685      0.899427
  H       3.076955      0.255404     -1.638733
  H       3.184862     -1.408775     -1.048952
  H       0.640680     -0.537819     -1.093880
  H      -0.251239     -0.670696      1.575119
  H      -0.334814      1.006956      0.992375
  H      -2.668717      0.080107      1.423364
  H      -3.862433     -0.819827     -1.124814
  H      -4.745174     -0.623446      0.412127
24
Coordinates from ORCA-job geo_opt E -43.538584919110
  N       4.514750     -0.072042     -0.072065
  C       3.239550     -0.353340     -0.758264
  C       2.129118     -0.075233      0.265885
  O       2.454657      0.278636      1.398325
  N       0.887257     -0.257150     -0.147520
  C      -0.275776     -0.024897      0.673939
  C      -1.509277     -0.352055     -0.163113
  O      -1.386866     -0.666589     -1.344282
  N      -2.666533     -0.349982      0.510327
  C      -3.920927     -0.258253     -0.193824
  C      -4.230427      1.235423     -0.585526
  O      -3.328399      2.060226     -0.353162
  O      -5.344519      1.446071     -1.093496
  H       5.136395     -0.884224     -0.030224
  H       5.015886      0.722798     -0.478018
  H       4.212235      0.184960      0.902836
  H       3.094029      0.281939     -1.630007
  H       3.173391     -1.394466     -1.072016
  H       0.644560     -0.522974     -1.099581
  H      -0.246178     -0.649375      1.571466
  H      -0.333901      1.025145      0.981107
  H      -2.664588      0.093365      1.418576
  H      -3.857847     -0.825613     -1.123346
  H      -4.736591     -0.642369      0.417405
24
Coordinates from ORCA-job geo_opt E -43.538589913640
  N       4.525406     -0.131615     -0.051725
  C       3.250410     -0.338510     -0.763566
  C       2.138705     -0.051728      0.256652
  O       2.463950      0.296125      1.390954
  N       0.896831     -0.215145     -0.163943
  C      -0.267774      0.022170      0.654024
  C      -1.498903     -0.330577     -0.176011
  O      -1.376097     -0.659195     -1.353234
  N      -2.653249     -0.330467      0.500786
  C      -3.916026     -0.278102     -0.191983
  C      -4.290620      1.205333     -0.559845
  O      -3.431970      2.067762     -0.301335
  O      -5.408616      1.372901     -1.075379
  H       5.081425     -0.987194      0.031395
  H       5.097943      0.609947     -0.463438
  H       4.214582      0.168564      0.909331
  H       3.141057      0.341282     -1.607273
  H       3.146726     -1.360086     -1.125659
  H       0.655551     -0.485998     -1.114881
  H      -0.233004     -0.586210      1.562383
  H      -0.334178      1.076608      0.944144
  H      -2.654522      0.129268      1.400893
  H      -3.837273     -0.832668     -1.128173
  H      -4.710354     -0.702463      0.421307
24
Coordinates from ORCA-job geo_opt E -43.538601998860
  N       4.520519     -0.101939     -0.064019
  C       3.243419     -0.344708     -0.760829
  C       2.133345     -0.063641      0.263477
  O       2.459741      0.284828      1.397124
  N       0.891277     -0.234754     -0.153691
  C      -0.272980     -0.001128      0.665608
  C      -1.504759     -0.341771     -0.168692
  O      -1.381775     -0.662501     -1.347979
  N      -2.660418     -0.342309      0.506749
  C      -3.919395     -0.268486     -0.191581
  C      -4.255742      1.219503     -0.577207
  O      -3.376077      2.062747     -0.326296
  O      -5.367991      1.409804     -1.097353
  H       5.111325     -0.935958     -0.007113
  H       5.056535      0.669356     -0.470965
  H       4.215376      0.171481      0.906185
  H       3.114870      0.316019     -1.616720
  H       3.157189     -1.375292     -1.101992
  H       0.649226     -0.501577     -1.105636
  H      -0.241374     -0.617333      1.568794
  H      -0.336487      1.051080      0.964513
  H      -2.660252      0.109654      1.410816
  H      -3.850241     -0.835629     -1.121087
  H      -4.725334     -0.667447      0.423313
24
Coordinates from ORCA-job geo_opt E -43.538603686620
  N       4.521005     -0.106591     -0.062526
  C       3.243947     -0.343964     -0.761179
  C       2.133991     -0.061911      0.263150
  O       2.460843      0.285327      1.396932
  N       0.891875     -0.230854     -0.154762
  C      -0.272536      0.003200      0.664064
  C      -1.504108     -0.339689     -0.169699
  O      -1.380843     -0.660553     -1.348928
  N      -2.659469     -0.341575      0.506149
  C      -3.919091     -0.270540     -0.191502
  C      -4.259537      1.216853     -0.575316
  O      -3.382008      2.062139     -0.323905
  O      -5.372612      1.405033     -1.094533
  H       5.107266     -0.943716     -0.003369
  H       5.062141      0.660997     -0.469588
  H       4.215665      0.169388      0.906877
  H       3.117886      0.320222     -1.614831
  H       3.154954     -1.373038     -1.105885
  H       0.650108     -0.497596     -1.106818
  H      -0.240168     -0.610920      1.568602
  H      -0.337546      1.056000      0.960826
  H      -2.659946      0.111449      1.409709
  H      -3.848303     -0.836991     -1.121353
  H      -4.723514     -0.672671      0.423307
24
Coordinates from ORCA-job geo_opt E -43.538605567010
  N       4.520912     -0.111219     -0.061523
  C       3.243701     -0.343453     -0.761485
  C       2.134234     -0.060450      0.263560
  O       2.462160      0.283952      1.397721
  N       0.891964     -0.225547     -0.155421
  C      -0.272650      0.008752      0.662750
  C      -1.503908     -0.337355     -0.170322
  O      -1.380154     -0.656789     -1.349884
  N      -2.658775     -0.343011      0.506238
  C      -3.918889     -0.273468     -0.191226
  C      -4.260454      1.213625     -0.574352
  O      -3.383208      2.059292     -0.323249
  O      -5.373978      1.401863     -1.092662
  H       5.103737     -0.950843     -0.002425
  H       5.066081      0.653866     -0.467818
  H       4.216178      0.165437      0.907776
  H       3.119416      0.324244     -1.612705
  H       3.152135     -1.371026     -1.109592
  H       0.650607     -0.491096     -1.107951
  H      -0.238799     -0.601978      1.569432
  H      -0.340629      1.062507      0.955992
  H      -2.660420      0.110466      1.409579
  H      -3.846905     -0.840485     -1.120689
  H      -4.722355     -0.677283      0.423677
24
Coordinates from ORCA-job geo_opt E -43.538606561740
  N       4.520996     -0.115098     -0.060717
  C       3.243515     -0.342526     -0.761729
  C       2.134256     -0.059133      0.263672
  O       2.462554      0.282482      1.398531
  N       0.891864     -0.220726     -0.156301
  C      -0.272831      0.013431      0.661659
  C      -1.503903     -0.335574     -0.170561
  O      -1.380102     -0.653876     -1.350421
  N      -2.658326     -0.344507      0.506733
  C      -3.918762     -0.275895     -0.190543
  C      -4.260529      1.210890     -0.574269
  O      -3.383418      2.056787     -0.323321
  O      -5.373942      1.398980     -1.092888
  H       5.101122     -0.956676     -0.002598
  H       5.069027      0.648629     -0.465787
  H       4.216865      0.161180      0.908836
  H       3.120858      0.327780     -1.611121
  H       3.149748     -1.368968     -1.112481
  H       0.650772     -0.484933     -1.109274
  H      -0.237474     -0.594928      1.569814
  H      -0.343052      1.067836      0.952298
  H      -2.660657      0.108406      1.410350
  H      -3.846855     -0.843818     -1.119450
  H      -4.721727     -0.679744      0.424990
24
Coordinates from ORCA-job geo_opt E -43.538608340910
  N       4.520813     -0.122017     -0.058842
  C       3.243069     -0.341100     -0.762021
  C       2.133920     -0.057069      0.263562
  O       2.462526      0.278099      1.400250
  N       0.891330     -0.210663     -0.158785
  C      -0.273473      0.023180      0.658944
  C      -1.504213     -0.332183     -0.171155
  O      -1.380734     -0.647735     -1.351777
  N      -2.657531     -0.349009      0.508097
  C      -3.918512     -0.281005     -0.188662
  C      -4.258881      1.205633     -0.574161
  O      -3.380049      2.050567     -0.325626
  O      -5.372564      1.394736     -1.091768
  H       5.096909     -0.966535     -0.003461
  H       5.072940      0.640480     -0.460767
  H       4.217347      0.152337      0.911354
  H       3.123469      0.332991     -1.608773
  H       3.145558     -1.365889     -1.116567
  H       0.650680     -0.471325     -1.112834
  H      -0.234657     -0.580209      1.570139
  H      -0.348257      1.078926      0.943963
  H      -2.660837      0.101812      1.412753
  H      -3.847799     -0.850445     -1.116671
  H      -4.721053     -0.683577      0.428230
24
Coordinates from ORCA-job geo_opt E -43.538609784730
  N       4.520556     -0.127199     -0.057058
  C       3.242720     -0.339760     -0.762124
  C       2.133362     -0.055725      0.263187
  O       2.461641      0.273092      1.401871
  N       0.890683     -0.202061     -0.161511
  C      -0.274175      0.031095      0.656328
  C      -1.504696     -0.329560     -0.171743
  O      -1.382045     -0.642643     -1.353079
  N      -2.656868     -0.353238      0.509599
  C      -3.918465     -0.285136     -0.186104
  C      -4.256296      1.201331     -0.575008
  O      -3.374712      2.044714     -0.330817
  O      -5.370629      1.391639     -1.090711
  H       5.094566     -0.973347     -0.005534
  H       5.074605      0.636034     -0.454993
  H       4.217233      0.143369      0.914185
  H       3.125888      0.336922     -1.607125
  H       3.142301     -1.363368     -1.119416
  H       0.650322     -0.458994     -1.116604
  H      -0.232361     -0.568708      1.569672
  H      -0.352395      1.087758      0.937232
  H      -2.660214      0.095099      1.415485
  H      -3.850026     -0.856602     -1.112997
  H      -4.720994     -0.684713      0.432686
24
Coordinates from ORCA-job geo_opt E -43.538611100460
  N       4.520234     -0.132410     -0.054321
  C       3.242839     -0.338741     -0.762099
  C       2.132728     -0.054528      0.262058
  O       2.460025      0.267558      1.403033
  N       0.890115     -0.192894     -0.165549
  C      -0.274810      0.039445      0.652552
  C      -1.505145     -0.326816     -0.173115
  O      -1.383826     -0.637643     -1.355139
  N      -2.655863     -0.357572      0.510878
  C      -3.918407     -0.289399     -0.182846
  C      -4.254190      1.196960     -0.575085
  O      -3.369082      2.038572     -0.337696
  O      -5.370351      1.388370     -1.086303
  H       5.092303     -0.980013     -0.005761
  H       5.076167      0.631766     -0.447819
  H       4.215797      0.134419      0.917646
  H       3.129738      0.340053     -1.605867
  H       3.139509     -1.361274     -1.121851
  H       0.650006     -0.445847     -1.121698
  H      -0.229900     -0.557006      1.567888
  H      -0.356088      1.096930      0.929600
  H      -2.658421      0.088333      1.417980
  H      -3.852642     -0.862258     -1.109060
  H      -4.720736     -0.686005      0.437994
24
Coordinates from ORCA-job geo_opt E -43.538611625220
  N       4.520176     -0.134965     -0.052800
  C       3.243129     -0.337994     -0.762186
  C       2.132542     -0.054086      0.261305
  O       2.459212      0.264516      1.403467
  N       0.890015     -0.188644     -0.167796
  C      -0.274885      0.042928      0.650679
  C      -1.505240     -0.325350     -0.173888
  O      -1.384770     -0.635661     -1.356105
  N      -2.655217     -0.358491      0.511477
  C      -3.918461     -0.291092     -0.180771
  C      -4.254065      1.194776     -0.575604
  O      -3.367874      2.036238     -0.342038
  O      -5.371309      1.385686     -1.084658
  H       5.091359     -0.983239     -0.005812
  H       5.077068      0.629888     -0.443563
  H       4.214806      0.129396      0.919644
  H       3.132361      0.342335     -1.605057
  H       3.138248     -1.359696     -1.123911
  H       0.649910     -0.439806     -1.124368
  H      -0.228778     -0.552914      1.566366
  H      -0.356932      1.100521      0.927074
  H      -2.656893      0.086946      1.418827
  H      -3.853978     -0.865202     -1.106337
  H      -4.720427     -0.686091      0.441477
