24
Coordinates from ORCA-job geo_opt E -43.538611625220
  N           4.52017614013485     -0.13496473722728     -0.05279984381027
  C           3.24312948330436     -0.33799424660516     -0.76218628892525
  C           2.13254235233006     -0.05408604309822      0.26130541303959
  O           2.45921210610149      0.26451556318337      1.40346730333799
  N           0.89001512184541     -0.18864398607535     -0.16779618472958
  C          -0.27488506796848      0.04292843768401      0.65067948524937
  C          -1.50524030445297     -0.32535046663111     -0.17388812670716
  O          -1.38476978368822     -0.63566092965588     -1.35610467499101
  N          -2.65521681525292     -0.35849054100379      0.51147690242111
  C          -3.91846074877694     -0.29109209672719     -0.18077078789140
  C          -4.25406484868269      1.19477643846256     -0.57560430286049
  O          -3.36787358453947      2.03623812760989     -0.34203791567005
  O          -5.37130909438325      1.38568580832709     -1.08465836639315
  H           5.09135918292565     -0.98323896118532     -0.00581171974661
  H           5.07706842297764      0.62988832207482     -0.44356345314245
  H           4.21480561805310      0.12939555223019      0.91964423117344
  H           3.13236144170746      0.34233481458374     -1.60505681045881
  H           3.13824794412470     -1.35969552237755     -1.12391130224518
  H           0.64990983088186     -0.43980583389584     -1.12436796221890
  H          -0.22877815115658     -0.55291355778195      1.56636553513277
  H          -0.35693155287908      1.10052144849870      0.92707373585218
  H          -2.65689294067284      0.08694555838931      1.41882668679785
  H          -3.85397805060412     -0.86520237653382     -1.10633704540493
  H          -4.72042669132905     -0.68609078224522      0.44147652219093
