24
zwitterion conformer 9
N       4.57545402    -0.12779013    -0.09013310
C       3.27662956    -0.17419321    -0.73432967
C       2.18853198    -0.11863413     0.29856415
O       2.43589522    -0.04331074     1.52853970
N       0.84658507    -0.15370213    -0.15279112
C      -0.30109267    -0.10725408     0.73418917
C      -1.57942135    -0.16216178    -0.05443510
O      -1.54514813    -0.23733789    -1.30981489
N      -2.78610134    -0.12414934     0.69736992
C      -4.02872179    -0.17599853    -0.04392657
C      -4.12392696     0.97276756    -0.97650221
O      -3.17008184     1.81636098    -1.01818633
O      -5.24955156     1.09852717    -1.77919561
H       5.25980873    -0.77934196    -0.52847648
H       4.99651922     0.84029374    -0.18405204
H       4.54040379    -0.35492119     0.92300165
H       3.15521315     0.64288708    -1.47822036
H       3.21710072    -1.15107759    -1.26435337
H       0.66310946    -0.21750052    -1.19713103
H      -0.32928776    -0.99404718     1.39361558
H      -0.22153660     0.81349043     1.32274419
H      -2.75110816    -0.06052275     1.75367381
H      -4.21706195    -1.14623818    -0.53833345
H      -4.85221080    -0.05614564     0.69360419
