20
Coordinates from ORCA-job geo_opt E -34.327395607950
  N       1.083241     -1.728499     -0.626139
  C       1.396100     -0.317081     -0.665975
  C       0.260647      0.521268     -1.181840
  C      -0.976694      0.435718     -0.400616
  C      -1.296337     -0.284542      0.731304
  N      -2.568982     -0.052014      1.103633
  C      -3.052241      0.813574      0.208354
  N      -2.115484      1.117803     -0.699692
  C       1.910383      0.108312      0.657350
  O       2.060658     -0.669413      1.634447
  O       2.257507      1.440262      0.866658
  H       1.711822     -2.217568      0.034760
  H       1.124373     -2.113873     -1.591881
  H       2.227284     -0.244039     -1.434344
  H       0.068413      0.155518     -2.227713
  H       0.617562      1.561369     -1.330665
  H      -0.636288     -0.940453      1.250470
  H      -3.037262     -0.489342      1.938014
  H      -4.064669      1.195226      0.242229
  H       3.029966      1.707775      1.491645
20
Coordinates from ORCA-job geo_opt E -34.350079660610
  N       1.063752     -1.741274     -0.608571
  C       1.405407     -0.323022     -0.665763
  C       0.255770      0.532544     -1.186129
  C      -0.979082      0.436302     -0.387713
  C      -1.255574     -0.314206      0.730749
  N      -2.531557     -0.063414      1.093104
  C      -3.015457      0.827199      0.204255
  N      -2.108699      1.145161     -0.694236
  C       1.906550      0.114154      0.660674
  O       2.067409     -0.637962      1.616896
  O       2.216468      1.419692      0.801513
  H       1.667409     -2.221861      0.048803
  H       1.111548     -2.144452     -1.536410
  H       2.243618     -0.208270     -1.396559
  H       0.049249      0.198922     -2.219112
  H       0.597356      1.569848     -1.288267
  H      -0.596970     -0.988892      1.242718
  H      -2.994165     -0.488062      1.888625
  H      -4.013670      1.213715      0.242435
  H       2.910637      1.673878      1.452988
20
Coordinates from ORCA-job geo_opt E -34.357143035280
  N       1.051997     -1.749290     -0.613260
  C       1.418983     -0.337051     -0.677589
  C       0.261806      0.529691     -1.200000
  C      -0.972639      0.430604     -0.378668
  C      -1.223205     -0.332798      0.732108
  N      -2.504871     -0.061938      1.097889
  C      -2.981464      0.842552      0.211833
  N      -2.091773      1.159750     -0.685153
  C       1.907825      0.114916      0.663829
  O       2.076020     -0.622232      1.610291
  O       2.173613      1.406437      0.735822
  H       1.641309     -2.228326      0.051704
  H       1.113508     -2.170836     -1.525289
  H       2.264516     -0.187224     -1.375521
  H       0.040588      0.217954     -2.224057
  H       0.595687      1.566940     -1.259465
  H      -0.577507     -1.019052      1.239044
  H      -2.975021     -0.475174      1.881046
  H      -3.972139      1.241914      0.253354
  H       2.752766      1.673162      1.462083
20
Coordinates from ORCA-job geo_opt E -34.360088171790
  N       1.060814     -1.767554     -0.651693
  C       1.432183     -0.359340     -0.703762
  C       0.270254      0.508625     -1.225698
  C      -0.956377      0.423649     -0.379172
  C      -1.190173     -0.321910      0.744557
  N      -2.470540     -0.030668      1.124597
  C      -2.948407      0.864264      0.229711
  N      -2.070286      1.161163     -0.684741
  C       1.895398      0.100404      0.659345
  O       2.087398     -0.640301      1.597363
  O       2.111404      1.396633      0.710204
  H       1.640597     -2.248738      0.022312
  H       1.152408     -2.194561     -1.560332
  H       2.290492     -0.173956     -1.373954
  H       0.029653      0.195795     -2.241657
  H       0.602971      1.546085     -1.275367
  H      -0.553695     -1.008531      1.258812
  H      -2.943058     -0.423504      1.919320
  H      -3.934874      1.276017      0.276713
  H       2.493836      1.696429      1.553441
20
Coordinates from ORCA-job geo_opt E -34.360570957950
  N       1.078350     -1.778322     -0.686107
  C       1.438596     -0.371062     -0.721161
  C       0.274262      0.489776     -1.244165
  C      -0.943918      0.419380     -0.383038
  C      -1.171363     -0.304724      0.755053
  N      -2.446471     -0.000500      1.147412
  C      -2.928932      0.880524      0.244678
  N      -2.057419      1.156397     -0.687034
  C       1.874775      0.087693      0.657603
  O       2.088266     -0.659967      1.588464
  O       2.048797      1.391268      0.724943
  H       1.652295     -2.261170     -0.004813
  H       1.201607     -2.201297     -1.595635
  H       2.307651     -0.164284     -1.374045
  H       0.019975      0.161410     -2.252933
  H       0.605651      1.527982     -1.308250
  H      -0.540912     -0.990114      1.277835
  H      -2.916767     -0.376886      1.953725
  H      -3.913170      1.299646      0.296156
  H       2.328729      1.694248      1.611314
20
Coordinates from ORCA-job geo_opt E -34.360646636180
  N       1.085468     -1.779806     -0.694324
  C       1.438605     -0.372105     -0.724525
  C       0.273175      0.483768     -1.248858
  C      -0.941892      0.418338     -0.384228
  C      -1.170866     -0.301932      0.756035
  N      -2.443320      0.006764      1.151567
  C      -2.925107      0.887074      0.249201
  N      -2.053694      1.158368     -0.685259
  C       1.866423      0.086700      0.657637
  O       2.098148     -0.663901      1.582687
  O       2.026418      1.392873      0.735747
  H       1.656412     -2.262225     -0.009152
  H       1.223400     -2.202002     -1.602890
  H       2.311210     -0.159769     -1.372014
  H       0.013759      0.145433     -2.253573
  H       0.601935      1.522340     -1.323335
  H      -0.546669     -0.992411      1.280290
  H      -2.915184     -0.367100      1.958813
  H      -3.907838      1.309792      0.302144
  H       2.309620      1.689801      1.624037
20
Coordinates from ORCA-job geo_opt E -34.360683840230
  N       1.100537     -1.784862     -0.709803
  C       1.441682     -0.376053     -0.734504
  C       0.274006      0.470869     -1.261713
  C      -0.933082      0.416682     -0.387128
  C      -1.163385     -0.300538      0.754808
  N      -2.428151      0.021450      1.161110
  C      -2.907396      0.907171      0.264334
  N      -2.039002      1.169053     -0.676907
  C       1.857444      0.084041      0.651645
  O       2.111241     -0.668379      1.570480
  O       1.948930      1.395971      0.758813
  H       1.663984     -2.265016     -0.015540
  H       1.266425     -2.208396     -1.614001
  H       2.320520     -0.156133     -1.372055
  H       0.002433      0.112415     -2.256919
  H       0.597567      1.509274     -1.357503
  H      -0.553298     -1.005458      1.277802
  H      -2.902360     -0.347896      1.969571
  H      -3.884374      1.342032      0.325039
  H       2.226281      1.683774      1.652473
20
Coordinates from ORCA-job geo_opt E -34.360731865070
  N       1.102221     -1.783962     -0.706474
  C       1.439686     -0.373854     -0.731969
  C       0.271157      0.469799     -1.263130
  C      -0.935962      0.415642     -0.388008
  C      -1.168787     -0.309059      0.748567
  N      -2.431738      0.017371      1.157587
  C      -2.906579      0.912879      0.267430
  N      -2.037773      1.176544     -0.672153
  C       1.852531      0.087566      0.654204
  O       2.127021     -0.665207      1.566349
  O       1.948422      1.398297      0.758594
  H       1.661709     -2.260801     -0.006987
  H       1.276868     -2.210078     -1.607566
  H       2.320062     -0.152388     -1.366405
  H      -0.000261      0.107021     -2.256589
  H       0.591518      1.508460     -1.361851
  H      -0.564500     -1.022009      1.267431
  H      -2.908634     -0.354475      1.962815
  H      -3.880474      1.353801      0.331855
  H       2.243514      1.684452      1.646298
20
Coordinates from ORCA-job geo_opt E -34.360751020870
  N       1.103725     -1.784867     -0.705083
  C       1.439375     -0.373360     -0.731501
  C       0.270315      0.468084     -1.266243
  C      -0.936250      0.415328     -0.389400
  C      -1.169260     -0.315256      0.743211
  N      -2.430186      0.015270      1.156558
  C      -2.902506      0.918680      0.272196
  N      -2.034476      1.184129     -0.667051
  C       1.850897      0.089054      0.654460
  O       2.129692     -0.663513      1.565350
  O       1.939962      1.399752      0.758665
  H       1.659926     -2.258505     -0.001210
  H       1.283079     -2.212766     -1.604070
  H       2.320430     -0.152223     -1.364704
  H      -0.000227      0.102461     -2.258689
  H       0.589555      1.506564     -1.367480
  H      -0.566597     -1.032870      1.257234
  H      -2.907200     -0.358312      1.960631
  H      -3.873800      1.364454      0.341189
  H       2.233546      1.687898      1.645939
20
Coordinates from ORCA-job geo_opt E -34.360784035720
  N       1.114391     -1.788471     -0.704206
  C       1.439062     -0.372594     -0.732359
  C       0.267183      0.457710     -1.278816
  C      -0.935398      0.413583     -0.394464
  C      -1.172975     -0.336764      0.723836
  N      -2.423770      0.012112      1.155169
  C      -2.884305      0.944259      0.293351
  N      -2.019250      1.211057     -0.647539
  C       1.842348      0.094151      0.653980
  O       2.141315     -0.657101      1.559609
  O       1.896616      1.405354      0.764331
  H       1.658932     -2.250167      0.016181
  H       1.317415     -2.221454     -1.595182
  H       2.323260     -0.149796     -1.359982
  H      -0.003319      0.076185     -2.264967
  H       0.581338      1.495578     -1.395494
  H      -0.580889     -1.075232      1.219834
  H      -2.902462     -0.366573      1.955475
  H      -3.844718      1.409821      0.379962
  H       2.185227      1.698343      1.651284
20
Coordinates from ORCA-job geo_opt E -34.360802610430
  N       1.123170     -1.790789     -0.703105
  C       1.439120     -0.372204     -0.732906
  C       0.264629      0.449354     -1.286424
  C      -0.934856      0.412423     -0.397203
  C      -1.178729     -0.353041      0.709381
  N      -2.421689      0.008688      1.153286
  C      -2.871185      0.962733      0.309690
  N      -2.006282      1.232133     -0.630637
  C       1.835967      0.099001      0.653685
  O       2.142785     -0.649995      1.558704
  O       1.873098      1.410401      0.765489
  H       1.660503     -2.243829      0.028226
  H       1.342822     -2.226463     -1.588698
  H       2.324673     -0.147632     -1.357859
  H      -0.005828      0.055733     -2.267806
  H       0.575265      1.486773     -1.415190
  H      -0.594981     -1.107781      1.190388
  H      -2.902515     -0.375378      1.949738
  H      -3.823594      1.442028      0.408937
  H       2.157627      1.707844      1.652303
20
Coordinates from ORCA-job geo_opt E -34.360841601260
  N       1.150501     -1.796594     -0.700753
  C       1.440471     -0.371258     -0.734633
  C       0.257190      0.425346     -1.304350
  C      -0.933748      0.407833     -0.403033
  C      -1.200444     -0.398030      0.669240
  N      -2.419717     -0.000846      1.147535
  C      -2.833721      1.011704      0.356053
  N      -1.968247      1.285548     -0.582951
  C       1.816764      0.113605      0.653270
  O       2.131977     -0.627470      1.562210
  O       1.822243      1.425197      0.762287
  H       1.669093     -2.227183      0.057706
  H       1.415026     -2.237000     -1.571635
  H       2.328237     -0.138305     -1.353012
  H      -0.013435     -0.001032     -2.272054
  H       0.557433      1.461220     -1.465901
  H      -0.642034     -1.196803      1.107095
  H      -2.907748     -0.399063      1.932763
  H      -3.762155      1.528211      0.490512
  H       2.092313      1.734918      1.649652
20
Coordinates from ORCA-job geo_opt E -34.360879875620
  N       1.171979     -1.800206     -0.700899
  C       1.442919     -0.370965     -0.736162
  C       0.251841      0.408655     -1.313174
  C      -0.933287      0.403644     -0.404706
  C      -1.218793     -0.426255      0.644573
  N      -2.421750     -0.006896      1.143715
  C      -2.809094      1.041228      0.386609
  N      -1.940888      1.317764     -0.549620
  C       1.802368      0.123705      0.653479
  O       2.106026     -0.611049      1.571497
  O       1.804745      1.435916      0.753510
  H       1.679911     -2.218239      0.072062
  H       1.464267     -2.241015     -1.562888
  H       2.330291     -0.128377     -1.350910
  H      -0.019627     -0.038929     -2.271274
  H       0.544477      1.443295     -1.495963
  H      -0.678039     -1.252157      1.053268
  H      -2.915734     -0.414060      1.920847
  H      -3.721068      1.580527      0.543187
  H       2.059455      1.753412      1.642848
20
Coordinates from ORCA-job geo_opt E -34.360969126850
  N       1.222473     -1.804992     -0.696557
  C       1.450852     -0.369058     -0.739097
  C       0.239919      0.371361     -1.329161
  C      -0.932737      0.390148     -0.406762
  C      -1.270701     -0.493130      0.582863
  N      -2.431589     -0.024383      1.131674
  C      -2.747803      1.102018      0.460170
  N      -1.871696      1.382560     -0.468501
  C       1.768349      0.150750      0.653212
  O       2.019647     -0.566607      1.600095
  O       1.792579      1.464923      0.720904
  H       1.706667     -2.196934      0.105470
  H       1.571941     -2.247127     -1.536848
  H       2.334151     -0.101858     -1.347603
  H      -0.033299     -0.121829     -2.264733
  H       0.512848      1.402755     -1.555958
  H      -0.777660     -1.379866      0.918131
  H      -2.942560     -0.451412      1.887387
  H      -3.616823      1.691857      0.670597
  H       2.005441      1.800825      1.614717
20
Coordinates from ORCA-job geo_opt E -34.361039789730
  N       1.246859     -1.803417     -0.684253
  C       1.456174     -0.366124     -0.740240
  C       0.233988      0.351387     -1.339361
  C      -0.930544      0.379511     -0.408147
  C      -1.307657     -0.539390      0.534481
  N      -2.439696     -0.044752      1.117362
  C      -2.701489      1.132814      0.513570
  N      -1.816780      1.420882     -0.404820
  C       1.745720      0.174824      0.650500
  O       1.947297     -0.526416      1.620616
  O       1.802598      1.489506      0.689052
  H       1.709630     -2.178918      0.138200
  H       1.630662     -2.252875     -1.505582
  H       2.337089     -0.088840     -1.346140
  H      -0.040350     -0.167725     -2.260728
  H       0.493689      1.380681     -1.588608
  H      -0.852822     -1.465230      0.813675
  H      -2.966076     -0.487845      1.853044
  H      -3.538430      1.752521      0.764236
  H       1.990140      1.839407      1.583143
20
Coordinates from ORCA-job geo_opt E -34.361125346200
  N       1.253516     -1.795643     -0.656206
  C       1.461195     -0.360782     -0.737913
  C       0.231582      0.342728     -1.347106
  C      -0.928949      0.366398     -0.410736
  C      -1.347173     -0.591093      0.474882
  N      -2.450768     -0.079779      1.094573
  C      -2.656495      1.146622      0.569340
  N      -1.762515      1.448089     -0.335223
  C       1.728224      0.209404      0.644925
  O       1.850747     -0.465166      1.645897
  O       1.855594      1.520518      0.640929
  H       1.688083     -2.156155      0.187628
  H       1.661296     -2.264542     -1.454545
  H       2.340168     -0.086042     -1.345493
  H      -0.041428     -0.190584     -2.260322
  H       0.480974      1.372122     -1.603202
  H      -0.933730     -1.552467      0.690584
  H      -2.994223     -0.542290      1.805103
  H      -3.459831      1.789880      0.865634
  H       2.023733      1.888782      1.531251
20
Coordinates from ORCA-job geo_opt E -34.361261999570
  N       1.270776     -1.790128     -0.627193
  C       1.466021     -0.355311     -0.734996
  C       0.227050      0.325881     -1.357928
  C      -0.928567      0.351115     -0.413769
  C      -1.402306     -0.643384      0.400193
  N      -2.466540     -0.111258      1.068817
  C      -2.597190      1.162999      0.639643
  N      -1.691243      1.474841     -0.248880
  C       1.711961      0.246761      0.636919
  O       1.775787     -0.398654      1.661812
  O       1.885280      1.552216      0.596019
  H       1.668400     -2.126466      0.243952
  H       1.716449     -2.275705     -1.394294
  H       2.342148     -0.081865     -1.344909
  H      -0.042431     -0.228034     -2.259291
  H       0.464342      1.353536     -1.628633
  H      -1.046993     -1.640958      0.539924
  H      -3.033222     -0.589630      1.749750
  H      -3.354907      1.832060      0.992873
  H       2.035185      1.941984      1.479991
20
Coordinates from ORCA-job geo_opt E -34.361463673980
  N       1.298068     -1.780866     -0.583222
  C       1.473122     -0.347557     -0.731194
  C       0.219813      0.296906     -1.372589
  C      -0.926851      0.328777     -0.417447
  C      -1.490254     -0.701822      0.287420
  N      -2.493497     -0.149402      1.028628
  C      -2.502357      1.172629      0.747729
  N      -1.575710      1.494702     -0.115416
  C       1.688978      0.300471      0.623656
  O       1.673433     -0.300676      1.676580
  O       1.923719      1.594134      0.534574
  H       1.640989     -2.077775      0.324579
  H       1.800761     -2.286546     -1.300147
  H       2.344153     -0.075755     -1.346295
  H      -0.043808     -0.290848     -2.253410
  H       0.437646      1.320871     -1.669832
  H      -1.225775     -1.736265      0.310060
  H      -3.098399     -0.644703      1.662842
  H      -3.189619      1.866755      1.186163
  H       2.045588      2.016970      1.407320
20
Coordinates from ORCA-job geo_opt E -34.361663889170
  N       1.310298     -1.773115     -0.545355
  C       1.476998     -0.342707     -0.726609
  C       0.216397      0.279826     -1.381367
  C      -0.925149      0.312507     -0.419216
  C      -1.552518     -0.732182      0.205454
  N      -2.514450     -0.175971      0.996957
  C      -2.435601      1.162856      0.823911
  N      -1.492192      1.491307     -0.018316
  C       1.679491      0.339954      0.611513
  O       1.615704     -0.225987      1.681947
  O       1.953475      1.623184      0.487778
  H       1.613081     -2.039675      0.385611
  H       1.846856     -2.295284     -1.224419
  H       2.344940     -0.079872     -1.348221
  H      -0.041789     -0.324493     -2.251829
  H       0.422428      1.302316     -1.690195
  H      -1.355974     -1.779958      0.145017
  H      -3.149062     -0.677943      1.595515
  H      -3.073360      1.863694      1.322304
  H       2.060425      2.071543      1.349520
20
Coordinates from ORCA-job geo_opt E -34.361268841590
  N       1.240978     -1.758351     -0.435648
  C       1.463289     -0.342229     -0.697836
  C       0.228761      0.302650     -1.389591
  C      -0.920660      0.290057     -0.426763
  C      -1.604827     -0.777533      0.068691
  N      -2.537654     -0.253054      0.926389
  C      -2.359405      1.090454      0.922419
  N      -1.387822      1.450841      0.127596
  C       1.735993      0.409680      0.578543
  O       1.722931     -0.093843      1.684723
  O       1.983020      1.688153      0.376755
  H       1.473237     -1.964014      0.528042
  H       1.773716     -2.346300     -1.057150
  H       2.337236     -0.178125     -1.346202
  H      -0.009814     -0.242796     -2.298745
  H       0.442990      1.340157     -1.634699
  H      -1.526292     -1.828558     -0.096466
  H      -3.224363     -0.752813      1.462033
  H      -2.944647      1.774609      1.502603
  H       2.113334      2.191016      1.205305
20
Coordinates from ORCA-job geo_opt E -34.362086543550
  N       1.304077     -1.751536     -0.436984
  C       1.479794     -0.335060     -0.706473
  C       0.217683      0.256810     -1.397037
  C      -0.920932      0.275895     -0.427156
  C      -1.686135     -0.768328      0.010508
  N      -2.561099     -0.237276      0.916216
  C      -2.291980      1.087424      0.988423
  N      -1.311094      1.429738      0.196024
  C       1.684817      0.432006      0.578739
  O       1.560606     -0.047957      1.686219
  O       2.017003      1.690329      0.370358
  H       1.505112     -1.939664      0.538682
  H       1.899184     -2.320630     -1.020718
  H       2.346039     -0.126571     -1.348728
  H      -0.021357     -0.355862     -2.264445
  H       0.409062      1.281974     -1.704594
  H      -1.652865     -1.807296     -0.231228
  H      -3.264709     -0.735753      1.434189
  H      -2.822556      1.769439      1.620674
  H       2.109351      2.202317      1.197331
20
Coordinates from ORCA-job geo_opt E -34.362279106530
  N       1.338057     -1.740860     -0.395726
  C       1.488679     -0.329838     -0.703313
  C       0.213749      0.217971     -1.409738
  C      -0.915563      0.250282     -0.430376
  C      -1.780259     -0.753566     -0.095197
  N      -2.591270     -0.240314      0.877211
  C      -2.187431      1.033810      1.089564
  N      -1.181953      1.361268      0.321874
  C       1.664723      0.477989      0.561424
  O       1.499941      0.034124      1.678544
  O       2.018248      1.724567      0.322430
  H       1.467132     -1.884633      0.599854
  H       1.997635     -2.309926     -0.905674
  H       2.350787     -0.121765     -1.348974
  H      -0.019068     -0.432806     -2.249886
  H       0.387111      1.235043     -1.752620
  H      -1.854338     -1.758738     -0.446487
  H      -3.338908     -0.717911      1.351223
  H      -2.641754      1.692185      1.801239
  H       2.084482      2.263115      1.134627
20
Coordinates from ORCA-job geo_opt E -34.360296713700
  N       1.476410     -1.758624     -0.517857
  C       1.515763     -0.329539     -0.743074
  C       0.201092      0.136723     -1.388933
  C      -0.921151      0.247746     -0.431947
  C      -1.848500     -0.699234     -0.058247
  N      -2.629125     -0.131249      0.897004
  C      -2.169422      1.115395      1.072813
  N      -1.155477      1.382723      0.289221
  C       1.653361      0.423780      0.593111
  O       1.718353     -0.140433      1.663349
  O       1.776623      1.721545      0.441340
  H       1.563999     -1.928034      0.484103
  H       2.282867     -2.206575     -0.943407
  H       2.342660     -0.004700     -1.384066
  H      -0.044135     -0.633240     -2.123879
  H       0.364203      1.097604     -1.884135
  H      -1.970075     -1.704969     -0.405718
  H      -3.398509     -0.578354      1.372256
  H      -2.597286      1.806681      1.769641
  H       1.838348      2.182754      1.298426
20
Coordinates from ORCA-job geo_opt E -34.362755789600
  N       1.408552     -1.746529     -0.424477
  C       1.501106     -0.327247     -0.716761
  C       0.203660      0.169495     -1.408790
  C      -0.919242      0.236112     -0.430836
  C      -1.851783     -0.720244     -0.130883
  N      -2.623283     -0.199502      0.867790
  C      -2.137532      1.032016      1.129658
  N      -1.116902      1.328067      0.368527
  C       1.671168      0.477310      0.562452
  O       1.626814     -0.016154      1.670391
  O       1.905465      1.751673      0.340534
  H       1.458525     -1.875108      0.582930
  H       2.170809     -2.260577     -0.845733
  H       2.348281     -0.082481     -1.367604
  H      -0.034671     -0.539447     -2.200316
  H       0.369009      1.162528     -1.824365
  H      -2.004695     -1.699580     -0.530155
  H      -3.401667     -0.648615      1.321839
  H      -2.547202      1.687237      1.871164
  H       1.973586      2.271045      1.164634
20
Coordinates from ORCA-job geo_opt E -34.363145436850
  N       1.357453     -1.730158     -0.379291
  C       1.496203     -0.322749     -0.706479
  C       0.201837      0.204439     -1.386440
  C      -0.934492      0.226851     -0.421430
  C      -1.859308     -0.744443     -0.149446
  N      -2.647808     -0.250094      0.850451
  C      -2.175963      0.979872      1.142895
  N      -1.149235      1.299486      0.400922
  C       1.719034      0.512901      0.544690
  O       1.586843      0.082510      1.671338
  O       2.088841      1.746027      0.274141
  H       1.399275     -1.836019      0.630714
  H       2.102540     -2.276885     -0.788696
  H       2.330344     -0.130210     -1.389749
  H      -0.034286     -0.461112     -2.214377
  H       0.386829      1.212773     -1.756530
  H      -2.003577     -1.713779     -0.574511
  H      -3.427534     -0.716042      1.284115
  H      -2.599373      1.615165      1.893816
  H       2.162376      2.301465      1.073866
20
Coordinates from ORCA-job geo_opt E -34.363503013810
  N       1.375904     -1.713857     -0.318234
  C       1.499504     -0.318165     -0.701517
  C       0.198203      0.174613     -1.396863
  C      -0.930211      0.195245     -0.422242
  C      -1.946874     -0.702782     -0.259742
  N      -2.679780     -0.256116      0.805185
  C      -2.082381      0.875042      1.239547
  N      -1.029838      1.176603      0.527757
  C       1.730160      0.561345      0.511045
  O       1.601026      0.160749      1.649503
  O       2.091636      1.786770      0.200333
  H       1.280410     -1.754724      0.693737
  H       2.193469     -2.244044     -0.585918
  H       2.326334     -0.157130     -1.399872
  H      -0.029951     -0.507305     -2.213103
  H       0.370291      1.178966     -1.780487
  H      -2.202901     -1.593049     -0.791576
  H      -3.503625     -0.684734      1.192900
  H      -2.434575      1.454082      2.068826
  H       2.173199      2.368490      0.980723
20
Coordinates from ORCA-job geo_opt E -34.364059167290
  N       1.352956     -1.712533     -0.322015
  C       1.489197     -0.315859     -0.708821
  C       0.192921      0.200100     -1.387591
  C      -0.937621      0.199079     -0.419014
  C      -1.929577     -0.722189     -0.249973
  N      -2.682161     -0.277660      0.804012
  C      -2.119784      0.878763      1.221476
  N      -1.072771      1.197915      0.510047
  C       1.783255      0.551140      0.494721
  O       1.752354      0.111257      1.626574
  O       2.080499      1.795749      0.193744
  H       1.160534     -1.730119      0.678157
  H       2.210892     -2.222039     -0.488240
  H       2.303539     -0.186342     -1.429041
  H      -0.036774     -0.450275     -2.231016
  H       0.376780      1.212656     -1.740984
  H      -2.171531     -1.626444     -0.765028
  H      -3.497487     -0.721930      1.193279
  H      -2.491282      1.461618      2.040150
  H       2.236060      2.357114      0.979564
20
Coordinates from ORCA-job geo_opt E -34.364768802710
  N       1.353485     -1.715354     -0.349619
  C       1.493344     -0.315418     -0.722879
  C       0.191009      0.206888     -1.380212
  C      -0.939075      0.199425     -0.414817
  C      -1.923931     -0.729880     -0.235914
  N      -2.683448     -0.283401      0.810437
  C      -2.134190      0.881546      1.217658
  N      -1.087465      1.203818      0.506689
  C       1.794645      0.550702      0.488680
  O       1.752149      0.110726      1.620293
  O       2.112205      1.790245      0.191290
  H       1.079579     -1.737192      0.631616
  H       2.245892     -2.190437     -0.414938
  H       2.297170     -0.184569     -1.453722
  H      -0.043638     -0.440405     -2.225116
  H       0.378417      1.221225     -1.729906
  H      -2.151967     -1.639614     -0.748589
  H      -3.494348     -0.738927      1.197067
  H      -2.514437      1.466565      2.030769
  H       2.274603      2.344055      0.981213
20
Coordinates from ORCA-job geo_opt E -34.365704197250
  N       1.357079     -1.718384     -0.407916
  C       1.500709     -0.312906     -0.748766
  C       0.191244      0.219091     -1.381199
  C      -0.933665      0.206873     -0.409715
  C      -1.894072     -0.744529     -0.201941
  N      -2.664596     -0.293012      0.832113
  C      -2.146213      0.894900      1.208955
  N      -1.109844      1.228295      0.487597
  C       1.795642      0.542079      0.481091
  O       1.706751      0.102169      1.610133
  O       2.159042      1.771088      0.197495
  H       0.913444     -1.760479      0.508632
  H       2.275689     -2.130730     -0.274230
  H       2.297757     -0.178056     -1.484006
  H      -0.050195     -0.423635     -2.226423
  H       0.376672      1.237996     -1.722319
  H      -2.081348     -1.672966     -0.697669
  H      -3.458381     -0.772072      1.225543
  H      -2.543554      1.487748      2.007603
  H       2.307837      2.316528      0.995023
20
Coordinates from ORCA-job geo_opt E -34.366292666750
  N       1.354948     -1.722415     -0.467354
  C       1.502569     -0.309546     -0.766483
  C       0.194496      0.237034     -1.389845
  C      -0.924985      0.223050     -0.408530
  C      -1.837470     -0.763923     -0.150051
  N      -2.625600     -0.302089      0.865207
  C      -2.164578      0.926383      1.181872
  N      -1.147281      1.274828      0.440670
  C       1.780831      0.524416      0.483273
  O       1.642882      0.083745      1.607211
  O       2.184391      1.746367      0.221236
  H       0.782259     -1.803024      0.371023
  H       2.258685     -2.103341     -0.198528
  H       2.307563     -0.167272     -1.491491
  H      -0.052685     -0.396891     -2.238956
  H       0.376113      1.260871     -1.717669
  H      -1.966509     -1.723598     -0.603017
  H      -3.390929     -0.805597      1.283471
  H      -2.590447      1.536893      1.951581
  H       2.315747      2.284108      1.026379
20
Coordinates from ORCA-job geo_opt E -34.366664518910
  N       1.372317     -1.719423     -0.502452
  C       1.503676     -0.303118     -0.776501
  C       0.196071      0.242440     -1.403037
  C      -0.917464      0.231247     -0.410914
  C      -1.799936     -0.774467     -0.119350
  N      -2.592717     -0.307002      0.890242
  C      -2.162657      0.941749      1.169866
  N      -1.161838      1.298284      0.410451
  C       1.766256      0.512981      0.483075
  O       1.596154      0.062789      1.598467
  O       2.192003      1.733026      0.242028
  H       0.671337     -1.832051      0.227816
  H       2.238529     -2.066894     -0.099994
  H       2.318182     -0.153560     -1.489291
  H      -0.052971     -0.392872     -2.250106
  H       0.368212      1.267245     -1.730607
  H      -1.902834     -1.749374     -0.546049
  H      -3.341364     -0.818085      1.329004
  H      -2.600815      1.562589      1.924186
  H       2.309856      2.264494      1.053165
20
Coordinates from ORCA-job geo_opt E -34.366721790720
  N       1.371298     -1.731694     -0.548581
  C       1.497547     -0.303355     -0.773756
  C       0.199023      0.252029     -1.411386
  C      -0.915121      0.247413     -0.416093
  C      -1.752013     -0.781320     -0.072555
  N      -2.558237     -0.300331      0.920230
  C      -2.181127      0.977774      1.136862
  N      -1.200960      1.340370      0.353485
  C       1.735191      0.494744      0.503509
  O       1.544064      0.055336      1.620561
  O       2.176167      1.713495      0.273182
  H       0.656137     -1.899996      0.154176
  H       2.239061     -2.099981     -0.173196
  H       2.334227     -0.129822     -1.457579
  H      -0.051750     -0.379187     -2.261302
  H       0.369598      1.277290     -1.734921
  H      -1.817889     -1.778770     -0.452054
  H      -3.285087     -0.814517      1.390904
  H      -2.642511      1.616524      1.861877
  H       2.282381      2.243998      1.086635
20
Coordinates from ORCA-job geo_opt E -34.366883920250
  N       1.402220     -1.723540     -0.519651
  C       1.502318     -0.299154     -0.769262
  C       0.195737      0.230863     -1.409883
  C      -0.917746      0.230407     -0.415641
  C      -1.800405     -0.772841     -0.114909
  N      -2.583225     -0.298796      0.900270
  C      -2.149287      0.950500      1.170011
  N      -1.154133      1.301541      0.400407
  C       1.747730      0.511272      0.495734
  O       1.578811      0.065870      1.613280
  O       2.169349      1.734973      0.255568
  H       0.663683     -1.883107      0.160645
  H       2.262768     -2.064336     -0.105259
  H       2.330917     -0.124353     -1.462096
  H      -0.050992     -0.416002     -2.249757
  H       0.359600      1.250850     -1.753295
  H      -1.925341     -1.747346     -0.537318
  H      -3.335247     -0.793933      1.351460
  H      -2.579511      1.578195      1.923547
  H       2.282754      2.268938      1.066151
20
Coordinates from ORCA-job geo_opt E -34.366916532290
  N       1.401561     -1.721571     -0.518753
  C       1.502074     -0.297671     -0.769709
  C       0.195568      0.231062     -1.406495
  C      -0.919238      0.227276     -0.415564
  C      -1.801390     -0.775998     -0.115178
  N      -2.586837     -0.301183      0.897679
  C      -2.152824      0.947775      1.169096
  N      -1.155509      1.298180      0.401927
  C       1.756341      0.512298      0.494764
  O       1.600934      0.063393      1.612624
  O       2.170855      1.737800      0.252106
  H       0.652931     -1.879232      0.150801
  H       2.255855     -2.055941     -0.085747
  H       2.327675     -0.123267     -1.466452
  H      -0.050291     -0.413547     -2.248793
  H       0.362299      1.251177     -1.749021
  H      -1.930337     -1.749827     -0.537614
  H      -3.340677     -0.794875      1.347499
  H      -2.582239      1.574526      1.923936
  H       2.293251      2.269624      1.062894
20
Coordinates from ORCA-job geo_opt E -34.366934543570
  N       1.406324     -1.721871     -0.518123
  C       1.502985     -0.296970     -0.768394
  C       0.195872      0.226459     -1.405193
  C      -0.919710      0.223834     -0.416122
  C      -1.808999     -0.774454     -0.120956
  N      -2.590883     -0.299557      0.894653
  C      -2.147806      0.944621      1.173211
  N      -1.147935      1.291981      0.407860
  C       1.759057      0.514271      0.496757
  O       1.619375      0.064881      1.616396
  O       2.161692      1.742687      0.249274
  H       0.650681     -1.884129      0.142350
  H       2.257531     -2.050668     -0.074540
  H       2.328543     -0.118112     -1.464511
  H      -0.048019     -0.421018     -2.246006
  H       0.362711      1.245525     -1.752004
  H      -1.948331     -1.744416     -0.548914
  H      -3.348900     -0.788530      1.342664
  H      -2.571024      1.569502      1.933004
  H       2.286834      2.275964      1.058594
20
Coordinates from ORCA-job geo_opt E -34.366942398450
  N       1.406741     -1.722114     -0.514737
  C       1.503344     -0.297120     -0.766935
  C       0.196614      0.224861     -1.404947
  C      -0.919184      0.221907     -0.416288
  C      -1.813742     -0.773154     -0.126616
  N      -2.592886     -0.299987      0.891922
  C      -2.143015      0.940260      1.177569
  N      -1.141387      1.286565      0.414103
  C       1.761575      0.516506      0.496831
  O       1.633914      0.068356      1.618322
  O       2.154967      1.747006      0.244380
  H       0.643790     -1.885654      0.136782
  H       2.253663     -2.047715     -0.060685
  H       2.329527     -0.118956     -1.462627
  H      -0.045941     -0.423013     -2.245819
  H       0.363307      1.243891     -1.752263
  H      -1.958668     -1.739961     -0.559919
  H      -3.353556     -0.786835      1.337735
  H      -2.562255      1.562751      1.941459
  H       2.283191      2.282405      1.051731
20
Coordinates from ORCA-job geo_opt E -34.366950578620
  N       1.404637     -1.722232     -0.505091
  C       1.503929     -0.298261     -0.764181
  C       0.198148      0.223326     -1.404356
  C      -0.917789      0.219028     -0.415883
  C      -1.822780     -0.769989     -0.138465
  N      -2.597111     -0.301566      0.885842
  C      -2.134196      0.930415      1.186834
  N      -1.129101      1.275731      0.427690
  C       1.767245      0.521288      0.495020
  O       1.660030      0.076076      1.619715
  O       2.144462      1.755028      0.233271
  H       0.632518     -1.883769      0.136057
  H       2.245301     -2.044031     -0.036810
  H       2.330756     -0.125270     -1.460563
  H      -0.042834     -0.424270     -2.245762
  H       0.364808      1.242648     -1.750877
  H      -1.975984     -1.730269     -0.583418
  H      -3.362671     -0.786048      1.325737
  H      -2.547153      1.547558      1.958408
  H       2.277788      2.294607      1.036832
20
Coordinates from ORCA-job geo_opt E -34.366953543300
  N       1.401124     -1.721926     -0.499422
  C       1.503745     -0.299089     -0.762821
  C       0.198711      0.224462     -1.403508
  C      -0.917385      0.218623     -0.415078
  C      -1.825634     -0.769006     -0.143094
  N      -2.599084     -0.303480      0.883077
  C      -2.132677      0.925675      1.190330
  N      -1.126243      1.271822      0.433457
  C       1.770894      0.523709      0.493114
  O       1.670557      0.080490      1.619228
  O       2.143990      1.757885      0.227192
  H       0.627569     -1.880409      0.140757
  H       2.240287     -2.044026     -0.028668
  H       2.330443     -0.131007     -1.460581
  H      -0.042398     -0.421745     -2.245884
  H       0.365931      1.244241     -1.748102
  H      -1.979389     -1.726883     -0.593038
  H      -3.366037     -0.788710      1.319667
  H      -2.544963      1.540352      1.964248
  H       2.280558      2.299024      1.029124
20
Coordinates from ORCA-job geo_opt E -34.366954836250
  N       1.398826     -1.721359     -0.495809
  C       1.503496     -0.299569     -0.762058
  C       0.198820      0.225402     -1.402749
  C      -0.917338      0.218809     -0.414252
  C      -1.827075     -0.768472     -0.145426
  N      -2.600524     -0.304732      0.881449
  C      -2.132798      0.922992      1.192195
  N      -1.125543      1.269978      0.436818
  C       1.773275      0.525339      0.491548
  O       1.675204      0.083158      1.618321
  O       2.145819      1.759267      0.223697
  H       0.625961     -1.877533      0.145789
  H       2.238110     -2.044406     -0.025989
  H       2.329861     -0.134909     -1.461097
  H      -0.043080     -0.420239     -2.245310
  H       0.366502      1.245285     -1.746482
  H      -1.980191     -1.725015     -0.598393
  H      -3.368190     -0.791002      1.315634
  H      -2.545509      1.536304      1.967004
  H       2.284375      2.300703      1.025110
20
Coordinates from ORCA-job geo_opt E -34.366955022060
  N       1.398655     -1.721204     -0.495103
  C       1.503453     -0.299666     -0.761876
  C       0.198825      0.225272     -1.402542
  C      -0.917353      0.218888     -0.414054
  C      -1.827600     -0.768187     -0.146067
  N      -2.600960     -0.304778      0.881027
  C      -2.132720      0.922475      1.192700
  N      -1.125169      1.269529      0.437703
  C       1.773784      0.525779      0.491268
  O       1.676281      0.083655      1.618148
  O       2.145942      1.759713      0.223122
  H       0.626347     -1.877043      0.147213
  H       2.238283     -2.044488     -0.026087
  H       2.329734     -0.135439     -1.461179
  H      -0.043500     -0.420625     -2.244791
  H       0.366717      1.245003     -1.746607
  H      -1.981058     -1.724246     -0.599904
  H      -3.368962     -0.791111      1.314571
  H      -2.545321      1.535449      1.967843
  H       2.284623      2.301022      1.024616
