20
Coordinates from ORCA-job geo_opt E -34.366955022060
  N           1.39865523526855     -1.72120397413572     -0.49510271034832
  C           1.50345284941792     -0.29966582905058     -0.76187590358178
  C           0.19882497782587      0.22527170261001     -1.40254207900499
  C          -0.91735311952853      0.21888829166526     -0.41405353676305
  C          -1.82760044490326     -0.76818710134083     -0.14606677654467
  N          -2.60096005852570     -0.30477810270306      0.88102657087720
  C          -2.13271986004551      0.92247522181900      1.19269954635497
  N          -1.12516895815296      1.26952927196746      0.43770280814790
  C           1.77378370332230      0.52577935851877      0.49126765695120
  O           1.67628141303726      0.08365543564579      1.61814838086481
  O           2.14594174752090      1.75971339509048      0.22312152277960
  H           0.62634737948584     -1.87704316156319      0.14721261505891
  H           2.23828259716182     -2.04448773433451     -0.02608679349066
  H           2.32973416726485     -0.13543946907114     -1.46117907995713
  H          -0.04349981290566     -0.42062500522427     -2.24479073829405
  H           0.36671677005882      1.24500348716358     -1.74660718120492
  H          -1.98105803041317     -1.72424594745187     -0.59990415544001
  H          -3.36896185755766     -0.79111091651819      1.31457054872164
  H          -2.54532129952419      1.53544864180165      1.96784339177711
  H           2.28462261119250      2.30102243511136      1.02461588309622
