20
neutral_epsilon conformer 7
N       1.08324149    -1.72849878    -0.62613880
C       1.39609987    -0.31708149    -0.66597504
C       0.26064742     0.52126843    -1.18183981
C      -0.97669360     0.43571762    -0.40061569
C      -1.29633742    -0.28454201     0.73130408
N      -2.56898174    -0.05201354     1.10363270
C      -3.05224103     0.81357354     0.20835399
N      -2.11548413     1.11780326    -0.69969202
C       1.91038265     0.10831199     0.65734989
O       2.06065806    -0.66941291     1.63444729
O       2.25750720     1.44026170     0.86665803
H       1.71182199    -2.21756844     0.03476013
H       1.12437344    -2.11387309    -1.59188097
H       2.22728409    -0.24403903    -1.43434436
H       0.06841310     0.15551814    -2.22771264
H       0.61756169     1.56136912    -1.33066523
H      -0.63628780    -0.94045315     1.25046995
H      -3.03726230    -0.48934227     1.93801419
H      -4.06466853     1.19522612     0.24222911
H       3.02996556     1.70777479     1.49164517
