24
Coordinates from ORCA-job geo_opt E -43.463554986250
  N       3.078744      0.724840     -1.035913
  C       2.234998     -0.390830     -1.455871
  C       1.294447     -0.768128     -0.383322
  O       0.504796     -1.736139     -0.640805
  N       1.253600     -0.095303      0.888734
  C       0.323865     -0.466907      1.931571
  C      -1.088258     -0.318047      1.601163
  O      -1.940852     -0.664025      2.487379
  N      -1.618388      0.177590      0.386975
  C      -3.074967      0.236033      0.272299
  C      -3.388564      0.789112     -1.088279
  O      -2.469391      1.107907     -1.894946
  O      -4.737201      0.927188     -1.402043
  H       3.595571      0.397995     -0.191308
  H       2.529298      1.567261     -0.759043
  H       3.768600      0.944258     -1.784239
  H       2.917045     -1.245240     -1.637890
  H       1.754940     -0.174670     -2.428934
  H       1.956314      0.683411      0.986250
  H       0.579014     -1.479149      2.329240
  H       0.562214      0.219524      2.798198
  H      -0.980455      0.487970     -0.370783
  H      -3.542207     -0.768266      0.309076
  H      -3.513165      0.860838      1.082492
24
Coordinates from ORCA-job geo_opt E -43.504341919450
  N       3.048905      0.766383     -1.065898
  C       2.184715     -0.382809     -1.427957
  C       1.238824     -0.777563     -0.345233
  O       0.466948     -1.729983     -0.557310
  N       1.225786     -0.116755      0.864504
  C       0.319322     -0.480656      1.926920
  C      -1.118460     -0.344030      1.628031
  O      -1.945229     -0.683165      2.504355
  N      -1.601389      0.143462      0.446120
  C      -3.029597      0.232408      0.260434
  C      -3.290351      0.805836     -1.114743
  O      -2.352404      1.114269     -1.874183
  O      -4.548330      0.951688     -1.447238
  H       3.603208      0.492258     -0.237306
  H       2.506267      1.608618     -0.817744
  H       3.704014      0.969798     -1.837608
  H       2.849390     -1.241267     -1.609793
  H       1.668689     -0.195647     -2.376711
  H       1.901320      0.642091      0.952855
  H       0.564912     -1.485660      2.310546
  H       0.556828      0.195480      2.775112
  H      -0.964024      0.438951     -0.286168
  H      -3.503983     -0.758579      0.283804
  H      -3.485363      0.852092      1.045210
24
Coordinates from ORCA-job geo_opt E -43.519215199810
  N       2.960072      0.813813     -1.111730
  C       2.127432     -0.386306     -1.405608
  C       1.189349     -0.819729     -0.304708
  O       0.463612     -1.787527     -0.481704
  N       1.197627     -0.143286      0.849571
  C       0.326541     -0.498185      1.947137
  C      -1.148523     -0.388952      1.689347
  O      -1.941756     -0.733629      2.567640
  N      -1.575707      0.105252      0.530129
  C      -2.974539      0.235877      0.233021
  C      -3.151478      0.852248     -1.165729
  O      -2.149226      1.150875     -1.834133
  O      -4.314735      1.015592     -1.539991
  H       3.563518      0.617190     -0.302117
  H       2.387273      1.639414     -0.901598
  H       3.569724      1.015026     -1.914342
  H       2.801511     -1.230158     -1.584006
  H       1.560397     -0.243510     -2.325281
  H       1.840419      0.624261      0.932653
  H       0.567489     -1.500674      2.315054
  H       0.558655      0.176920      2.777578
  H      -0.922551      0.396220     -0.179158
  H      -3.463446     -0.743693      0.221071
  H      -3.471657      0.850185      0.986903
24
Coordinates from ORCA-job geo_opt E -43.524327457780
  N       2.844725      0.854068     -1.182126
  C       2.130919     -0.436970     -1.382654
  C       1.221749     -0.906739     -0.255602
  O       0.600090     -1.949754     -0.381918
  N       1.177842     -0.163708      0.858257
  C       0.326927     -0.515690      1.973651
  C      -1.168079     -0.447454      1.721805
  O      -1.948112     -0.835065      2.588909
  N      -1.567953      0.105454      0.584804
  C      -2.944834      0.251711      0.208911
  C      -3.040276      0.962721     -1.171469
  O      -1.972850      1.287003     -1.724817
  O      -4.179817      1.137458     -1.620539
  H       3.480801      0.789885     -0.377659
  H       2.189549      1.630403     -1.039922
  H       3.413543      1.056961     -2.013146
  H       2.867511     -1.231410     -1.525364
  H       1.528881     -0.399620     -2.289523
  H       1.754628      0.654993      0.926254
  H       0.570641     -1.520131      2.328390
  H       0.539140      0.165143      2.798898
  H      -0.905144      0.429643     -0.101834
  H      -3.427794     -0.725799      0.116989
  H      -3.492087      0.824121      0.959705
24
Coordinates from ORCA-job geo_opt E -43.527429237380
  N       2.621650      0.899302     -1.255882
  C       2.007699     -0.442263     -1.370989
  C       1.211821     -0.972310     -0.171468
  O       0.641306     -2.046570     -0.261801
  N       1.163693     -0.187483      0.917892
  C       0.350563     -0.540700      2.058016
  C      -1.163633     -0.481606      1.806562
  O      -1.946927     -0.942146      2.630515
  N      -1.504010      0.094825      0.661144
  C      -2.831400      0.254401      0.140789
  C      -2.744440      0.994098     -1.243892
  O      -1.591077      1.306670     -1.603233
  O      -3.818435      1.257854     -1.803370
  H       3.338338      0.929006     -0.520577
  H       1.905746      1.617280     -1.092665
  H       3.079738      1.124970     -2.148861
  H       2.773902     -1.191655     -1.577474
  H       1.302270     -0.456515     -2.203371
  H       1.656039      0.689176      0.967027
  H       0.570971     -1.565578      2.370782
  H       0.560486      0.126310      2.892172
  H      -0.807743      0.427380      0.001177
  H      -3.318250     -0.714229     -0.013721
  H      -3.458308      0.837005      0.821231
24
Coordinates from ORCA-job geo_opt E -43.526958976850
  N       2.309043      0.951224     -1.329911
  C       1.898247     -0.458726     -1.357196
  C       1.234980     -1.040864     -0.095644
  O       0.804836     -2.181969     -0.125468
  N       1.153585     -0.223579      0.972413
  C       0.370202     -0.599111      2.123227
  C      -1.156530     -0.546634      1.853349
  O      -1.954430     -1.057529      2.631017
  N      -1.440564      0.101118      0.727986
  C      -2.706782      0.331298      0.095210
  C      -2.406802      1.116228     -1.246786
  O      -1.186900      1.207790     -1.498465
  O      -3.370864      1.318423     -1.999122
  H       3.054426      1.137068     -0.647189
  H       1.491883      1.556258     -1.170471
  H       2.667849      1.193984     -2.265239
  H       2.739012     -1.113322     -1.592078
  H       1.132440     -0.599588     -2.126070
  H       1.527248      0.714437      1.000705
  H       0.573317     -1.641912      2.392040
  H       0.572754      0.049747      2.973135
  H      -0.709546      0.464694      0.110822
  H      -3.227383     -0.603483     -0.144665
  H      -3.370023      0.941671      0.718399
24
Coordinates from ORCA-job geo_opt E -43.532815799160
  N       2.051950      0.941614     -1.396636
  C       1.893552     -0.513875     -1.331119
  C       1.321955     -1.100383     -0.031933
  O       1.072938     -2.294188      0.018402
  N       1.166375     -0.251617      1.003081
  C       0.371136     -0.637118      2.142462
  C      -1.149807     -0.602329      1.827458
  O      -1.969239     -1.119203      2.579268
  N      -1.410674      0.103896      0.732000
  C      -2.643098      0.372962      0.054682
  C      -2.231883      1.200125     -1.230649
  O      -0.998164      1.338724     -1.371998
  O      -3.141664      1.557215     -1.990983
  H       2.739935      1.300502     -0.722347
  H       1.135552      1.399429     -1.284121
  H       2.377508      1.182248     -2.345048
  H       2.834197     -1.032016     -1.526093
  H       1.166180     -0.832088     -2.085628
  H       1.440719      0.720397      0.989798
  H       0.583828     -1.675524      2.420256
  H       0.548304      0.020395      2.992140
  H      -0.662237      0.504049      0.154682
  H      -3.164220     -0.539316     -0.256857
  H      -3.333143      0.973324      0.659182
24
Coordinates from ORCA-job geo_opt E -43.477248349540
  N       1.497904      0.908953     -1.435909
  C       1.745456     -0.531526     -1.298336
  C       1.412278     -1.140149      0.064023
  O       1.370093     -2.354800      0.180521
  N       1.194972     -0.288937      1.081755
  C       0.391074     -0.704578      2.206213
  C      -1.111459     -0.642515      1.820853
  O      -1.987770     -1.168376      2.498607
  N      -1.282266      0.103725      0.740123
  C      -2.413579      0.444811     -0.063629
  C      -1.788612      1.270842     -1.263168
  O      -0.544137      1.413124     -1.224069
  O      -2.568189      1.774568     -2.073088
  H       2.088720      1.477792     -0.819335
  H       0.489321      1.099370     -1.284190
  H       1.695357      1.178852     -2.409123
  H       2.773102     -0.805123     -1.542516
  H       1.082916     -1.067668     -1.984157
  H       1.347885      0.705030      1.020773
  H       0.608583     -1.739797      2.480522
  H       0.549611     -0.056017      3.064936
  H      -0.470484      0.503287      0.247902
  H      -2.932350     -0.427653     -0.468539
  H      -3.148424      1.064008      0.459833
24
Coordinates from ORCA-job geo_opt E -43.534125735940
  N       1.871816      0.861248     -1.459840
  C       1.991699     -0.593057     -1.291226
  C       1.495256     -1.161351      0.036627
  O       1.367038     -2.370358      0.154094
  N       1.242520     -0.296133      1.035570
  C       0.361986     -0.679711      2.118847
  C      -1.148089     -0.592698      1.768783
  O      -1.989310     -1.133324      2.479732
  N      -1.419737      0.165100      0.715483
  C      -2.651796      0.450552      0.042918
  C      -2.227944      1.332074     -1.189442
  O      -1.000542      1.551592     -1.278689
  O      -3.119171      1.788209     -1.904128
  H       2.443367      1.387127     -0.790742
  H       0.870473      1.132711     -1.403140
  H       2.181491      1.105936     -2.408849
  H       3.017225     -0.937254     -1.434541
  H       1.367995     -1.089391     -2.038890
  H       1.453231      0.686922      0.972911
  H       0.553712     -1.720443      2.389575
  H       0.525880     -0.043730      2.986077
  H      -0.673260      0.607888      0.157714
  H      -3.156896     -0.448954     -0.317835
  H      -3.356943      1.014271      0.658992
24
Coordinates from ORCA-job geo_opt E -43.535036220940
  N       2.004956      0.939239     -1.414916
  C       1.949199     -0.536028     -1.320296
  C       1.367200     -1.123855     -0.034669
  O       1.116716     -2.318920      0.012938
  N       1.184667     -0.297160      1.010967
  C       0.354407     -0.685848      2.128579
  C      -1.150941     -0.547759      1.836929
  O      -1.989876     -1.052859      2.577891
  N      -1.414503      0.147993      0.743213
  C      -2.652850      0.442191      0.088195
  C      -2.254902      1.159211     -1.253479
  O      -1.022779      1.270216     -1.459310
  O      -3.161683      1.592600     -1.969317
  H       2.621030      1.351032     -0.707812
  H       1.048595      1.342192     -1.347692
  H       2.366102      1.201009     -2.340116
  H       2.938480     -0.975904     -1.460246
  H       1.309605     -0.924148     -2.115322
  H       1.447856      0.673678      0.973865
  H       0.538992     -1.730604      2.384653
  H       0.577511     -0.067339      2.996657
  H      -0.659838      0.515714      0.149046
  H      -3.221785     -0.458197     -0.155485
  H      -3.296159      1.100769      0.675727
24
Coordinates from ORCA-job geo_opt E -43.536287353100
  N       1.907763      0.884159     -1.498984
  C       2.010431     -0.575380     -1.297291
  C       1.399152     -1.142793     -0.015859
  O       1.241798     -2.351116      0.081416
  N       1.127667     -0.284206      0.986347
  C       0.341944     -0.695318      2.123103
  C      -1.163905     -0.607682      1.829160
  O      -1.993590     -1.166768      2.542730
  N      -1.421984      0.157093      0.778637
  C      -2.638507      0.469401      0.092442
  C      -2.196624      1.297195     -1.171095
  O      -0.956672      1.446349     -1.305691
  O      -3.077044      1.724324     -1.928299
  H       2.412878      1.415239     -0.782252
  H       0.911605      1.176603     -1.534595
  H       2.310481      1.124591     -2.414289
  H       3.051993     -0.901997     -1.336725
  H       1.481491     -1.089804     -2.103674
  H       1.289354      0.708373      0.901607
  H       0.563508     -1.735056      2.375723
  H       0.556449     -0.066527      2.988653
  H      -0.660600      0.584880      0.235354
  H      -3.173174     -0.424270     -0.243444
  H      -3.324416      1.069932      0.697026
24
Coordinates from ORCA-job geo_opt E -43.536929471880
  N       1.852378      0.866218     -1.490342
  C       2.029538     -0.585855     -1.284993
  C       1.456755     -1.162304      0.004462
  O       1.272950     -2.367684      0.089605
  N       1.167319     -0.306655      1.000206
  C       0.346409     -0.710360      2.117578
  C      -1.157532     -0.587760      1.815838
  O      -2.000754     -1.143519      2.515145
  N      -1.414876      0.184524      0.768708
  C      -2.633259      0.491005      0.079598
  C      -2.204824      1.315389     -1.184545
  O      -0.971061      1.505007     -1.315803
  O      -3.089186      1.730300     -1.936471
  H       2.345737      1.420000     -0.783144
  H       0.840735      1.111015     -1.495760
  H       2.223590      1.125937     -2.412200
  H       3.086144     -0.858692     -1.330163
  H       1.524208     -1.126701     -2.087649
  H       1.337841      0.682809      0.909961
  H       0.552688     -1.752155      2.370672
  H       0.569178     -0.095516      2.990181
  H      -0.648644      0.604318      0.230235
  H      -3.160697     -0.407099     -0.254000
  H      -3.324635      1.084999      0.682882
24
Coordinates from ORCA-job geo_opt E -43.537294397850
  N       1.862357      0.876879     -1.473859
  C       2.063851     -0.568741     -1.280620
  C       1.465515     -1.173625     -0.014124
  O       1.282339     -2.380411      0.045667
  N       1.187899     -0.328466      0.993256
  C       0.348037     -0.725438      2.099540
  C      -1.165561     -0.562293      1.820568
  O      -2.006381     -1.105775      2.529754
  N      -1.431049      0.215747      0.774393
  C      -2.660565      0.531217      0.107121
  C      -2.236463      1.269022     -1.207576
  O      -0.997999      1.361929     -1.374403
  O      -3.123088      1.674393     -1.962437
  H       2.342387      1.435380     -0.759881
  H       0.847942      1.109753     -1.480828
  H       2.234957      1.148495     -2.392490
  H       3.128132     -0.815302     -1.296708
  H       1.589905     -1.114827     -2.099911
  H       1.372936      0.661595      0.920994
  H       0.514157     -1.783228      2.319781
  H       0.594828     -0.143584      2.988386
  H      -0.672722      0.609922      0.209004
  H      -3.233063     -0.362700     -0.162680
  H      -3.308351      1.187279      0.697054
24
Coordinates from ORCA-job geo_opt E -43.537959153220
  N       1.842473      0.878651     -1.486662
  C       2.081933     -0.562003     -1.274768
  C       1.436806     -1.177413     -0.037224
  O       1.237507     -2.382433      0.004974
  N       1.166408     -0.344029      0.980422
  C       0.341403     -0.743054      2.096596
  C      -1.167442     -0.540371      1.845164
  O      -2.013454     -1.080157      2.550221
  N      -1.423596      0.242597      0.803475
  C      -2.646910      0.550822      0.122482
  C      -2.227567      1.248304     -1.214754
  O      -0.989938      1.358099     -1.388847
  O      -3.116742      1.620099     -1.981712
  H       2.279036      1.453848     -0.759455
  H       0.820617      1.089582     -1.525826
  H       2.239860      1.159490     -2.390702
  H       3.154816     -0.765696     -1.229058
  H       1.681807     -1.128326     -2.117901
  H       1.358749      0.643732      0.908683
  H       0.492230     -1.806598      2.295762
  H       0.622109     -0.184985      2.990798
  H      -0.654609      0.610445      0.234414
  H      -3.223774     -0.346833     -0.121076
  H      -3.291718      1.223451      0.694995
24
Coordinates from ORCA-job geo_opt E -43.538481355220
  N       1.810870      0.876176     -1.508597
  C       2.104012     -0.552141     -1.264520
  C       1.431683     -1.180036     -0.044676
  O       1.196472     -2.378915     -0.029246
  N       1.151155     -0.356359      0.980012
  C       0.332008     -0.764721      2.095013
  C      -1.171031     -0.547070      1.848457
  O      -2.022733     -1.078553      2.553030
  N      -1.413839      0.272161      0.833240
  C      -2.628972      0.579605      0.139392
  C      -2.207087      1.232116     -1.220090
  O      -0.968632      1.337301     -1.401324
  O      -3.096671      1.573799     -2.002347
  H       2.220673      1.482908     -0.792555
  H       0.781905      1.059076     -1.552285
  H       2.202523      1.154800     -2.415368
  H       3.182896     -0.698390     -1.164125
  H       1.775754     -1.147948     -2.117535
  H       1.336712      0.632411      0.910171
  H       0.472414     -1.834331      2.267893
  H       0.626586     -0.229472      2.998989
  H      -0.634414      0.625206      0.268154
  H      -3.218422     -0.316945     -0.074575
  H      -3.263863      1.276545      0.692893
24
Coordinates from ORCA-job geo_opt E -43.538963245950
  N       1.787548      0.877619     -1.519970
  C       2.127150     -0.535896     -1.252548
  C       1.412343     -1.179031     -0.064788
  O       1.147123     -2.371183     -0.080120
  N       1.156051     -0.375379      0.981798
  C       0.327106     -0.789652      2.087254
  C      -1.170745     -0.526243      1.857141
  O      -2.029266     -1.053648      2.556736
  N      -1.405944      0.319466      0.860212
  C      -2.620897      0.610848      0.158237
  C      -2.204551      1.193281     -1.234429
  O      -0.967576      1.298592     -1.424572
  O      -3.098653      1.493468     -2.028562
  H       2.165685      1.511105     -0.809429
  H       0.753474      1.029324     -1.578200
  H       2.180556      1.155909     -2.425953
  H       3.203682     -0.633884     -1.088899
  H       1.872474     -1.149752     -2.117045
  H       1.377142      0.608023      0.936674
  H       0.433646     -1.869559      2.219902
  H       0.643213     -0.296133      3.006734
  H      -0.623636      0.643482      0.282681
  H      -3.224652     -0.286684     -0.004766
  H      -3.241274      1.343152      0.681913
24
Coordinates from ORCA-job geo_opt E -43.539607823410
  N       1.779719      0.885432     -1.536236
  C       2.168474     -0.506330     -1.230846
  C       1.391536     -1.164856     -0.090666
  O       1.063908     -2.339042     -0.159715
  N       1.169431     -0.395308      0.989334
  C       0.317476     -0.827034      2.070692
  C      -1.171108     -0.510057      1.851974
  O      -2.038941     -1.028909      2.546863
  N      -1.395396      0.377750      0.886401
  C      -2.619333      0.660916      0.193752
  C      -2.224244      1.116112     -1.251638
  O      -0.991536      1.193763     -1.473249
  O      -3.131448      1.375156     -2.045126
  H       2.119806      1.555301     -0.839969
  H       0.742671      0.997375     -1.615767
  H       2.174449      1.153014     -2.444730
  H       3.231569     -0.551324     -0.981188
  H       2.003925     -1.138512     -2.103488
  H       1.454814      0.572659      0.994492
  H       0.382359     -1.916470      2.149002
  H       0.644969     -0.388962      3.012636
  H      -0.617237      0.656072      0.281184
  H      -3.263201     -0.220230      0.125269
  H      -3.192661      1.460707      0.671019
24
Coordinates from ORCA-job geo_opt E -43.539985935220
  N       1.762932      0.900618     -1.549751
  C       2.178444     -0.477269     -1.219369
  C       1.355192     -1.141989     -0.113925
  O       0.942993     -2.284204     -0.240634
  N       1.178281     -0.408978      1.000446
  C       0.309503     -0.856860      2.061490
  C      -1.169096     -0.492987      1.852576
  O      -2.048477     -1.019810      2.526695
  N      -1.377525      0.440445      0.923403
  C      -2.601019      0.694701      0.215406
  C      -2.204710      1.032753     -1.261534
  O      -0.972523      1.107316     -1.480632
  O      -3.111233      1.215720     -2.078310
  H       2.091964      1.594961     -0.872200
  H       0.725848      0.989208     -1.625586
  H       2.144211      1.154180     -2.468768
  H       3.226812     -0.492743     -0.912709
  H       2.065426     -1.118061     -2.094156
  H       1.536557      0.532075      1.061611
  H       0.338003     -1.950634      2.092162
  H       0.643044     -0.467613      3.022256
  H      -0.599788      0.694649      0.308334
  H      -3.264728     -0.173732      0.223298
  H      -3.150110      1.545476      0.629897
24
Coordinates from ORCA-job geo_opt E -43.540132272130
  N       1.777524      0.903511     -1.567942
  C       2.224176     -0.453704     -1.194908
  C       1.344273     -1.124392     -0.138501
  O       0.882037     -2.240861     -0.314550
  N       1.180224     -0.421554      0.995599
  C       0.298988     -0.884555      2.040166
  C      -1.172320     -0.492240      1.837666
  O      -2.059349     -1.014820      2.505012
  N      -1.371034      0.470641      0.933145
  C      -2.606453      0.741677      0.249299
  C      -2.247812      0.971115     -1.256446
  O      -1.021413      1.007107     -1.512021
  O      -3.172142      1.121479     -2.059361
  H       2.053934      1.620392     -0.890513
  H       0.741764      0.948948     -1.683662
  H       2.183174      1.154560     -2.477250
  H       3.248534     -0.428166     -0.817901
  H       2.186786     -1.107105     -2.066757
  H       1.591530      0.493391      1.099536
  H       0.312294     -1.978669      2.049788
  H       0.633006     -0.520510      3.011159
  H      -0.601847      0.696935      0.295796
  H      -3.309289     -0.090141      0.335879
  H      -3.096581      1.644185      0.626770
24
Coordinates from ORCA-job geo_opt E -43.540341772790
  N       1.752455      0.895795     -1.581965
  C       2.222695     -0.450425     -1.192580
  C       1.341977     -1.121300     -0.135634
  O       0.864585     -2.230321     -0.318936
  N       1.182061     -0.422706      1.001936
  C       0.299402     -0.889945      2.043567
  C      -1.172165     -0.506353      1.828927
  O      -2.064523     -1.046834      2.474332
  N      -1.367211      0.475190      0.942190
  C      -2.597134      0.749771      0.248718
  C      -2.226410      0.976056     -1.253969
  O      -0.997226      1.019850     -1.496466
  O      -3.142417      1.112714     -2.068266
  H       2.010581      1.621579     -0.906943
  H       0.715379      0.914072     -1.699010
  H       2.155189      1.149400     -2.491564
  H       3.243714     -0.402942     -0.809886
  H       2.199893     -1.112263     -2.058623
  H       1.611527      0.481963      1.120050
  H       0.323091     -1.983321      2.062964
  H       0.623184     -0.516106      3.014854
  H      -0.591128      0.726715      0.321787
  H      -3.303306     -0.079101      0.332927
  H      -3.084213      1.655734      0.621590
24
Coordinates from ORCA-job geo_opt E -43.540490634270
  N       1.747968      0.908662     -1.590629
  C       2.208185     -0.442070     -1.196105
  C       1.312729     -1.105414     -0.142453
  O       0.782442     -2.185256     -0.350796
  N       1.183281     -0.427288      1.012121
  C       0.298305     -0.894283      2.052134
  C      -1.171119     -0.512444      1.826620
  O      -2.071647     -1.064786      2.449723
  N      -1.356018      0.482809      0.954213
  C      -2.579550      0.753915      0.247972
  C      -2.208072      0.945292     -1.259742
  O      -0.978141      1.000572     -1.499383
  O      -3.123230      1.037519     -2.081748
  H       2.006496      1.628744     -0.910069
  H       0.710184      0.929029     -1.703108
  H       2.152810      1.164629     -2.497972
  H       3.227419     -0.397699     -0.809416
  H       2.184830     -1.103326     -2.062499
  H       1.655060      0.451841      1.157977
  H       0.326009     -1.987054      2.082538
  H       0.614595     -0.511151      3.022547
  H      -0.574311      0.739150      0.344509
  H      -3.291987     -0.067053      0.351642
  H      -3.056239      1.672885      0.601924
24
Coordinates from ORCA-job geo_opt E -43.540584991330
  N       1.745803      0.907533     -1.603851
  C       2.212902     -0.435254     -1.188948
  C       1.295197     -1.095077     -0.151924
  O       0.732961     -2.154002     -0.381470
  N       1.185557     -0.433952      1.013175
  C       0.298568     -0.897562      2.053447
  C      -1.170997     -0.522646      1.818471
  O      -2.075510     -1.087139      2.424446
  N      -1.351657      0.484399      0.958997
  C      -2.573976      0.764428      0.253752
  C      -2.211888      0.931626     -1.258715
  O      -0.983157      0.990949     -1.504301
  O      -3.131745      1.002126     -2.077726
  H       1.974942      1.630170     -0.915721
  H       0.709710      0.910931     -1.736630
  H       2.169526      1.168750     -2.500434
  H       3.223201     -0.374858     -0.781591
  H       2.215250     -1.103027     -2.050575
  H       1.692609      0.421797      1.178960
  H       0.331553     -1.989746      2.097850
  H       0.608357     -0.501671      3.020683
  H      -0.567394      0.749559      0.357810
  H      -3.296644     -0.045235      0.374023
  H      -3.033169      1.695125      0.600274
24
Coordinates from ORCA-job geo_opt E -43.540656648760
  N       1.749209      0.911329     -1.607341
  C       2.199199     -0.437300     -1.193072
  C       1.274110     -1.085688     -0.154493
  O       0.682834     -2.126894     -0.391207
  N       1.192754     -0.436615      1.019977
  C       0.305227     -0.888354      2.065894
  C      -1.167494     -0.535603      1.813332
  O      -2.071485     -1.114088      2.406850
  N      -1.349876      0.470711      0.954066
  C      -2.570445      0.755240      0.247793
  C      -2.208789      0.931309     -1.264018
  O      -0.981079      1.009671     -1.507736
  O      -3.129903      0.992856     -2.082610
  H       1.969849      1.623895     -0.905793
  H       0.714731      0.923297     -1.752349
  H       2.190924      1.178272     -2.493101
  H       3.212654     -0.389146     -0.791817
  H       2.189778     -1.104659     -2.055116
  H       1.728226      0.399604      1.196649
  H       0.349146     -1.978986      2.138275
  H       0.603978     -0.463894      3.023830
  H      -0.561833      0.754380      0.368163
  H      -3.292529     -0.055796      0.362720
  H      -3.029185      1.683681      0.601105
24
Coordinates from ORCA-job geo_opt E -43.540714649020
  N       1.750412      0.915285     -1.610894
  C       2.183788     -0.436802     -1.194313
  C       1.242756     -1.070320     -0.162391
  O       0.608910     -2.082989     -0.412558
  N       1.201024     -0.441634      1.024136
  C       0.312319     -0.880465      2.075348
  C      -1.162199     -0.542946      1.809758
  O      -2.064803     -1.136950      2.389868
  N      -1.347780      0.468591      0.957787
  C      -2.565535      0.745201      0.243637
  C      -2.197853      0.920466     -1.266916
  O      -0.971366      1.020853     -1.505116
  O      -3.116921      0.965630     -2.089214
  H       1.959015      1.621875     -0.899351
  H       0.718406      0.936556     -1.772547
  H       2.212819      1.183858     -2.485347
  H       3.196421     -0.399202     -0.789675
  H       2.170081     -1.104906     -2.055897
  H       1.776456      0.365157      1.211999
  H       0.359555     -1.969652      2.169392
  H       0.604954     -0.433986      3.024521
  H      -0.556162      0.771417      0.388380
  H      -3.283477     -0.069672      0.355971
  H      -3.030818      1.671857      0.593422
24
Coordinates from ORCA-job geo_opt E -43.540776417270
  N       1.755776      0.918458     -1.611016
  C       2.161627     -0.443323     -1.202227
  C       1.217080     -1.057940     -0.162134
  O       0.547160     -2.047184     -0.412916
  N       1.210290     -0.440581      1.031517
  C       0.322236     -0.865300      2.089829
  C      -1.155596     -0.554872      1.805669
  O      -2.052876     -1.169844      2.371974
  N      -1.350259      0.457508      0.957050
  C      -2.565056      0.724340      0.234631
  C      -2.184053      0.926243     -1.269686
  O      -0.958229      1.053103     -1.494571
  O      -3.096412      0.968177     -2.099992
  H       1.966698      1.615965     -0.890810
  H       0.725793      0.960179     -1.781577
  H       2.233776      1.184693     -2.477848
  H       3.180125     -0.431039     -0.811104
  H       2.121062     -1.108650     -2.065502
  H       1.814496      0.344024      1.222558
  H       0.379215     -1.951166      2.213847
  H       0.603892     -0.387638      3.026577
  H      -0.556392      0.787967      0.407455
  H      -3.270290     -0.103872      0.326262
  H      -3.050063      1.637975      0.592015
24
Coordinates from ORCA-job geo_opt E -43.540853039510
  N       1.778138      0.920311     -1.612128
  C       2.102757     -0.465028     -1.220888
  C       1.144579     -1.020141     -0.160987
  O       0.374020     -1.934645     -0.408849
  N       1.233185     -0.435892      1.045827
  C       0.348874     -0.818177      2.124925
  C      -1.134724     -0.586642      1.792383
  O      -2.011171     -1.265272      2.317041
  N      -1.360703      0.431542      0.959735
  C      -2.566153      0.659742      0.210505
  C      -2.151343      0.953928     -1.270144
  O      -0.931192      1.161294     -1.453164
  O      -3.042316      0.986131     -2.124736
  H       1.999758      1.596157     -0.874168
  H       0.755580      1.021370     -1.803285
  H       2.295881      1.171370     -2.460721
  H       3.131166     -0.524725     -0.861417
  H       1.991287     -1.120271     -2.086527
  H       1.918904      0.278025      1.238013
  H       0.432757     -1.889297      2.334297
  H       0.599793     -0.254690      3.020932
  H      -0.568380      0.842301      0.467186
  H      -3.220216     -0.213525      0.235169
  H      -3.120480      1.523358      0.591001
24
Coordinates from ORCA-job geo_opt E -43.540975860220
  N       1.764503      0.914968     -1.614285
  C       2.106273     -0.465763     -1.220093
  C       1.153235     -1.026337     -0.158561
  O       0.393716     -1.951332     -0.402519
  N       1.229702     -0.431907      1.044541
  C       0.346108     -0.822033      2.121197
  C      -1.136399     -0.583983      1.791250
  O      -2.013942     -1.268726      2.306163
  N      -1.362760      0.444545      0.970149
  C      -2.564184      0.665393      0.212020
  C      -2.139043      0.957998     -1.265420
  O      -0.916100      1.156998     -1.440924
  O      -3.023233      0.994783     -2.126611
  H       1.992342      1.598875     -0.885958
  H       0.738472      1.005859     -1.792011
  H       2.266048      1.164418     -2.473234
  H       3.134017     -0.512012     -0.857020
  H       2.003624     -1.124694     -2.083860
  H       1.909284      0.288576      1.233708
  H       0.429448     -1.894797      2.321351
  H       0.598868     -0.266991      3.022471
  H      -0.569458      0.856786      0.478516
  H      -3.214587     -0.210684      0.233751
  H      -3.125937      1.527282      0.585379
24
Coordinates from ORCA-job geo_opt E -43.541221092890
  N       1.764947      0.897372     -1.621108
  C       2.097315     -0.486592     -1.226375
  C       1.146612     -1.030138     -0.152956
  O       0.375230     -1.948988     -0.383789
  N       1.229693     -0.419168      1.041445
  C       0.351283     -0.796263      2.127348
  C      -1.131220     -0.604075      1.772848
  O      -1.993671     -1.338177      2.242976
  N      -1.379396      0.447242      0.987025
  C      -2.570619      0.644981      0.207467
  C      -2.124767      1.001543     -1.248681
  O      -0.901328      1.224854     -1.393080
  O      -2.990687      1.050666     -2.126968
  H       2.010438      1.583314     -0.901065
  H       0.736049      0.998666     -1.781376
  H       2.254611      1.138103     -2.489455
  H       3.126590     -0.540675     -0.868947
  H       1.981748     -1.147191     -2.086951
  H       1.928806      0.284846      1.221206
  H       0.459127     -1.858339      2.367352
  H       0.583099     -0.201823      3.009648
  H      -0.591857      0.905720      0.526315
  H      -3.183657     -0.257892      0.183869
  H      -3.178348      1.469238      0.593253
24
Coordinates from ORCA-job geo_opt E -43.541524661440
  N       1.782665      0.880575     -1.628759
  C       2.067285     -0.518933     -1.241005
  C       1.106298     -1.014105     -0.150344
  O       0.279214     -1.885994     -0.369666
  N       1.229541     -0.397533      1.037122
  C       0.358938     -0.747992      2.139060
  C      -1.117213     -0.636006      1.738864
  O      -1.946810     -1.456994      2.113801
  N      -1.407763      0.459216      1.028053
  C      -2.573401      0.604650      0.199259
  C      -2.098051      1.041470     -1.223145
  O      -0.879427      1.321855     -1.311571
  O      -2.929169      1.076238     -2.134644
  H       2.090316      1.555795     -0.923518
  H       0.750431      1.025797     -1.735044
  H       2.238332      1.101195     -2.520120
  H       3.096741     -0.611105     -0.892630
  H       1.913662     -1.172750     -2.099545
  H       1.988575      0.243246      1.211516
  H       0.508230     -1.785941      2.450954
  H       0.549518     -0.085886      2.982629
  H      -0.635248      0.992807      0.624117
  H      -3.116313     -0.339836      0.119904
  H      -3.256350      1.367454      0.584709
24
Coordinates from ORCA-job geo_opt E -43.541552122600
  N       1.776684      0.896097     -1.625723
  C       2.053317     -0.509483     -1.245617
  C       1.079984     -0.998182     -0.161420
  O       0.230331     -1.844208     -0.393607
  N       1.219710     -0.398747      1.032810
  C       0.353326     -0.752755      2.137306
  C      -1.120652     -0.630201      1.739849
  O      -1.956035     -1.456353      2.088018
  N      -1.406360      0.486808      1.057581
  C      -2.557991      0.611393      0.203550
  C      -2.066975      0.993360     -1.228028
  O      -0.846730      1.273833     -1.309080
  O      -2.884407      0.986925     -2.152234
  H       2.122312      1.563252     -0.930335
  H       0.741972      1.051178     -1.691308
  H       2.197688      1.115636     -2.533696
  H       3.078995     -0.607553     -0.888682
  H       1.900765     -1.156912     -2.108237
  H       2.003548      0.209401      1.215888
  H       0.505473     -1.791560      2.445485
  H       0.547652     -0.094660      2.983396
  H      -0.628569      1.011350      0.652406
  H      -3.104905     -0.333357      0.156868
  H      -3.239132      1.391962      0.554810
24
Coordinates from ORCA-job geo_opt E -43.541727206980
  N       1.799855      0.896700     -1.626763
  C       2.028694     -0.517652     -1.254252
  C       1.048523     -0.974426     -0.164004
  O       0.163696     -1.784727     -0.394321
  N       1.226547     -0.394383      1.034989
  C       0.362160     -0.730456      2.148336
  C      -1.111862     -0.644166      1.737477
  O      -1.928124     -1.496099      2.066966
  N      -1.418533      0.471596      1.060828
  C      -2.562392      0.581908      0.194155
  C      -2.060538      0.998945     -1.223949
  O      -0.849258      1.318275     -1.283745
  O      -2.866754      0.990562     -2.158003
  H       2.159764      1.547654     -0.922497
  H       0.770246      1.082658     -1.700621
  H       2.235907      1.107332     -2.529704
  H       3.054166     -0.656902     -0.911117
  H       1.841789     -1.155679     -2.117683
  H       2.039814      0.173324      1.220034
  H       0.528889     -1.755929      2.492884
  H       0.541071     -0.038551      2.969985
  H      -0.652110      1.033474      0.687714
  H      -3.083855     -0.375363      0.123921
  H      -3.267695      1.339125      0.549371
24
Coordinates from ORCA-job geo_opt E -43.541764143360
  N       1.797904      0.898082     -1.630036
  C       2.041795     -0.510312     -1.249792
  C       1.056830     -0.979533     -0.171109
  O       0.189037     -1.805599     -0.409775
  N       1.220552     -0.399909      1.029336
  C       0.358369     -0.740699      2.143401
  C      -1.119181     -0.643075      1.744849
  O      -1.942530     -1.480510      2.092248
  N      -1.417143      0.469700      1.058836
  C      -2.566003      0.594853      0.200207
  C      -2.066435      0.990340     -1.225286
  O      -0.854167      1.302737     -1.295770
  O      -2.879499      0.981976     -2.153860
  H       2.138844      1.554359     -0.921252
  H       0.766750      1.068312     -1.723423
  H       2.245420      1.112542     -2.526425
  H       3.066087     -0.634919     -0.896609
  H       1.874668     -1.154904     -2.112918
  H       2.023884      0.180237      1.219067
  H       0.524703     -1.769714      2.477942
  H       0.546312     -0.056331      2.969438
  H      -0.647085      1.022602      0.682393
  H      -3.106633     -0.352276      0.142688
  H      -3.252477      1.369261      0.555849
24
Coordinates from ORCA-job geo_opt E -43.541793590920
  N       1.803630      0.902001     -1.629702
  C       2.031327     -0.510485     -1.254637
  C       1.042953     -0.969757     -0.174689
  O       0.160786     -1.779830     -0.415794
  N       1.218910     -0.398381      1.027716
  C       0.358426     -0.733937      2.145215
  C      -1.117844     -0.648127      1.740824
  O      -1.934707     -1.498434      2.070562
  N      -1.424083      0.473480      1.071402
  C      -2.565065      0.589875      0.200174
  C      -2.054493      0.978815     -1.222827
  O      -0.845106      1.304056     -1.283626
  O      -2.857684      0.954217     -2.160117
  H       2.162159      1.550892     -0.922907
  H       0.773277      1.083739     -1.712321
  H       2.243165      1.112960     -2.530950
  H       3.054937     -0.649740     -0.904929
  H       1.853025     -1.150564     -2.119010
  H       2.038083      0.157898      1.221819
  H       0.532834     -1.757351      2.492333
  H       0.540332     -0.037075      2.962458
  H      -0.656919      1.039379      0.709115
  H      -3.100621     -0.360121      0.144176
  H      -3.257321      1.363714      0.545713
24
Coordinates from ORCA-job geo_opt E -43.541805299570
  N       1.804121      0.904232     -1.630287
  C       2.028674     -0.508931     -1.256562
  C       1.038769     -0.966303     -0.176894
  O       0.150011     -1.768528     -0.420617
  N       1.218179     -0.398786      1.026679
  C       0.357574     -0.732206      2.145088
  C      -1.117564     -0.651079      1.736754
  O      -1.930544     -1.509777      2.053719
  N      -1.428537      0.476814      1.079512
  C      -2.565470      0.592347      0.202528
  C      -2.047748      0.968953     -1.220876
  O      -0.839755      1.298896     -1.277980
  O      -2.844908      0.930690     -2.163111
  H       2.167793      1.551680     -0.925131
  H       0.773927      1.087538     -1.709634
  H       2.240203      1.113878     -2.533643
  H       3.052116     -0.651429     -0.907469
  H       1.848160     -1.148398     -2.121044
  H       2.045552      0.143914      1.224816
  H       0.535044     -1.753215      2.497193
  H       0.536493     -0.029930      2.958452
  H      -0.662465      1.050287      0.727198
  H      -3.104800     -0.355601      0.151337
  H      -3.254824      1.372175      0.539971
24
Coordinates from ORCA-job geo_opt E -43.541810597160
  N       1.804445      0.905822     -1.626933
  C       2.028551     -0.508678     -1.258315
  C       1.041840     -0.970337     -0.177282
  O       0.157775     -1.777967     -0.420260
  N       1.216884     -0.399522      1.025409
  C       0.356636     -0.731768      2.144624
  C      -1.118120     -0.651661      1.735359
  O      -1.930469     -1.511769      2.050439
  N      -1.429340      0.477259      1.080198
  C      -2.566064      0.595878      0.203328
  C      -2.048342      0.965703     -1.221989
  O      -0.841231      1.297835     -1.281016
  O      -2.844947      0.919173     -2.164485
  H       2.171842      1.551008     -0.921741
  H       0.774368      1.090503     -1.703527
  H       2.237921      1.116964     -2.531275
  H       3.052987     -0.653518     -0.912914
  H       1.845366     -1.145700     -2.124029
  H       2.042498      0.145767      1.224369
  H       0.535098     -1.752368      2.497241
  H       0.535653     -0.028225      2.956854
  H      -0.662523      1.051574      0.731525
  H      -3.110289     -0.349357      0.155414
  H      -3.250535      1.380609      0.539006
24
Coordinates from ORCA-job geo_opt E -43.541813682680
  N       1.802990      0.905614     -1.627524
  C       2.029268     -0.508059     -1.258035
  C       1.041112     -0.969810     -0.178400
  O       0.154890     -1.774763     -0.422431
  N       1.217315     -0.400203      1.024624
  C       0.356791     -0.731694      2.144138
  C      -1.117589     -0.653299      1.733053
  O      -1.927698     -1.517578      2.042882
  N      -1.430988      0.477622      1.082617
  C      -2.566590      0.598697      0.204991
  C      -2.046482      0.962012     -1.221280
  O      -0.840252      1.296811     -1.279285
  O      -2.841000      0.908704     -2.165158
  H       2.165799      1.552765     -0.921723
  H       0.772849      1.088164     -1.708252
  H       2.239696      1.116664     -2.530347
  H       3.053418     -0.651145     -0.911161
  H       1.848146     -1.146146     -2.123397
  H       2.045352      0.141181      1.223928
  H       0.534662     -1.752046      2.497822
  H       0.535231     -0.026935      2.955207
  H      -0.664558      1.056094      0.740552
  H      -3.115515     -0.343773      0.159520
  H      -3.246846      1.388344      0.537660
24
Coordinates from ORCA-job geo_opt E -43.541815225540
  N       1.802571      0.905666     -1.626025
  C       2.029152     -0.508483     -1.258223
  C       1.042474     -0.971642     -0.177764
  O       0.159305     -1.780295     -0.420242
  N       1.217105     -0.399861      1.024581
  C       0.357028     -0.732131      2.144154
  C      -1.117646     -0.652968      1.733804
  O      -1.928547     -1.515626      2.046271
  N      -1.429667      0.476471      1.080391
  C      -2.566123      0.599002      0.204324
  C      -2.047510      0.962832     -1.222638
  O      -0.841205      1.297586     -1.281450
  O      -2.843097      0.910178     -2.165540
  H       2.164683      1.552356     -0.919368
  H       0.772411      1.088413     -1.706961
  H       2.239923      1.117825     -2.528247
  H       3.053627     -0.652028     -0.912599
  H       1.846993     -1.145396     -2.124185
  H       2.041954      0.146946      1.222139
  H       0.534183     -1.753131      2.496420
  H       0.536255     -0.028791      2.956202
  H      -0.662625      1.053709      0.737701
  H      -3.116224     -0.342774      0.159040
  H      -3.245023      1.389365      0.538216
24
Coordinates from ORCA-job geo_opt E -43.541815962380
  N       1.802762      0.905601     -1.624775
  C       2.028549     -0.509157     -1.258589
  C       1.042481     -0.972529     -0.177651
  O       0.160836     -1.783134     -0.418900
  N       1.216879     -0.399354      1.024111
  C       0.357335     -0.731813      2.143948
  C      -1.117495     -0.653318      1.733605
  O      -1.928438     -1.515711      2.046574
  N      -1.429263      0.475879      1.079683
  C      -2.565855      0.598962      0.204030
  C      -2.047670      0.962896     -1.223298
  O      -0.841506      1.298648     -1.281913
  O      -2.843297      0.909705     -2.166054
  H       2.164861      1.551388     -0.917250
  H       0.772556      1.089015     -1.705342
  H       2.240477      1.118757     -2.526558
  H       3.053083     -0.653817     -0.913657
  H       1.845223     -1.144723     -2.125264
  H       2.039993      0.150659      1.219869
  H       0.534641     -1.752786      2.496277
  H       0.536511     -0.028604      2.956134
  H      -0.662086      1.053213      0.737622
  H      -3.116552     -0.342463      0.159159
  H      -3.244024      1.389911      0.538239
24
Coordinates from ORCA-job geo_opt E -43.541816172310
  N       1.802936      0.905895     -1.624392
  C       2.028058     -0.509126     -1.258886
  C       1.042239     -0.972620     -0.177766
  O       0.160964     -1.783722     -0.418668
  N       1.216722     -0.399246      1.023907
  C       0.357389     -0.731873      2.143786
  C      -1.117579     -0.653410      1.733667
  O      -1.928559     -1.515746      2.046537
  N      -1.429270      0.475928      1.079861
  C      -2.565787      0.599128      0.204115
  C      -2.047145      0.961945     -1.223386
  O      -0.840984      1.297779     -1.281752
  O      -2.842444      0.908134     -2.166380
  H       2.164948      1.551174     -0.916372
  H       0.772770      1.089505     -1.705092
  H       2.240978      1.119465     -2.525919
  H       3.052596     -0.654499     -0.914250
  H       1.844132     -1.144063     -2.125904
  H       2.039129      0.152018      1.219040
  H       0.534824     -1.752852      2.496022
  H       0.536579     -0.028806      2.956106
  H      -0.662043      1.053311      0.738004
  H      -3.117097     -0.341948      0.159971
  H      -3.243355      1.390852      0.537751
