24
Coordinates from ORCA-job geo_opt E -43.541816172310
  N           1.80293642257931      0.90589505242803     -1.62439181773295
  C           2.02805795757970     -0.50912626346631     -1.25888608920745
  C           1.04223900894219     -0.97262012286745     -0.17776552066567
  O           0.16096418916485     -1.78372224366175     -0.41866796098559
  N           1.21672164085108     -0.39924575353509      1.02390694542978
  C           0.35738922650231     -0.73187299770969      2.14378607335676
  C          -1.11757939976600     -0.65340991041334      1.73366663858308
  O          -1.92855864408916     -1.51574582163372      2.04653713009141
  N          -1.42927026602020      0.47592821566875      1.07986109952011
  C          -2.56578725975089      0.59912784721134      0.20411473342414
  C          -2.04714542779280      0.96194455500016     -1.22338592801156
  O          -0.84098412510773      1.29777893933027     -1.28175188479316
  O          -2.84244421517293      0.90813438062725     -2.16638026357935
  H           2.16494794228524      1.55117374330091     -0.91637239091580
  H           0.77277029659077      1.08950546624409     -1.70509184893333
  H           2.24097780979430      1.11946454012749     -2.52591913653320
  H           3.05259580980256     -0.65449880081893     -0.91425034342949
  H           1.84413220680787     -1.14406304127346     -2.12590430002888
  H           2.03912850576349      0.15201841815781      1.21904046394749
  H           0.53482434351495     -1.75285233319596      2.49602242652677
  H           0.53657874041442     -0.02880606642553      2.95610566036656
  H          -0.66204252717380      1.05331116690131      0.73800416083853
  H          -3.11709676614905     -0.34194770057431      0.15997139124056
  H          -3.24335546957044      1.39085179057812      0.53775078149125
