24
zwitterion conformer 5
N       3.07874381     0.72484000    -1.03591349
C       2.23499827    -0.39082978    -1.45587149
C       1.29444679    -0.76812837    -0.38332233
O       0.50479635    -1.73613852    -0.64080469
N       1.25359976    -0.09530258     0.88873357
C       0.32386532    -0.46690696     1.93157137
C      -1.08825849    -0.31804728     1.60116276
O      -1.94085201    -0.66402521     2.48737899
N      -1.61838772     0.17759033     0.38697539
C      -3.07496655     0.23603259     0.27229898
C      -3.38856396     0.78911236    -1.08827941
O      -2.46939090     1.10790658    -1.89494627
O      -4.73720141     0.92718801    -1.40204269
H       3.59557122     0.39799485    -0.19130807
H       2.52929813     1.56726108    -0.75904328
H       3.76859999     0.94425782    -1.78423876
H       2.91704524    -1.24523976    -1.63789020
H       1.75494046    -0.17466994    -2.42893447
H       1.95631435     0.68341109     0.98625024
H       0.57901401    -1.47914934     2.32923995
H       0.56221408     0.21952378     2.79819818
H      -0.98045501     0.48797005    -0.37078324
H      -3.54220706    -0.76826594     0.30907650
H      -3.51316467     0.86083820     1.08249248
