20
Coordinates from ORCA-job geo_opt_tzvp E -549.039125832767
  N      -0.857718      1.632242      0.432937
  C      -1.164309      0.215499      0.211101
  C      -0.108763     -0.420986     -0.734323
  C       1.261600     -0.470723     -0.138014
  C       2.220823     -1.465158     -0.081390
  N       3.356613     -1.011321      0.571459
  C       3.083341      0.245919      0.911318
  N       1.839310      0.612649      0.494536
  C      -2.556805     -0.016273     -0.384285
  O      -3.183916      0.806872     -1.033421
  O      -3.016560     -1.263883     -0.127429
  H      -1.471027      2.006254      1.162046
  H      -1.077716      2.159189     -0.418729
  H      -1.127462     -0.306344      1.178835
  H      -0.410618     -1.444134     -0.996168
  H      -0.105382      0.164034     -1.670931
  H       2.153846     -2.475297     -0.477937
  H       3.741567      0.920212      1.452646
  H       1.312513      1.472159      0.679837
  H      -3.889337     -1.360908     -0.570400
20
Coordinates from ORCA-job geo_opt_tzvp E -549.039135568300
  N      -0.859632      1.631812      0.433612
  C      -1.165000      0.215580      0.211404
  C      -0.108850     -0.420202     -0.733611
  C       1.261393     -0.470567     -0.137316
  C       2.220052     -1.465375     -0.080212
  N       3.355926     -1.011744      0.571532
  C       3.083837      0.245598      0.910117
  N       1.840007      0.612414      0.494348
  C      -2.556824     -0.016591     -0.384420
  O      -3.183777      0.805734     -1.033428
  O      -3.015732     -1.263703     -0.129087
  H      -1.471780      2.006458      1.163416
  H      -1.076709      2.160226     -0.417936
  H      -1.128388     -0.306556      1.179210
  H      -0.410843     -1.443190     -0.996318
  H      -0.105459      0.165390     -1.670066
  H       2.152504     -2.475800     -0.475897
  H       3.742887      0.920008      1.450198
  H       1.314220      1.472981      0.678181
  H      -3.887832     -1.362473     -0.572039
20
Coordinates from ORCA-job geo_opt_tzvp E -549.039137465926
  N      -0.861805      1.631279      0.433647
  C      -1.165691      0.215736      0.210798
  C      -0.108506     -0.418966     -0.733605
  C       1.261360     -0.470160     -0.136899
  C       2.219443     -1.465571     -0.079343
  N       3.355331     -1.012342      0.571771
  C       3.084239      0.244996      0.910094
  N       1.840914      0.612401      0.494365
  C      -2.556913     -0.017724     -0.385849
  O      -3.185021      0.804566     -1.033173
  O      -3.015522     -1.263751     -0.129316
  H      -1.472171      2.006717      1.164233
  H      -1.074885      2.161546     -0.417492
  H      -1.129193     -0.306791      1.178521
  H      -0.410475     -1.441613     -0.997876
  H      -0.104785      0.167601     -1.669563
  H       2.151279     -2.476204     -0.474391
  H       3.743828      0.919117      1.449881
  H       1.316618      1.474147      0.676326
  H      -3.888048     -1.364983     -0.570442
20
Coordinates from ORCA-job geo_opt_tzvp E -549.039137013791
  N      -0.862885      1.632592      0.433118
  C      -1.166248      0.217292      0.211707
  C      -0.109357     -0.417821     -0.732747
  C       1.260606     -0.469880     -0.136598
  C       2.218153     -1.465975     -0.079492
  N       3.354414     -1.013624      0.571326
  C       3.084537      0.243955      0.909680
  N       1.841189      0.612104      0.494795
  C      -2.558048     -0.017694     -0.383537
  O      -3.185983      0.802792     -1.033418
  O      -3.012543     -1.265714     -0.131052
  H      -1.471329      2.009409      1.164381
  H      -1.074190      2.163076     -0.418129
  H      -1.128863     -0.304327      1.179891
  H      -0.411893     -1.440226     -0.997372
  H      -0.105691      0.168906     -1.668621
  H       2.149113     -2.476601     -0.474423
  H       3.744755      0.917494      1.449438
  H       1.318234      1.474619      0.676275
  H      -3.883969     -1.370375     -0.573534
20
Coordinates from ORCA-job geo_opt_tzvp E -549.039138722182
  N      -0.862521      1.632400      0.432397
  C      -1.165855      0.216945      0.210800
  C      -0.108783     -0.417979     -0.733643
  C       1.261001     -0.469854     -0.137005
  C       2.218827     -1.465695     -0.080067
  N       3.354735     -1.013451      0.571737
  C       3.084283      0.243984      0.910621
  N       1.840868      0.611993      0.495395
  C      -2.557590     -0.018145     -0.384773
  O      -3.186310      0.803134     -1.033185
  O      -3.013744     -1.265175     -0.128976
  H      -1.471630      2.008858      1.163372
  H      -1.074405      2.162590     -0.418957
  H      -1.128558     -0.304819      1.178882
  H      -0.411038     -1.440396     -0.998447
  H      -0.104885      0.168884     -1.669395
  H       2.150247     -2.476070     -0.475726
  H       3.743984      0.917402      1.451154
  H       1.317505      1.474159      0.677451
  H      -3.886129     -1.368766     -0.569946
20
Coordinates from ORCA-job geo_opt_tzvp E -549.039138819072
  N      -0.862426      1.632252      0.432535
  C      -1.165871      0.216897      0.210777
  C      -0.108802     -0.418022     -0.733707
  C       1.260964     -0.469812     -0.137018
  C       2.218782     -1.465661     -0.080017
  N       3.354801     -1.013376      0.571659
  C       3.084179      0.243990      0.910839
  N       1.840858      0.612106      0.495267
  C      -2.557675     -0.018201     -0.384837
  O      -3.186484      0.803271     -1.033028
  O      -3.013798     -1.265293     -0.128989
  H      -1.471642      2.008789      1.163362
  H      -1.073826      2.162541     -0.418858
  H      -1.128657     -0.304976      1.178796
  H      -0.410982     -1.440439     -0.998568
  H      -0.104938      0.168853     -1.669444
  H       2.150174     -2.476025     -0.475694
  H       3.743813      0.917394      1.451463
  H       1.317821      1.474527      0.676953
  H      -3.886291     -1.368815     -0.569805
