20
Coordinates from ORCA-job geo_opt_tzvp E -549.039138819072
  N          -0.86242647501894      1.63225164359657      0.43253525438448
  C          -1.16587147114950      0.21689736923728      0.21077674701016
  C          -0.10880248508719     -0.41802233969290     -0.73370724476671
  C           1.26096434210100     -0.46981189904936     -0.13701784364120
  C           2.21878191348322     -1.46566122762069     -0.08001691438127
  N           3.35480057374900     -1.01337573925345      0.57165865760621
  C           3.08417894799526      0.24399014159868      0.91083947432571
  N           1.84085806241869      0.61210594215843      0.49526674296971
  C          -2.55767471053074     -0.01820126941509     -0.38483695310030
  O          -3.18648410831047      0.80327088332578     -1.03302787914577
  O          -3.01379819583660     -1.26529322959504     -0.12898925472601
  H          -1.47164172955633      2.00878944788265      1.16336203918222
  H          -1.07382563412620      2.16254061134846     -0.41885773020001
  H          -1.12865737506197     -0.30497590821406      1.17879581067192
  H          -0.41098176182903     -1.44043942594679     -0.99856768535888
  H          -0.10493752861198      0.16885330948588     -1.66944353881165
  H           2.15017402121313     -2.47602475542622     -0.47569364930338
  H           3.74381343907228      0.91739410467799      1.45146339915820
  H           1.31782119409746      1.47452737444466      0.67695343907640
  H          -3.88629102901110     -1.36881502354277     -0.56980485094984
