20
neutral_delta conformer 1
N      -0.85771836     1.63224170     0.43293743
C      -1.16430852     0.21549881     0.21110091
C      -0.10876309    -0.42098599    -0.73432332
C       1.26159983    -0.47072259    -0.13801413
C       2.22082323    -1.46515790    -0.08139036
N       3.35661273    -1.01132149     0.57145939
C       3.08334143     0.24591894     0.91131844
N       1.83930964     0.61264856     0.49453567
C      -2.55680474    -0.01627344    -0.38428473
O      -3.18391582     0.80687183    -1.03342091
O      -3.01656012    -1.26388317    -0.12742887
H      -1.47102737     2.00625363     1.16204564
H      -1.07771598     2.15918859    -0.41872935
H      -1.12746237    -0.30634376     1.17883545
H      -0.41061826    -1.44413448    -0.99616797
H      -0.10538193     0.16403435    -1.67093099
H       2.15384553    -2.47529668    -0.47793739
H       3.74156738     0.92021217     1.45264626
H       1.31251335     1.47215858     0.67983703
H      -3.88933657    -1.36090765    -0.57040018
