17
Coordinates from ORCA-job geo_opt E -30.674700177440
  N       2.866629      0.025967     -0.347887
  C       1.595829     -0.529398     -0.707478
  C       0.482599      0.178035      0.002924
  O       0.772813      1.129590      0.793318
  N      -0.856584     -0.239354     -0.231816
  C      -1.905171      0.457046      0.463121
  C      -3.248881     -0.061145      0.142248
  O      -3.371623     -1.019232     -0.669195
  O      -4.334827      0.543499      0.761823
  H       2.790946      1.064795     -0.126296
  H       3.196005     -0.388323      0.556328
  H       3.579106     -0.030388     -1.100090
  H       1.548475     -1.594310     -0.406998
  H       1.456293     -0.480430     -1.811623
  H      -1.034261     -1.017728     -0.883878
  H      -1.750905      0.425858      1.559013
  H      -1.786442      1.535519      0.187438
17
Coordinates from ORCA-job geo_opt E -30.702931525820
  N       2.857206      0.018563     -0.346519
  C       1.561417     -0.542692     -0.711234
  C       0.462896      0.191983      0.012727
  O       0.747870      1.125403      0.774612
  N      -0.813653     -0.199960     -0.204529
  C      -1.881902      0.484920      0.474292
  C      -3.225693     -0.077017      0.123976
  O      -3.322348     -1.022499     -0.681272
  O      -4.249145      0.468525      0.702257
  H       2.763100      1.035066     -0.132392
  H       3.193593     -0.387648      0.538721
  H       3.561456     -0.049673     -1.091373
  H       1.501852     -1.599706     -0.424101
  H       1.402093     -0.481626     -1.794783
  H      -0.998374     -0.965728     -0.836699
  H      -1.745644      0.446149      1.564723
  H      -1.814724      1.555941      0.212547
17
Coordinates from ORCA-job geo_opt E -30.709098826450
  N       2.863134     -0.004198     -0.351086
  C       1.541378     -0.545279     -0.717415
  C       0.465543      0.234268      0.033120
  O       0.780884      1.163257      0.766680
  N      -0.781295     -0.147971     -0.164969
  C      -1.882898      0.516987      0.489610
  C      -3.229789     -0.109018      0.110291
  O      -3.253198     -1.054382     -0.697990
  O      -4.217807      0.388117      0.643132
  H       2.759908      1.000951     -0.133630
  H       3.205456     -0.427600      0.517269
  H       3.556676     -0.096357     -1.099664
  H       1.462903     -1.598815     -0.448129
  H       1.365947     -0.456617     -1.787993
  H      -0.987485     -0.918733     -0.782521
  H      -1.767795      0.475500      1.577940
  H      -1.881560      1.579891      0.226309
17
Coordinates from ORCA-job geo_opt E -30.711486632520
  N       2.869195     -0.024758     -0.346447
  C       1.537533     -0.538098     -0.728236
  C       0.476744      0.261636      0.035939
  O       0.817859      1.200410      0.746921
  N      -0.775960     -0.121874     -0.147573
  C      -1.888899      0.537768      0.492024
  C      -3.231791     -0.128299      0.103510
  O      -3.193641     -1.092372     -0.686479
  O      -4.244661      0.342302      0.641330
  H       2.767307      0.976464     -0.109447
  H       3.205180     -0.476192      0.510475
  H       3.561587     -0.121974     -1.095397
  H       1.439236     -1.594123     -0.480800
  H       1.364895     -0.418776     -1.795993
  H      -1.001512     -0.900419     -0.751484
  H      -1.783938      0.503786      1.581028
  H      -1.919135      1.594519      0.211584
17
Coordinates from ORCA-job geo_opt E -30.711852352280
  N       2.870657     -0.059762     -0.343316
  C       1.525351     -0.523929     -0.748900
  C       0.495146      0.314687      0.034973
  O       0.884517      1.270311      0.700686
  N      -0.764440     -0.081016     -0.100982
  C      -1.893589      0.560795      0.519819
  C      -3.214342     -0.203688      0.137560
  O      -3.068995     -1.131461     -0.685001
  O      -4.276349      0.305237      0.549159
  H       2.764025      0.934087     -0.067014
  H       3.197304     -0.563664      0.489157
  H       3.559166     -0.160863     -1.095808
  H       1.391572     -1.582432     -0.537110
  H       1.360381     -0.351463     -1.811727
  H      -1.031697     -0.879844     -0.669093
  H      -1.798978      0.552494      1.609336
  H      -1.999731      1.600510      0.199217
17
Coordinates from ORCA-job geo_opt E -30.713377329740
  N       2.862868     -0.094225     -0.325265
  C       1.514034     -0.509729     -0.767382
  C       0.502140      0.349790      0.023378
  O       0.920437      1.304867      0.673560
  N      -0.760496     -0.037132     -0.096405
  C      -1.895209      0.603166      0.506592
  C      -3.194283     -0.207988      0.105974
  O      -2.978014     -1.199589     -0.618477
  O      -4.264194      0.192105      0.592794
  H       2.755139      0.889741     -0.005963
  H       3.169459     -0.646514      0.484827
  H       3.557851     -0.183898     -1.073581
  H       1.345462     -1.569656     -0.592578
  H       1.372043     -0.291492     -1.826465
  H      -1.058435     -0.837884     -0.654279
  H      -1.819102      0.608412      1.597787
  H      -2.029699      1.630024      0.156435
17
Coordinates from ORCA-job geo_opt E -30.713878720620
  N       2.860474     -0.083408     -0.327053
  C       1.517205     -0.515193     -0.763640
  C       0.495723      0.326558      0.022735
  O       0.899124      1.292054      0.666571
  N      -0.763584     -0.057949     -0.098129
  C      -1.890269      0.593973      0.509425
  C      -3.190206     -0.198080      0.113607
  O      -3.008675     -1.184645     -0.626605
  O      -4.258266      0.226373      0.581967
  H       2.744928      0.895942      0.003962
  H       3.179457     -0.633433      0.478408
  H       3.554632     -0.145263     -1.078101
  H       1.358922     -1.576389     -0.584832
  H       1.371614     -0.308156     -1.824047
  H      -1.055924     -0.861760     -0.655412
  H      -1.810937      0.604663      1.600216
  H      -2.004217      1.624713      0.161882
17
Coordinates from ORCA-job geo_opt E -30.714132923250
  N       2.854047     -0.094143     -0.315220
  C       1.516086     -0.512283     -0.775979
  C       0.493080      0.336676     -0.004121
  O       0.900783      1.305739      0.633800
  N      -0.764924     -0.051217     -0.101890
  C      -1.887268      0.602432      0.511148
  C      -3.174655     -0.209531      0.130374
  O      -2.986768     -1.198090     -0.605431
  O      -4.251003      0.212632      0.580385
  H       2.725169      0.873040      0.051029
  H       3.169868     -0.668940      0.473367
  H       3.555980     -0.119613     -1.060453
  H       1.341240     -1.572920     -0.609498
  H       1.390102     -0.296799     -1.837231
  H      -1.068905     -0.863715     -0.642326
  H      -1.801904      0.628550      1.600619
  H      -2.010930      1.628182      0.152379
17
Coordinates from ORCA-job geo_opt E -30.714289628150
  N       2.847955     -0.101307     -0.310104
  C       1.515544     -0.518151     -0.782654
  C       0.495688      0.328859     -0.007740
  O       0.911143      1.315775      0.601199
  N      -0.763314     -0.052125     -0.088855
  C      -1.884435      0.614905      0.511799
  C      -3.160353     -0.211588      0.134258
  O      -2.958575     -1.212843     -0.581014
  O      -4.246658      0.208092      0.558401
  H       2.684675      0.840786      0.114284
  H       3.186422     -0.710947      0.441599
  H       3.545901     -0.056603     -1.057536
  H       1.333670     -1.579845     -0.633606
  H       1.393875     -0.289083     -1.842125
  H      -1.087270     -0.871108     -0.612408
  H      -1.806515      0.661155      1.600621
  H      -2.007754      1.634028      0.134833
17
Coordinates from ORCA-job geo_opt E -30.714404523870
  N       2.848957     -0.101047     -0.308952
  C       1.518180     -0.524412     -0.780704
  C       0.494902      0.330654     -0.017930
  O       0.912272      1.312045      0.600818
  N      -0.763555     -0.050434     -0.094476
  C      -1.884329      0.616282      0.508868
  C      -3.161530     -0.206391      0.132724
  O      -2.963716     -1.211131     -0.579974
  O      -4.246011      0.208215      0.565455
  H       2.668768      0.833543      0.131323
  H       3.202695     -0.717330      0.430108
  H       3.542239     -0.027242     -1.058202
  H       1.333305     -1.584347     -0.623337
  H       1.398991     -0.305759     -1.842799
  H      -1.092306     -0.870759     -0.615074
  H      -1.804063      0.661069      1.597755
  H      -2.004801      1.637041      0.135349
17
Coordinates from ORCA-job geo_opt E -30.714538824640
  N       2.853055     -0.091025     -0.319522
  C       1.521596     -0.541146     -0.765224
  C       0.496724      0.319262     -0.006929
  O       0.916545      1.295288      0.620089
  N      -0.762508     -0.056314     -0.091040
  C      -1.884932      0.614212      0.506762
  C      -3.169033     -0.191276      0.118102
  O      -2.975104     -1.196616     -0.596723
  O      -4.251365      0.227675      0.553326
  H       2.647487      0.831968      0.141678
  H       3.249819     -0.709702      0.394948
  H       3.522519      0.027083     -1.084279
  H       1.347704     -1.598725     -0.582349
  H       1.384863     -0.348070     -1.830190
  H      -1.095318     -0.871758     -0.616798
  H      -1.810344      0.649396      1.596958
  H      -1.991711      1.639747      0.142145
17
Coordinates from ORCA-job geo_opt E -30.714642800700
  N       2.853527     -0.077560     -0.330776
  C       1.524762     -0.561162     -0.747592
  C       0.498690      0.305237      0.003871
  O       0.921787      1.278738      0.632848
  N      -0.761391     -0.064470     -0.088553
  C      -1.883348      0.610782      0.505970
  C      -3.174974     -0.174190      0.102842
  O      -2.987062     -1.175434     -0.620369
  O      -4.254402      0.253666      0.537811
  H       2.619893      0.825350      0.161931
  H       3.302170     -0.699804      0.348433
  H       3.490577      0.097315     -1.111831
  H       1.366543     -1.614318     -0.528875
  H       1.368092     -0.404204     -1.815509
  H      -1.096396     -0.874732     -0.619783
  H      -1.814060      0.632814      1.597408
  H      -1.974408      1.641973      0.153125
17
Coordinates from ORCA-job geo_opt E -30.714723686810
  N       2.852989     -0.063541     -0.343379
  C       1.527092     -0.577824     -0.730403
  C       0.499071      0.291166      0.017358
  O       0.923046      1.260275      0.651658
  N      -0.761648     -0.072998     -0.086519
  C      -1.881888      0.607447      0.505615
  C      -3.179864     -0.159182      0.088632
  O      -2.998282     -1.156607     -0.640988
  O      -4.256205      0.281711      0.518776
  H       2.603598      0.819009      0.181836
  H       3.349457     -0.689222      0.297515
  H       3.454184      0.161058     -1.139927
  H       1.388344     -1.625245     -0.472771
  H       1.350553     -0.459919     -1.799647
  H      -1.093602     -0.876672     -0.627207
  H      -1.818213      0.617456      1.597836
  H      -1.958631      1.643087      0.162567
17
Coordinates from ORCA-job geo_opt E -30.714784064680
  N       2.852181     -0.052571     -0.355443
  C       1.527748     -0.589683     -0.715217
  C       0.498697      0.282225      0.029435
  O       0.922889      1.246781      0.669450
  N      -0.762771     -0.076637     -0.084855
  C      -1.881169      0.605807      0.507797
  C      -3.182256     -0.149230      0.075485
  O      -3.003016     -1.140812     -0.661158
  O      -4.257417      0.300397      0.499341
  H       2.600704      0.813650      0.196052
  H       3.384952     -0.681548      0.251568
  H       3.420869      0.206107     -1.165736
  H       1.406793     -1.630049     -0.420838
  H       1.335055     -0.508072     -1.784261
  H      -1.089978     -0.875097     -0.634415
  H      -1.823823      0.603991      1.600237
  H      -1.949460      1.644741      0.173509
17
Coordinates from ORCA-job geo_opt E -30.714823475010
  N       2.850064     -0.042660     -0.368343
  C       1.528009     -0.603294     -0.699367
  C       0.499490      0.273548      0.040533
  O       0.926777      1.233679      0.685115
  N      -0.763262     -0.077569     -0.080629
  C      -1.880157      0.607633      0.510759
  C      -3.181382     -0.139986      0.060496
  O      -3.000180     -1.127976     -0.679128
  O      -4.258274      0.315066      0.473240
  H       2.596914      0.797714      0.221418
  H       3.424231     -0.678064      0.191806
  H       3.378283      0.262688     -1.189948
  H       1.423861     -1.634820     -0.368292
  H       1.319870     -0.558512     -1.766931
  H      -1.090012     -0.872953     -0.635327
  H      -1.832509      0.596873      1.603163
  H      -1.941722      1.648633      0.182387
17
Coordinates from ORCA-job geo_opt E -30.714844947040
  N       2.850601     -0.032505     -0.386022
  C       1.528214     -0.614766     -0.678562
  C       0.500326      0.265047      0.059410
  O       0.926962      1.217557      0.715424
  N      -0.763823     -0.077750     -0.074463
  C      -1.881467      0.607163      0.514781
  C      -3.182631     -0.129641      0.040798
  O      -2.999259     -1.111611     -0.705106
  O      -4.261319      0.328748      0.444688
  H       2.609445      0.793224      0.226873
  H       3.460629     -0.668058      0.134401
  H       3.336438      0.299527     -1.223319
  H       1.443974     -1.635759     -0.310064
  H       1.301260     -0.607740     -1.742691
  H      -1.086694     -0.868336     -0.638383
  H      -1.846809      0.583500      1.607073
  H      -1.935847      1.651399      0.196115
17
Coordinates from ORCA-job geo_opt E -30.714857630440
  N       2.849999     -0.030789     -0.389878
  C       1.528488     -0.619593     -0.672752
  C       0.501756      0.263381      0.061877
  O       0.930465      1.214908      0.718579
  N      -0.763049     -0.076341     -0.071962
  C      -1.881586      0.609038      0.514769
  C      -3.181357     -0.127023      0.035620
  O      -2.995133     -1.109707     -0.709182
  O      -4.262069      0.330403      0.435210
  H       2.609155      0.782102      0.240127
  H       3.475004     -0.669287      0.108803
  H       3.318609      0.322110     -1.228357
  H       1.447344     -1.637566     -0.295267
  H       1.297826     -0.622299     -1.736203
  H      -1.089239     -0.867502     -0.634283
  H      -1.851312      0.584649      1.607167
  H      -1.934902      1.653517      0.196686
17
Coordinates from ORCA-job geo_opt E -30.714863095240
  N       2.851867     -0.034955     -0.386334
  C       1.527959     -0.615609     -0.675811
  C       0.502145      0.267938      0.058328
  O       0.930040      1.221194      0.713327
  N      -0.762613     -0.073406     -0.072525
  C      -1.882883      0.609885      0.513330
  C      -3.180987     -0.130564      0.039251
  O      -2.992833     -1.115430     -0.703252
  O      -4.262863      0.322758      0.440602
  H       2.613459      0.780630      0.239638
  H       3.469415     -0.676353      0.118466
  H       3.327763      0.312488     -1.223058
  H       1.439970     -1.636380     -0.307974
  H       1.301924     -0.608387     -1.740632
  H      -1.091353     -0.866514     -0.631317
  H      -1.851136      0.589112      1.605983
  H      -1.939874      1.653593      0.192932
17
Coordinates from ORCA-job geo_opt E -30.714864779650
  N       2.851593     -0.032627     -0.389817
  C       1.528149     -0.618743     -0.670846
  C       0.502678      0.265561      0.062413
  O       0.930290      1.217486      0.719368
  N      -0.762329     -0.074064     -0.071528
  C      -1.883061      0.609374      0.513178
  C      -3.181281     -0.127675      0.035214
  O      -2.993329     -1.111845     -0.708430
  O      -4.263134      0.326836      0.435186
  H       2.615464      0.778868      0.241968
  H       3.477847     -0.673457      0.104670
  H       3.316875      0.322923     -1.229210
  H       1.444719     -1.637181     -0.295394
  H       1.297995     -0.619788     -1.734711
  H      -1.091018     -0.865760     -0.632292
  H      -1.853729      0.586099      1.605930
  H      -1.937730      1.653994      0.195255
17
Coordinates from ORCA-job geo_opt E -30.714865189910
  N       2.851570     -0.032848     -0.389243
  C       1.528014     -0.618310     -0.671311
  C       0.502554      0.265853      0.062180
  O       0.929808      1.217963      0.718880
  N      -0.762344     -0.074243     -0.072050
  C      -1.883079      0.609099      0.512855
  C      -3.181347     -0.127976      0.035916
  O      -2.993716     -1.112007     -0.708023
  O      -4.262930      0.326687      0.436470
  H       2.615757      0.779818      0.241115
  H       3.476576     -0.673563      0.106878
  H       3.318207      0.321164     -1.228536
  H       1.444410     -1.637029     -0.296681
  H       1.298211     -0.618589     -1.735225
  H      -1.090920     -0.865732     -0.633005
  H      -1.852986      0.585929      1.605646
  H      -1.937786      1.653782      0.195085
