17
Coordinates from ORCA-job geo_opt E -30.714865189910
  N           2.85157045815316     -0.03284755722218     -0.38924258006664
  C           1.52801350797418     -0.61830992762005     -0.67131078644619
  C           0.50255410048237      0.26585289260791      0.06218022646737
  O           0.92980843866083      1.21796322156705      0.71888020853715
  N          -0.76234401761779     -0.07424323118492     -0.07204970528423
  C          -1.88307909198196      0.60909856833060      0.51285507577546
  C          -3.18134711424013     -0.12797550287589      0.03591634841968
  O          -2.99371620461131     -1.11200683353974     -0.70802318258485
  O          -4.26292954285501      0.32668714592962      0.43646974996077
  H           2.61575707317350      0.77981849068299      0.24111499617867
  H           3.47657628243577     -0.67356253198297      0.10687825346773
  H           3.31820740967575      0.32116410702175     -1.22853591602610
  H           1.44440950902873     -1.63702907214988     -0.29668065114742
  H           1.29821101302431     -0.61858892977383     -1.73522493260672
  H          -1.09092048487507     -0.86573199840230     -0.63300468838740
  H          -1.85298579788718      0.58592899988158      1.60564554685680
  H          -1.93778551854015      1.65378214873025      0.19508500688594
