17
zwitterion conformer 3
N       2.86662934     0.02596723    -0.34788731
C       1.59582859    -0.52939838    -0.70747765
C       0.48259930     0.17803499     0.00292394
O       0.77281267     1.12959007     0.79331785
N      -0.85658368    -0.23935374    -0.23181620
C      -1.90517150     0.45704592     0.46312126
C      -3.24888126    -0.06114543     0.14224811
O      -3.37162334    -1.01923200    -0.66919544
O      -4.33482665     0.54349890     0.76182335
H       2.79094581     1.06479508    -0.12629550
H       3.19600507    -0.38832346     0.55632755
H       3.57910608    -0.03038779    -1.10008986
H       1.54847498    -1.59431021    -0.40699759
H       1.45629272    -0.48043046    -1.81162292
H      -1.03426058    -1.01772824    -0.88387767
H      -1.75090517     0.42585846     1.55901323
H      -1.78644236     1.53551905     0.18743782
