27
Coordinates from ORCA-job geo_opt E -43.619675824920
  N       1.853087      0.405612      1.428271
  C       2.317005      0.024516      0.147687
  C       1.432969      0.352295     -0.995763
  C       0.118909     -0.286198     -0.899053
  C      -0.135388     -1.539348     -1.483633
  N      -1.397972     -1.911120     -1.217120
  C      -1.993481     -0.954899     -0.479950
  C      -3.282098     -0.852841      0.031118
  C      -3.614656      0.279546      0.742534
  C      -2.710938      1.299615      0.956343
  C      -1.452537      1.141316      0.427017
  C      -1.057209      0.043098     -0.287054
  C       3.711836      0.548125     -0.064529
  O       4.673812      0.028543      0.584706
  O       3.933764      1.587596     -0.962586
  H       0.848068      0.364013      1.624098
  H       2.358354     -0.257232      2.120282
  H       2.282573      1.342029      1.690621
  H       2.448890     -1.099283      0.120435
  H       1.951452      0.095352     -1.962859
  H       1.330556      1.476313     -1.053459
  H       0.540150     -2.149084     -2.064665
  H      -1.855270     -2.816719     -1.534730
  H      -3.978583     -1.639672     -0.133797
  H      -4.604987      0.421007      1.170731
  H      -3.013613      2.179092      1.524967
  H      -0.704692      1.918330      0.570387
27
Coordinates from ORCA-job geo_opt E -43.656473451100
  N       1.853498      0.414164      1.431434
  C       2.361937      0.009406      0.129455
  C       1.452289      0.348953     -1.029286
  C       0.125853     -0.304424     -0.929061
  C      -0.143385     -1.545216     -1.504636
  N      -1.415258     -1.920214     -1.227553
  C      -2.014169     -0.959562     -0.477497
  C      -3.301838     -0.863650      0.042530
  C      -3.628636      0.266271      0.759491
  C      -2.713601      1.300961      0.972687
  C      -1.448655      1.177874      0.447466
  C      -1.061910      0.058864     -0.282799
  C       3.776273      0.547343     -0.064680
  O       4.707198      0.048220      0.603127
  O       3.968793      1.529518     -0.896383
  H       0.837880      0.362196      1.572614
  H       2.315327     -0.200346      2.143094
  H       2.228356      1.351295      1.678146
  H       2.493051     -1.096315      0.113504
  H       1.956612      0.095584     -1.974811
  H       1.345597      1.451850     -1.081122
  H       0.518887     -2.154830     -2.090749
  H      -1.854404     -2.788998     -1.533687
  H      -4.009513     -1.656587     -0.119922
  H      -4.617257      0.390250      1.186007
  H      -3.017124      2.169184      1.539571
  H      -0.715800      1.968209      0.593061
27
Coordinates from ORCA-job geo_opt E -43.667739337120
  N       1.799477      0.414614      1.405810
  C       2.379324     -0.008677      0.109315
  C       1.463620      0.351367     -1.059108
  C       0.139588     -0.329358     -0.960935
  C      -0.143791     -1.549279     -1.525440
  N      -1.420159     -1.924597     -1.232842
  C      -2.006640     -0.958639     -0.468986
  C      -3.286748     -0.866261      0.066854
  C      -3.599708      0.258925      0.791623
  C      -2.670324      1.294142      0.993026
  C      -1.405624      1.201776      0.464915
  C      -1.043223      0.068848     -0.277474
  C       3.816220      0.572331     -0.041071
  O       4.698651      0.063332      0.668930
  O       3.980561      1.483083     -0.835420
  H       0.774162      0.335682      1.447232
  H       2.209529     -0.156431      2.149924
  H       2.096603      1.370943      1.623705
  H       2.508937     -1.096461      0.111461
  H       1.967755      0.098521     -1.986885
  H       1.342784      1.437721     -1.088503
  H       0.501202     -2.161040     -2.123337
  H      -1.856417     -2.771859     -1.532186
  H      -4.006202     -1.657074     -0.088492
  H      -4.583935      0.369399      1.222447
  H      -2.967062      2.158284      1.561729
  H      -0.688581      2.000709      0.603706
27
Coordinates from ORCA-job geo_opt E -43.670375218720
  N       1.773674      0.387172      1.386649
  C       2.383586     -0.031961      0.094094
  C       1.466731      0.348648     -1.071280
  C       0.145728     -0.343840     -0.976853
  C      -0.148975     -1.557141     -1.536706
  N      -1.425794     -1.927408     -1.230363
  C      -1.998505     -0.955640     -0.462795
  C      -3.272846     -0.860907      0.085720
  C      -3.575749      0.266008      0.812507
  C      -2.640016      1.297351      0.997212
  C      -1.377943      1.210378      0.461407
  C      -1.030359      0.070686     -0.279384
  C       3.828274      0.587406     -0.031312
  O       4.668372      0.114012      0.756460
  O       3.973328      1.546269     -0.797140
  H       0.749573      0.271236      1.383867
  H       2.181391     -0.160515      2.150064
  H       2.011364      1.365247      1.578760
  H       2.517131     -1.116621      0.099963
  H       1.972451      0.093370     -1.998143
  H       1.341854      1.432899     -1.084103
  H       0.483646     -2.174011     -2.143169
  H      -1.871863     -2.774561     -1.527558
  H      -3.998660     -1.648121     -0.061698
  H      -4.556980      0.375955      1.248941
  H      -2.930446      2.167048      1.562690
  H      -0.668966      2.017041      0.582169
27
Coordinates from ORCA-job geo_opt E -43.667146540090
  N       1.724358      0.358373      1.385901
  C       2.384038     -0.037951      0.100824
  C       1.468963      0.373789     -1.060272
  C       0.159589     -0.349709     -0.987712
  C      -0.141562     -1.555074     -1.545291
  N      -1.418522     -1.924470     -1.226014
  C      -1.979735     -0.948784     -0.456097
  C      -3.249489     -0.859757      0.103737
  C      -3.549632      0.267518      0.834046
  C      -2.613290      1.296717      0.998621
  C      -1.351097      1.225844      0.457837
  C      -1.013503      0.080029     -0.277482
  C       3.826617      0.663441      0.033190
  O       4.651525      0.097225      0.778822
  O       4.017744      1.475994     -0.906766
  H       0.712863      0.163188      1.310370
  H       2.137061     -0.148939      2.177699
  H       1.849268      1.365973      1.533250
  H       2.537185     -1.117447      0.101162
  H       1.986584      0.125451     -1.986420
  H       1.327925      1.454021     -1.039667
  H       0.478364     -2.176903     -2.161574
  H      -1.874348     -2.773830     -1.524603
  H      -3.978303     -1.645282     -0.036754
  H      -4.529350      0.369075      1.274927
  H      -2.902104      2.172967      1.560205
  H      -0.661150      2.048538      0.558060
27
Coordinates from ORCA-job geo_opt E -43.671780291750
  N       1.753402      0.341582      1.382459
  C       2.385500     -0.044712      0.086975
  C       1.464932      0.361324     -1.066945
  C       0.152881     -0.351643     -0.986503
  C      -0.149538     -1.562314     -1.540824
  N      -1.426237     -1.926923     -1.222062
  C      -1.987343     -0.948886     -0.457030
  C      -3.257611     -0.853657      0.100678
  C      -3.556191      0.277510      0.826161
  C      -2.619332      1.305148      0.989512
  C      -1.358308      1.222078      0.447472
  C      -1.019485      0.075702     -0.282581
  C       3.823450      0.636069      0.002984
  O       4.645631      0.165494      0.809825
  O       3.977216      1.541521     -0.828303
  H       0.740382      0.147499      1.343641
  H       2.189462     -0.172327      2.156934
  H       1.893248      1.345463      1.543974
  H       2.540864     -1.125026      0.083862
  H       1.975540      0.114642     -1.998137
  H       1.329637      1.443816     -1.051490
  H       0.471395     -2.187414     -2.152719
  H      -1.882147     -2.774707     -1.517154
  H      -3.986280     -1.638159     -0.037773
  H      -4.535126      0.385377      1.268372
  H      -2.905102      2.183117      1.549926
  H      -0.660841      2.039427      0.548746
27
Coordinates from ORCA-job geo_opt E -43.672123294290
  N       1.759568      0.326176      1.382173
  C       2.385993     -0.045862      0.081701
  C       1.463010      0.360524     -1.067064
  C       0.152492     -0.353773     -0.987861
  C      -0.151689     -1.566431     -1.539276
  N      -1.429473     -1.926623     -1.220990
  C      -1.988651     -0.946588     -0.458147
  C      -3.259032     -0.848076      0.098807
  C      -3.555153      0.284696      0.824226
  C      -2.616005      1.308757      0.987170
  C      -1.354979      1.220338      0.444644
  C      -1.018637      0.074088     -0.284048
  C       3.818298      0.643313      0.003125
  O       4.625799      0.214566      0.845446
  O       3.972607      1.535853     -0.838746
  H       0.753790      0.096288      1.356558
  H       2.224108     -0.168594      2.151499
  H       1.865868      1.334945      1.536361
  H       2.549691     -1.125425      0.073264
  H       1.972294      0.119396     -2.000426
  H       1.325882      1.442526     -1.047460
  H       0.467008     -2.195020     -2.149727
  H      -1.887704     -2.771925     -1.516522
  H      -3.989632     -1.630268     -0.039696
  H      -4.533453      0.394775      1.267459
  H      -2.897691      2.187471      1.548663
  H      -0.654308      2.034872      0.548864
27
Coordinates from ORCA-job geo_opt E -43.672972415880
  N       1.780407      0.293491      1.385634
  C       2.385884     -0.045531      0.070718
  C       1.456273      0.364990     -1.063518
  C       0.149838     -0.354349     -0.990277
  C      -0.157528     -1.569622     -1.539171
  N      -1.436781     -1.923349     -1.221436
  C      -1.993825     -0.940590     -0.462153
  C      -3.264688     -0.837523      0.092571
  C      -3.557160      0.297843      0.818736
  C      -2.613927      1.314680      0.983949
  C      -1.352307      1.216122      0.441164
  C      -1.019864      0.072278     -0.286937
  C       3.810968      0.653522      0.005993
  O       4.557816      0.355990      0.952024
  O       4.006356      1.455173     -0.911849
  H       0.805326     -0.041445      1.405955
  H       2.330301     -0.132982      2.138406
  H       1.784676      1.310697      1.514975
  H       2.563577     -1.124065      0.048543
  H       1.962248      0.141942     -2.003133
  H       1.312367      1.445819     -1.030072
  H       0.455902     -2.204034     -2.148524
  H      -1.899695     -2.763018     -1.521824
  H      -3.999008     -1.615001     -0.047906
  H      -4.534911      0.410986      1.262687
  H      -2.887171      2.193945      1.548718
  H      -0.645076      2.024029      0.556728
27
Coordinates from ORCA-job geo_opt E -43.674024180840
  N       1.804055      0.270815      1.392454
  C       2.384868     -0.042245      0.063436
  C       1.448787      0.372458     -1.057583
  C       0.145722     -0.351687     -0.990540
  C      -0.162818     -1.567708     -1.540457
  N      -1.443022     -1.918815     -1.224627
  C      -2.000738     -0.935410     -0.467031
  C      -3.272487     -0.830683      0.084689
  C      -3.563639      0.305519      0.812362
  C      -2.618029      1.317534      0.982906
  C      -1.355405      1.212556      0.441117
  C      -1.024225      0.072179     -0.288559
  C       3.808044      0.655442      0.007488
  O       4.485990      0.490874      1.033796
  O       4.068775      1.335880     -0.986990
  H       0.871926     -0.160799      1.466067
  H       2.434635     -0.078087      2.122010
  H       1.710123      1.285689      1.501171
  H       2.570064     -1.120534      0.029069
  H       1.952051      0.167270     -2.002597
  H       1.297236      1.452074     -1.011671
  H       0.447355     -2.205124     -2.149642
  H      -1.908507     -2.753651     -1.532013
  H      -4.009100     -1.604971     -0.059047
  H      -4.541961      0.419826      1.254982
  H      -2.885899      2.196333      1.550518
  H      -0.643802      2.015266      0.568691
27
Coordinates from ORCA-job geo_opt E -43.675113881020
  N       1.824833      0.249390      1.398879
  C       2.384308     -0.041309      0.057885
  C       1.442143      0.379622     -1.051058
  C       0.141965     -0.349068     -0.990399
  C      -0.167573     -1.564586     -1.542412
  N      -1.448913     -1.913570     -1.229052
  C      -2.006991     -0.929962     -0.472094
  C      -3.279564     -0.824033      0.076859
  C      -3.569435      0.311912      0.807081
  C      -2.621476      1.319318      0.983538
  C      -1.357833      1.210094      0.443123
  C      -1.028205      0.073089     -0.289326
  C       3.806300      0.655621      0.008033
  O       4.409258      0.633881      1.092316
  O       4.136438      1.203264     -1.044577
  H       0.947019     -0.271821      1.523969
  H       2.525024     -0.012986      2.102263
  H       1.632470      1.251824      1.489097
  H       2.575475     -1.119037      0.011358
  H       1.943474      0.190870     -2.000789
  H       1.283350      1.457818     -0.991981
  H       0.440057     -2.204191     -2.151774
  H      -1.916868     -2.743896     -1.543701
  H      -4.018350     -1.595197     -0.070572
  H      -4.548500      0.426854      1.248093
  H      -2.885182      2.197322      1.554218
  H      -0.643224      2.008776      0.581022
27
Coordinates from ORCA-job geo_opt E -43.677454293550
  N       1.856637      0.241680      1.415646
  C       2.382390     -0.037639      0.057999
  C       1.431576      0.394539     -1.038539
  C       0.132786     -0.339146     -0.986942
  C      -0.173758     -1.547912     -1.550776
  N      -1.456079     -1.902504     -1.244689
  C      -2.019987     -0.923414     -0.482924
  C      -3.294391     -0.821876      0.060867
  C      -3.586594      0.307928      0.798529
  C      -2.638080      1.313463      0.992041
  C      -1.372078      1.208932      0.456768
  C      -1.040541      0.079331     -0.287642
  C       3.812881      0.638525     -0.001656
  O       4.319959      0.809159      1.121626
  O       4.270462      0.932033     -1.107609
  H       1.079102     -0.386606      1.642683
  H       2.654656      0.131395      2.061837
  H       1.532140      1.211813      1.477162
  H       2.568334     -1.116207     -0.003557
  H       1.933492      0.225748     -1.992755
  H       1.260194      1.470907     -0.963665
  H       0.435678     -2.183721     -2.162802
  H      -1.923432     -2.728465     -1.575026
  H      -4.033740     -1.591351     -0.095607
  H      -4.569259      0.419393      1.232567
  H      -2.903544      2.187469      1.567438
  H      -0.658803      2.006525      0.609027
27
Coordinates from ORCA-job geo_opt E -43.678912468810
  N       1.873319      0.265878      1.431504
  C       2.381250     -0.041784      0.068656
  C       1.426443      0.412375     -1.026694
  C       0.123296     -0.320968     -0.980199
  C      -0.174221     -1.515848     -1.564057
  N      -1.455768     -1.887272     -1.267606
  C      -2.030176     -0.918792     -0.494083
  C      -3.306177     -0.830765      0.046715
  C      -3.606796      0.285468      0.794983
  C      -2.664007      1.299085      1.007417
  C      -1.395859      1.217436      0.479214
  C      -1.056291      0.095211     -0.282759
  C       3.832635      0.592679     -0.022932
  O       4.312079      0.847229      1.105018
  O       4.372288      0.663840     -1.132614
  H       1.193940     -0.414123      1.776785
  H       2.745439      0.318145      2.006745
  H       1.452345      1.201640      1.448306
  H       2.538158     -1.122601     -0.003970
  H       1.933391      0.248307     -1.980487
  H       1.247265      1.487804     -0.940963
  H       0.445608     -2.137818     -2.181029
  H      -1.916298     -2.713888     -1.614086
  H      -4.040644     -1.605029     -0.119120
  H      -4.594084      0.385997      1.221018
  H      -2.943577      2.165047      1.587889
  H      -0.693558      2.022746      0.636349
27
Coordinates from ORCA-job geo_opt E -43.680013774450
  N       1.903264      0.229639      1.436712
  C       2.379698     -0.055311      0.064684
  C       1.420251      0.421103     -1.012194
  C       0.119255     -0.314316     -0.977472
  C      -0.179418     -1.508994     -1.566182
  N      -1.462553     -1.876327     -1.273958
  C      -2.035844     -0.908813     -0.501257
  C      -3.313406     -0.820195      0.036508
  C      -3.614082      0.295032      0.788793
  C      -2.670325      1.303491      1.004866
  C      -1.400811      1.217406      0.478155
  C      -1.061500      0.099484     -0.284489
  C       3.830558      0.575705     -0.019004
  O       4.218578      1.041751      1.075142
  O       4.442253      0.489711     -1.086884
  H       1.382807     -0.537632      1.861884
  H       2.798190      0.473976      1.929164
  H       1.323587      1.075941      1.441196
  H       2.536248     -1.135047     -0.030504
  H       1.923511      0.279005     -1.971224
  H       1.238790      1.493256     -0.900138
  H       0.439110     -2.133157     -2.181873
  H      -1.926024     -2.696025     -1.627994
  H      -4.048875     -1.591578     -0.133760
  H      -4.601233      0.395733      1.215410
  H      -2.946273      2.167517      1.590597
  H      -0.695756      2.018643      0.643823
27
Coordinates from ORCA-job geo_opt E -43.681228825070
  N       1.897267      0.227860      1.434305
  C       2.376870     -0.081644      0.073260
  C       1.427029      0.417486     -1.005785
  C       0.121920     -0.310165     -0.975815
  C      -0.177963     -1.504784     -1.568476
  N      -1.462645     -1.867655     -1.280391
  C      -2.031894     -0.902754     -0.505546
  C      -3.310436     -0.814571      0.032561
  C      -3.611234      0.297347      0.790426
  C      -2.667248      1.303536      1.006158
  C      -1.397598      1.218802      0.479808
  C      -1.058755      0.102900     -0.284005
  C       3.828993      0.550399     -0.008455
  O       4.226325      1.025886      1.077439
  O       4.409015      0.515646     -1.094789
  H       1.468956     -0.563731      1.915302
  H       2.784862      0.593953      1.885264
  H       1.231828      1.007637      1.405297
  H       2.518938     -1.161356     -0.029401
  H       1.928802      0.270802     -1.964005
  H       1.260345      1.489233     -0.883305
  H       0.443386     -2.127628     -2.182216
  H      -1.927751     -2.685382     -1.633732
  H      -4.045077     -1.585368     -0.141142
  H      -4.596860      0.398187      1.220216
  H      -2.944653      2.164794      1.596389
  H      -0.692422      2.020570      0.640636
27
Coordinates from ORCA-job geo_opt E -43.681800515240
  N       1.896473      0.201415      1.440935
  C       2.377385     -0.107648      0.078578
  C       1.432395      0.414107     -1.001141
  C       0.121927     -0.305209     -0.975435
  C      -0.178624     -1.497014     -1.571123
  N      -1.465143     -1.857806     -1.287065
  C      -2.032903     -0.893456     -0.510460
  C      -3.311699     -0.804588      0.027712
  C      -3.611191      0.304205      0.789507
  C      -2.665446      1.309747      1.007597
  C      -1.395939      1.228105      0.482237
  C      -1.058909      0.111842     -0.284970
  C       3.819744      0.547688     -0.007341
  O       4.188960      1.074050      1.066720
  O       4.420365      0.473946     -1.079699
  H       1.638196     -0.608777      2.001820
  H       2.749337      0.745575      1.805811
  H       1.106581      0.853963      1.403465
  H       2.522038     -1.181999     -0.048918
  H       1.933643      0.269786     -1.960410
  H       1.276063      1.485388     -0.866037
  H       0.446684     -2.118388     -2.182375
  H      -1.931119     -2.676044     -1.640408
  H      -4.046629     -1.575101     -0.148385
  H      -4.596133      0.405350      1.220155
  H      -2.944874      2.168723      1.600344
  H      -0.691182      2.032139      0.638886
27
Coordinates from ORCA-job geo_opt E -43.682264556440
  N       1.877618      0.167253      1.439199
  C       2.380816     -0.120608      0.077309
  C       1.439585      0.403278     -1.006178
  C       0.126550     -0.310503     -0.979975
  C      -0.179078     -1.504423     -1.568955
  N      -1.466898     -1.858209     -1.281989
  C      -2.029539     -0.889110     -0.507776
  C      -3.306773     -0.793548      0.033037
  C      -3.600191      0.318972      0.792257
  C      -2.649920      1.321803      1.004384
  C      -1.382049      1.234106      0.475742
  C      -1.051310      0.112972     -0.288158
  C       3.800839      0.583881     -0.004375
  O       4.135209      1.145796      1.062232
  O       4.411990      0.520030     -1.070284
  H       1.674421     -0.659908      1.998708
  H       2.709906      0.740761      1.815617
  H       1.047058      0.766884      1.406171
  H       2.548733     -1.188786     -0.064624
  H       1.940321      0.258191     -1.965410
  H       1.291107      1.475540     -0.869853
  H       0.443817     -2.129891     -2.178299
  H      -1.935925     -2.677894     -1.627819
  H      -4.044896     -1.561839     -0.139498
  H      -4.583014      0.425048      1.226108
  H      -2.924655      2.183165      1.595685
  H      -0.673722      2.037037      0.626746
27
Coordinates from ORCA-job geo_opt E -43.682647705750
  N       1.852148      0.116200      1.430806
  C       2.386496     -0.140148      0.074895
  C       1.450828      0.382333     -1.015721
  C       0.132453     -0.320420     -0.988247
  C      -0.184426     -1.514719     -1.571566
  N      -1.474437     -1.856259     -1.280726
  C      -2.027174     -0.881413     -0.506037
  C      -3.301378     -0.773426      0.039185
  C      -3.581376      0.342642      0.798170
  C      -2.620852      1.337044      1.007548
  C      -1.356255      1.237004      0.473218
  C      -1.039120      0.112125     -0.292204
  C       3.764782      0.640563      0.008927
  O       4.015505      1.284945      1.052127
  O       4.427762      0.552025     -1.024762
  H       1.780668     -0.718074      2.012586
  H       2.622817      0.775493      1.795842
  H       0.945681      0.592028      1.401620
  H       2.592480     -1.198070     -0.085924
  H       1.951896      0.235502     -1.973887
  H       1.312440      1.456931     -0.880536
  H       0.431922     -2.144888     -2.182562
  H      -1.949981     -2.675321     -1.618704
  H      -4.047160     -1.534738     -0.131114
  H      -4.561376      0.458831      1.235738
  H      -2.885223      2.200755      1.599760
  H      -0.639122      2.033054      0.621568
27
Coordinates from ORCA-job geo_opt E -43.682714470500
  N       1.842662      0.115189      1.425676
  C       2.387437     -0.142022      0.075723
  C       1.454396      0.376108     -1.019990
  C       0.134081     -0.323146     -0.991839
  C      -0.187551     -1.514646     -1.578306
  N      -1.477513     -1.853975     -1.285768
  C      -2.026551     -0.880230     -0.506570
  C      -3.299349     -0.770021      0.041253
  C      -3.574517      0.344852      0.803280
  C      -2.610918      1.336124      1.014500
  C      -1.347654      1.233735      0.477485
  C      -1.035157      0.110317     -0.292291
  C       3.759759      0.647693      0.014750
  O       3.985142      1.322347      1.045011
  O       4.445867      0.534502     -1.001458
  H       1.804496     -0.713834      2.018655
  H       2.587872      0.800505      1.787116
  H       0.918471      0.555548      1.389996
  H       2.596912     -1.199765     -0.081947
  H       1.956775      0.224385     -1.976542
  H       1.316752      1.451736     -0.889565
  H       0.424924     -2.143731     -2.194293
  H      -1.955308     -2.671672     -1.624330
  H      -4.047825     -1.528482     -0.129782
  H      -4.553815      0.463088      1.242120
  H      -2.871547      2.199087      1.609270
  H      -0.627841      2.026311      0.627846
27
Coordinates from ORCA-job geo_opt E -43.682768435150
  N       1.821864      0.121259      1.415951
  C       2.386888     -0.145583      0.078126
  C       1.461240      0.365182     -1.029162
  C       0.137539     -0.327662     -0.999456
  C      -0.192433     -1.513496     -1.592728
  N      -1.482277     -1.849080     -1.297125
  C      -2.023812     -0.878622     -0.508272
  C      -3.293775     -0.765639      0.045478
  C      -3.560408      0.345945      0.814763
  C      -2.591816      1.331947      1.028651
  C      -1.331041      1.226856      0.486315
  C      -1.026924      0.106539     -0.292041
  C       3.752874      0.653073      0.027880
  O       3.942296      1.366992      1.038936
  O       4.469725      0.510855     -0.963690
  H       1.831248     -0.693000      2.031427
  H       2.523129      0.849334      1.769472
  H       0.872879      0.505584      1.363881
  H       2.598005     -1.204165     -0.070839
  H       1.966630      0.200671     -1.981778
  H       1.326127      1.442498     -0.909656
  H       0.413491     -2.140267     -2.217547
  H      -1.964015     -2.664038     -1.636789
  H      -4.046538     -1.519589     -0.126484
  H      -4.537851      0.466595      1.257324
  H      -2.846220      2.192884      1.628841
  H      -0.606824      2.014926      0.638525
27
Coordinates from ORCA-job geo_opt E -43.682775192830
  N       1.819733      0.122910      1.416116
  C       2.387227     -0.145763      0.079571
  C       1.462426      0.363623     -1.029694
  C       0.137995     -0.327907     -0.999483
  C      -0.193781     -1.511285     -1.596765
  N      -1.483744     -1.846425     -1.301473
  C      -2.023759     -0.878065     -0.509138
  C      -3.293454     -0.765095      0.045321
  C      -3.558973      0.345096      0.817014
  C      -2.589904      1.330254      1.032316
  C      -1.329266      1.225089      0.489623
  C      -1.025850      0.105617     -0.290541
  C       3.754084      0.651037      0.029432
  O       3.935790      1.382873      1.028855
  O       4.480038      0.491241     -0.953094
  H       1.846902     -0.684880      2.039573
  H       2.505737      0.867646      1.762649
  H       0.863002      0.488211      1.361877
  H       2.596672     -1.204870     -0.068397
  H       1.967939      0.195216     -1.981492
  H       1.328044      1.441319     -0.913399
  H       0.410931     -2.136774     -2.224035
  H      -1.966143     -2.660359     -1.642637
  H      -4.046887     -1.518112     -0.127728
  H      -4.536231      0.465678      1.259996
  H      -2.843688      2.190529      1.633643
  H      -0.604840      2.013197      0.641889
27
Coordinates from ORCA-job geo_opt E -43.682778195290
  N       1.821234      0.126789      1.417166
  C       2.387416     -0.145442      0.080182
  C       1.462424      0.363424     -1.029351
  C       0.137924     -0.328151     -0.998659
  C      -0.194038     -1.510475     -1.597780
  N      -1.484153     -1.845809     -1.303032
  C      -2.023958     -0.878489     -0.509421
  C      -3.293841     -0.765921      0.044774
  C      -3.559724      0.343678      0.817240
  C      -2.590953      1.329028      1.032918
  C      -1.330067      1.224428      0.490720
  C      -1.026060      0.104948     -0.289403
  C       3.755476      0.648852      0.028876
  O       3.939896      1.378782      1.028764
  O       4.478992      0.489128     -0.955751
  H       1.843445     -0.681507      2.040232
  H       2.509431      0.867803      1.764611
  H       0.866636      0.497669      1.362103
  H       2.595156     -1.205125     -0.066083
  H       1.967756      0.192812     -1.980853
  H       1.328542      1.441276     -0.914786
  H       0.410735     -2.135432     -2.225518
  H      -1.966432     -2.659587     -1.644768
  H      -4.047211     -1.518873     -0.128948
  H      -4.537073      0.463757      1.260100
  H      -2.845226      2.189178      1.634236
  H      -0.606328      2.013258      0.642431
27
Coordinates from ORCA-job geo_opt E -43.682778935910
  N       1.821250      0.128916      1.417970
  C       2.387071     -0.145260      0.080844
  C       1.462571      0.363196     -1.029140
  C       0.137926     -0.328117     -0.998374
  C      -0.194025     -1.509999     -1.598374
  N      -1.484321     -1.845314     -1.304129
  C      -2.023993     -0.878568     -0.509832
  C      -3.294003     -0.766195      0.044160
  C      -3.559995      0.342884      0.817366
  C      -2.591206      1.328130      1.033517
  C      -1.330238      1.223823      0.491502
  C      -1.026056      0.104582     -0.288886
  C       3.755836      0.647864      0.028223
  O       3.942562      1.377350      1.027777
  O       4.477534      0.487435     -0.957670
  H       1.840810     -0.679391      2.041035
  H       2.511241      0.868107      1.765399
  H       0.867967      0.502864      1.362458
  H       2.593947     -1.205158     -0.064480
  H       1.968099      0.191156     -1.980309
  H       1.329441      1.441204     -0.915765
  H       0.411036     -2.134803     -2.225966
  H      -1.966433     -2.659134     -1.645904
  H      -4.047405     -1.518990     -0.130214
  H      -4.537314      0.462631      1.260347
  H      -2.845627      2.187999      1.635196
  H      -0.606675      2.012792      0.643246
