27
Coordinates from ORCA-job geo_opt E -43.682778935910
  N           1.82124957661350      0.12891557956534      1.41797031160478
  C           2.38707101386679     -0.14526048819659      0.08084422906550
  C           1.46257067512665      0.36319555435231     -1.02913975344205
  C           0.13792623170166     -0.32811668231697     -0.99837430964192
  C          -0.19402499980497     -1.50999895182131     -1.59837350659979
  N          -1.48432104331307     -1.84531421952170     -1.30412865995968
  C          -2.02399298424433     -0.87856807818141     -0.50983201437586
  C          -3.29400338716603     -0.76619485139038      0.04416029759880
  C          -3.55999511342705      0.34288402993731      0.81736555107238
  C          -2.59120627845047      1.32812980907014      1.03351668183933
  C          -1.33023839035230      1.22382256689078      0.49150248665644
  C          -1.02605622439057      0.10458205732231     -0.28888577059100
  C           3.75583624298283      0.64786363855329      0.02822317602115
  O           3.94256221943545      1.37734993052882      1.02777654909353
  O           4.47753433937603      0.48743457956792     -0.95766953910535
  H           1.84080951525745     -0.67939111547774      2.04103485011216
  H           2.51124149659848      0.86810668874362      1.76539911961671
  H           0.86796711081505      0.50286375018550      1.36245837310435
  H           2.59394712167725     -1.20515810590168     -0.06447999484181
  H           1.96809921924706      0.19115601871140     -1.98030891409859
  H           1.32944121335409      1.44120367469453     -0.91576462925290
  H           0.41103598480256     -2.13480273158655     -2.22596572916219
  H          -1.96643304986432     -2.65913357148027     -1.64590371405669
  H          -4.04740504911887     -1.51899013457083     -0.13021398387253
  H          -4.53731389176684      0.46263056954136      1.26034681886062
  H          -2.84562662423412      2.18799861595923      1.63519584281253
  H          -0.60667490472191      2.01279185682159      0.64324622154208
