
                                 *****************
                                 * O   R   C   A *
                                 *****************

                                            #,                                       
                                            ###                                      
                                            ####                                     
                                            #####                                    
                                            ######                                   
                                           ########,                                 
                                     ,,################,,,,,                         
                               ,,#################################,,                 
                          ,,##########################################,,             
                       ,#########################################, ''#####,          
                    ,#############################################,,   '####,        
                  ,##################################################,,,,####,       
                ,###########''''           ''''###############################       
              ,#####''   ,,,,##########,,,,          '''####'''          '####       
            ,##' ,,,,###########################,,,                        '##       
           ' ,,###''''                  '''############,,,                           
         ,,##''                                '''############,,,,        ,,,,,,###''
      ,#''                                            '''#######################'''  
     '                                                          ''''####''''         
             ,#######,   #######,   ,#######,      ##                                
            ,#'     '#,  ##    ##  ,#'     '#,    #''#        ,####,    ,#,          
            ##       ##  ##   ,#'  ##            #'  '#       #'       ,# #          
            ##       ##  #######   ##           ,######,      #####,      #          
            '#,     ,#'  ##    ##  '#,     ,#' ,#      #,     #,   #      #          
             '#######'   ##     ##  '#######'  #'      '#     '####' #    #          



                #########################################################
                #                        -***-                          #
                #          Department of theory and spectroscopy        #
                #                                                       #
                #                      Frank Neese                      #
                #                                                       #
                #     Directorship, Architecture, Infrastructure        #
                #                    SHARK, DRIVERS                     #
                #        Core code/Algorithms in most modules           #
                #                                                       #
                #        Max Planck Institute fuer Kohlenforschung      #
                #                Kaiser Wilhelm Platz 1                 #
                #                 D-45470 Muelheim/Ruhr                 #
                #                      Germany                          #
                #                                                       #
                #                  All rights reserved                  #
                #                        -***-                          #
                #########################################################


                         Program Version 6.1.0-f.0  -   RELEASE   -


 With contributions from (in alphabetic order):
[Max-Planck-Institut fuer Kohlenforschung]                               
  Daniel Aravena         : Magnetic Suceptibility                        
  Michael Atanasov       : Ab Initio Ligand Field Theory (pilot matlab implementation)
  Alexander A. Auer      : GIAO ZORA, VPT2 properties, NMR spectrum      
  Ute Becker             : All parallelization in ORCA, NUMFREQ, NUMCALC 
  Giovanni Bistoni       : ED, misc. LED, open-shell LED, HFLD           
  Dmytro Bykov           : pre 5.0 version of the SCF Hessian            
  Marcos Casanova-Páez   : Triplet and SCS-CIS(D). UHF-(DLPNO)-IP/EA/STEOM-CCSD. UHF-CVS-IP/STEOM-CCSD   
  Vijay G. Chilkuri      : MRCI spin determinant printing, contributions to CSF-ICE 
  Pauline Colinet        : FMM embedding                                 
  Dipayan Datta          : RHF DLPNO-CCSD density                        
  Achintya Kumar Dutta   : EOM-CC, STEOM-CC                              
  Nicolas Foglia         : Exact transition moments, OPA infrastructure, MCD improvements    
  Dmitry Ganyushin       : Spin-Orbit,Spin-Spin,Magnetic field MRCI      
  Miquel Garcia-Rates    : C-PCM and meta-GGA Hessian, CCSD/C-PCM, Gaussian charge scheme 
  Tiago L. C. Gouveia    : GS-ROHF, GS-ROCIS                             
  Yang Guo               : DLPNO-NEVPT2, F12-NEVPT2, CIM, IAO-localization        
  Andreas Hansen         : Spin unrestricted coupled pair/coupled cluster methods 
  Ingolf Harden          : AUTO-CI MPn and infrastructure                
  Benjamin Helmich-Paris : MC-RPA, TRAH-(SCF,CASSCF), AVAS, COSX integrals, SCF dyn. polar., MC-PDFT, srDFT 
  Lee Huntington         : MR-EOM, pCC                                   
  Robert Izsak           : Overlap fitted RIJCOSX, COSX-SCS-MP3, EOM     
  Riya Kayal             : Wick's Theorem for AUTO-CI, AUTO-CI UHF-CCSDT 
  Emily Kempfer          : AUTO-CI RHF CISDT and CCSDT, approximate NEVPT4
  Christian Kollmar      : KDIIS, OOCD, Brueckner-CCSD(T), CCSD density, CASPT2, CASPT2-K, improved NEVPT2 
  Axel Koslowski         : Symmetry handling                             
  Simone Kossmann        : meta-GGA functionals, TD-DFT gradient, OOMP2, (MP2 Hessian; deprecated post 5.0) 
  Lucas Lang             : DCDCAS, Hyperfine gauge corrections, ICE-SOC+SSC
  Marvin Lechner         : AUTO-CI (C++ implementation), FIC-MRCC        
  Spencer Leger          : CASSCF response                               
  Dagmar Lenk            : GEPOL surface, SMD, ORCA-2-JSON               
  Dimitrios Liakos       : Extrapolation schemes; Compound Job, Property file
  Dimitrios Manganas     : Further ROCIS development; embedding schemes. LFT, Crystal Embedding 
  Dimitrios Pantazis     : SARC Basis sets                               
  Anastasios Papadopoulos: AUTO-CI, single reference methods and gradients 
  Taras Petrenko         : pre 6.0 DFT Hessian and TD-DFT gradient,  ECA, NRVS 
  Petra Pikulova         : Analytic Raman intensities                    
  Peter Pinski           : DLPNO-MP2, DLPNO-MP2 Gradient                 
  Shashank Vittal Rao    : ES-AILFT, MagRelax                            
  Christoph Reimann      : Effective Core Potentials                     
  Marius Retegan         : Local ZFS, SOC                                
  Christoph Riplinger    : Optimizer, TS searches, QM/MM, DLPNO-CCSD(T), (RO)-DLPNO pert. Triples 
  Michael Roemelt        : Original ROCIS implementation, recursive CI coupling coefficients
  Masaaki Saitow         : Open-shell DLPNO-CCSD energy and density      
  Barbara Sandhoefer     : DKH picture change effects                    
  Yorick L. A. Schmerwitz: GMF and freeze-and-release deltaSCF, NEB S-IDPP initial path                    
  Kantharuban Sivalingam : CASSCF convergence/infrastructure, NEVPT2, NEVPT3, NEVPT4(SD), FIC-MRCI and CEPA variants
  Bernardo de Souza      : ESD, SOC TD-DFT                               
  Georgi L. Stoychev     : AutoAux, RI-MP2 NMR, DLPNO-MP2 response, X2C  
  Van Anh Tran           : RI-MP2 g-tensors                              
  Willem Van den Heuvel  : Paramagnetic NMR                              
  Zikuan Wang            : NOTCH, Electric field optimization            
  Frank Wennmohs         : Technical directorship and infrastructure     
  Hang Xu                : AUTO-CI-Response properties                   
                                                                         
[FACCTs GmbH]                                                            
  Markus Bursch, Nicolas Foglia, Miquel Garcia-Rates, Ingolf Harden, Hagen Neugebauer, Anastasios Papadopoulos, 
  Christoph Riplinger, Bernardo de Souza, Georgi L. Stoychev                                                    
                                                                 
  APM, various basis sets, CI-OPT, improved COSX, DLPNO-Multilevel,           
  DOCKER, DRACO, updates on ESD, Fragmentator, GOAT, IRC, LR-CPCM, L-BFGS, MBIS, meta-GGA TD-DFT gradient, ML-optimized integration grids, 
  MM, NACMEs, nearIR, NEB, NEB-TS, NL-DFT gradient (VV10), 2- and 3-layer-ONIOM, interface openCOSMO-RS, QMMM,   
  Crystal-QMMM, RESP, rigid body optimization, SF, symmetry and pop. for TD-DFT, various functionals, SOLVATOR                                   
                                                                         
[Other institutions]                                                     
  V. Asgeirsson          : NEB                                           
  Christoph Bannwarth    : sTDA-DFT, sTD-DFT, PBEh-3c, B97-3c, D3        
  Giovanni Bistoni       : ETS/NOCV, ADLD/ADEX, COVALED                  
  Martin Brehm           : Molecular dynamics                            
  Ronald Cardenas        : ETS/NOCV                                      
  Martina Colucci        : COVALED                                       
  Sebastian Ehlert       : rSCAN, r2SCAN, r2SCAN-3c, D4, dhf basis sets  
  Marvin Friede          : D4 for Fr, Ra, Ac-Lr                          
  Lars Goerigk           : TD-DFT with DH, B97 family of functionals     
  Stefan Grimme          : VdW corrections, initial TS optimization, DFT functionals, gCP, sTDA/sTD-DF 
  Waldemar Hujo          : DFT-NL                                        
  H. Jonsson             : NEB                                           
  Holger Kruse           : gCP                                           
  Marcel Mueller         : wB97X-3c, vDZP basis set                      
  Hagen Neugebauer       : wr2SCAN, Native XTB                           
  Gianluca Regni         : ADLD/ADEX                                     
  Tobias Risthaus        : pre 6.0 range-separated hybrid DFT and stability analysis
  Lukas Wittmann         : regularized MP2, r2SCAN double-hybrids, wr2SCAN        
                                                                         
We gratefully acknowledge several colleagues who have allowed us to      
interface, adapt or use parts of their codes:                            
  Ed Valeev, F. Pavosevic, A. Kumar             : LibInt (2-el integral package), F12 methods 
  Garnet Chan, S. Sharma, J. Yang, R. Olivares  : DMRG                   
  Ulf Ekstrom                                   : XCFun DFT Library      
  Mihaly Kallay                                 : mrcc  (arbitrary order and MRCC methods)
  Frank Weinhold                                : gennbo (NPA and NBO analysis)           
  Simon Mueller                                 : openCOSMO-RS                            
  Christopher J. Cramer and Donald G. Truhlar   : smd solvation model                     
  S Lehtola, MJT Oliveira, MAL Marques          : LibXC Library                           
  Liviu Ungur et al                             : ANISO software                          


 Your calculation uses the libint2 library for the computation of 2-el integrals
 For citations please refer to: http://libint.valeyev.net

 Your ORCA version has been built with support for libXC version: 7.0.0
 For citations please refer to: https://libxc.gitlab.io

 This ORCA versions uses:
   CBLAS   interface :  Fast vector & matrix operations
   LAPACKE interface :  Fast linear algebra routines
   SCALAPACK package :  Parallel linear algebra routines
   Shared memory     :  Shared parallel matrices
   BLAS/LAPACK       :  OpenBLAS 0.3.29  USE64BITINT DYNAMIC_ARCH NO_AFFINITY Haswell SINGLE_THREADED
        Core in use  :  Haswell
   Copyright (c) 2011-2014, The OpenBLAS Project


  ***********************************
  * Starting time: Thu Apr  9 18:40:48 2026
  * Host name:     analima-B660M-GAMING-X-DDR4
  * Process ID:    1069896
  * Working dir.:  /home/analima/COSMO-RS/COSMO-RS.jl/trp_cosmo_zwitterion/zwitterion/01_cpcm_xtb2_alpb/conf_2
  ***********************************

NOTE: MaxCore=2000 MB was set to SCF,MP2,MDCI,CIPSI,MRCI,RASCI and CIS
      => If you want to overwrite this, your respective input block should be placed after the MaxCore statement


***************************************
The coordinates will be read from file: input.xyz
***************************************


Your calculation utilizes the semiempirical GFN2-xTB method
Please cite in your paper:
Bannwarth, C.; Ehlert S.; Grimme, S. J. Chem. Theory Comput. 2019, 15, 1652.
   

================================================================================

================================================================================
                                        WARNINGS
                       Please study these warnings very carefully!
================================================================================


WARNING: Geometry Optimization
  ===> : Switching off AutoStart
         For restart on a previous wavefunction, please use MOREAD

WARNING: Found dipole moment calculation with XTB calculation
  ===> : Switching off dipole moment calculation


================================================================================
                                       INPUT FILE
================================================================================
NAME = input.inp
|  1> %MaxCore 2000
|  2> 
|  3> ! XTB2 OPT ALPB(water)
|  4> 
|  5> %base "geo_opt"
|  6> 
|  7> * xyzfile 0 1 input.xyz
|  8> 
|  9> 
| 10>                          ****END OF INPUT****
================================================================================

                       *****************************
                       * Geometry Optimization Run *
                       *****************************

Geometry optimization settings:
Update method            Update   .... BFGS
Choice of coordinates    CoordSys .... (2022) Redundant Internals
Initial Hessian          InHess   .... Almloef's Model
Max. no of cycles        MaxIter  .... 81

Convergence Tolerances:
Energy Change            TolE     ....  5.0000e-06 Eh
Max. Gradient            TolMAXG  ....  3.0000e-04 Eh/bohr
RMS Gradient             TolRMSG  ....  1.0000e-04 Eh/bohr
Max. Displacement        TolMAXD  ....  4.0000e-03 bohr
RMS Displacement         TolRMSD  ....  2.0000e-03 bohr
Strict Convergence                .... False

------------------------------------------------------------------------------
                        ORCA OPTIMIZATION COORDINATE SETUP
------------------------------------------------------------------------------

The optimization will be done in redundant internal coordinates (2022)
Making redundant internal coordinates   ...  (2022 redundants) done
Evaluating the initial hessian          ...  (Almloef) done
Evaluating the coordinates              ...  done
Calculating the B-matrix                .... done
Calculating the G-matrix                .... done
The number of degrees of freedom        ....  138

    -----------------------------------------------------------------
                    Redundant Internal Coordinates


    -----------------------------------------------------------------
         Definition                    Initial Value    Approx d2E/dq
    -----------------------------------------------------------------
      1. B(C   1,N   0)                  1.4143         0.511739   
      2. B(C   2,C   1)                  1.4820         0.445551   
      3. B(C   3,C   2)                  1.4642         0.475788   
      4. B(C   4,C   3)                  1.4060         0.589168   
      5. B(N   5,C   4)                  1.3429         0.665322   
      6. B(C   6,N   5)                  1.3463         0.657148   
      7. B(C   7,C   6)                  1.3900         0.624763   
      8. B(C   8,C   7)                  1.3780         0.652847   
      9. B(C   9,C   8)                  1.3795         0.649417   
     10. B(C  10,C   9)                  1.3743         0.661788   
     11. B(C  11,C  10)                  1.3683         0.676625   
     12. B(C  11,C   6)                  1.3820         0.643529   
     13. B(C  11,C   3)                  1.3661         0.682130   
     14. B(C  12,C   1)                  1.5049         0.409643   
     15. B(O  13,C  12)                  1.2716         0.864642   
     16. B(O  14,C  12)                  1.3915         0.556531   
     17. B(H  15,N   0)                  1.0248         0.409864   
     18. B(H  16,N   0)                  1.0833         0.330561   
     19. B(H  17,N   0)                  1.0631         0.356034   
     20. B(H  18,C   1)                  1.1318         0.308796   
     21. B(H  19,C   2)                  1.1270         0.314340   
     22. B(H  20,C   2)                  1.1301         0.310720   
     23. B(H  21,C   4)                  1.0797         0.374003   
     24. B(H  22,N   5)                  1.0631         0.356069   
     25. B(H  23,C   7)                  1.0637         0.396673   
     26. B(H  24,C   8)                  1.0882         0.362526   
     27. B(H  25,C   9)                  1.0901         0.359903   
     28. B(H  26,C  10)                  1.0879         0.362856   
     29. A(H  16,N   0,H  17)          101.1216         0.281884   
     30. A(H  15,N   0,H  17)          112.6320         0.291504   
     31. A(H  15,N   0,H  16)          108.0904         0.288129   
     32. A(C   1,N   0,H  15)          118.9323         0.344056   
     33. A(C   1,N   0,H  16)          105.1014         0.331939   
     34. A(C   1,N   0,H  17)          109.1640         0.336056   
     35. A(C   2,C   1,C  12)          111.5379         0.380532   
     36. A(C   2,C   1,H  18)          105.6955         0.325520   
     37. A(N   0,C   1,C   2)          116.3161         0.393069   
     38. A(N   0,C   1,C  12)          109.7518         0.387341   
     39. A(N   0,C   1,H  18)          109.1207         0.331044   
     40. A(C  12,C   1,H  18)          103.5366         0.321064   
     41. A(C   1,C   2,C   3)          112.8263         0.390578   
     42. A(H  19,C   2,H  20)          102.9814         0.278299   
     43. A(C   3,C   2,H  20)          110.8399         0.329399   
     44. A(C   3,C   2,H  19)          111.7250         0.330030   
     45. A(C   1,C   2,H  20)          108.2649         0.325853   
     46. A(C   1,C   2,H  19)          109.7078         0.326474   
     47. A(C   2,C   3,C   4)          121.5700         0.410266   
     48. A(C   2,C   3,C  11)          134.1982         0.421098   
     49. A(C   4,C   3,C  11)          104.2052         0.437559   
     50. A(N   5,C   4,H  21)          122.5966         0.357241   
     51. A(C   3,C   4,H  21)          127.8743         0.352126   
     52. A(C   3,C   4,N   5)          109.5291         0.432744   
     53. A(C   6,N   5,H  22)          125.3370         0.350450   
     54. A(C   4,N   5,H  22)          125.5200         0.351182   
     55. A(C   4,N   5,C   6)          109.1429         0.438446   
     56. A(C   7,C   6,C  11)          121.5830         0.437591   
     57. A(N   5,C   6,C  11)          106.8389         0.438700   
     58. A(N   5,C   6,C   7)          131.5713         0.436365   
     59. A(C   6,C   7,C   8)          118.2855         0.438727   
     60. A(C   8,C   7,H  23)          121.9977         0.361921   
     61. A(C   6,C   7,H  23)          119.7167         0.359218   
     62. A(C   9,C   8,H  24)          116.0460         0.356098   
     63. A(C   7,C   8,H  24)          121.9782         0.356417   
     64. A(C   7,C   8,C   9)          121.9756         0.441804   
     65. A(C  10,C   9,H  25)          123.2327         0.356801   
     66. A(C   8,C   9,H  25)          119.7036         0.355659   
     67. A(C   8,C   9,C  10)          117.0637         0.442892   
     68. A(C   9,C  10,C  11)          123.9166         0.446194   
     69. A(C  11,C  10,H  26)          116.3215         0.358646   
     70. A(C   9,C  10,H  26)          119.7617         0.357297   
     71. A(C   3,C  11,C   6)          110.2838         0.444591   
     72. A(C   6,C  11,C  10)          117.1754         0.443940   
     73. A(C   3,C  11,C  10)          132.5315         0.448651   
     74. A(O  13,C  12,O  14)          120.9380         0.446111   
     75. A(C   1,C  12,O  14)          119.9170         0.393061   
     76. A(C   1,C  12,O  13)          119.1450         0.424946   
     77. D(C   2,C   1,N   0,H  16)    156.0514         0.024164   
     78. D(C  12,C   1,N   0,H  16)    -76.1595         0.024164   
     79. D(C   2,C   1,N   0,H  17)    -96.1727         0.024164   
     80. D(C  12,C   1,N   0,H  17)     31.6163         0.024164   
     81. D(C  12,C   1,N   0,H  15)    162.7325         0.024164   
     82. D(C   2,C   1,N   0,H  15)     34.9434         0.024164   
     83. D(H  19,C   2,C   1,H  18)    -64.3819         0.015682   
     84. D(C   3,C   2,C   1,H  18)     60.8832         0.015682   
     85. D(H  19,C   2,C   1,C  12)     47.4749         0.015682   
     86. D(C   3,C   2,C   1,C  12)    172.7400         0.015682   
     87. D(C   3,C   2,C   1,N   0)    -60.3528         0.015682   
     88. D(H  19,C   2,C   1,N   0)    174.3821         0.015682   
     89. D(C   4,C   3,C   2,H  20)    146.3184         0.016691   
     90. D(C   4,C   3,C   2,H  19)     32.0876         0.016691   
     91. D(C   4,C   3,C   2,C   1)    -92.0763         0.016691   
     92. D(C  11,C   3,C   2,H  19)   -150.1090         0.016691   
     93. D(C  11,C   3,C   2,C   1)     85.7271         0.016691   
     94. D(H  21,C   4,C   3,C  11)    179.8969         0.023884   
     95. D(H  21,C   4,C   3,C   2)     -1.7274         0.023884   
     96. D(N   5,C   4,C   3,C  11)     -0.0808         0.023884   
     97. D(N   5,C   4,C   3,C   2)    178.2950         0.023884   
     98. D(H  22,N   5,C   4,H  21)      0.2134         0.036275   
     99. D(H  22,N   5,C   4,C   3)   -179.8076         0.036275   
    100. D(C   6,N   5,C   4,H  21)   -179.9228         0.036275   
    101. D(C   6,N   5,C   4,C   3)      0.0563         0.036275   
    102. D(C  11,C   6,N   5,H  22)    179.8564         0.035311   
    103. D(C  11,C   6,N   5,C   4)     -0.0078         0.035311   
    104. D(C   7,C   6,N   5,C   4)    179.0263         0.035311   
    105. D(C   7,C   6,N   5,H  22)     -1.1096         0.035311   
    106. D(C   8,C   7,C   6,C  11)      0.1012         0.027035   
    107. D(C   8,C   7,C   6,N   5)   -178.8135         0.027035   
    108. D(H  23,C   7,C   6,C  11)   -179.8974         0.027035   
    109. D(H  23,C   7,C   6,N   5)      1.1879         0.027035   
    110. D(H  24,C   8,C   7,H  23)      0.1248         0.029694   
    111. D(H  24,C   8,C   7,C   6)   -179.8738         0.029694   
    112. D(C   9,C   8,C   7,H  23)    179.9883         0.029694   
    113. D(C   9,C   8,C   7,C   6)     -0.0103         0.029694   
    114. D(H  25,C   9,C   8,H  24)     -0.1114         0.029361   
    115. D(H  25,C   9,C   8,C   7)   -179.9825         0.029361   
    116. D(C  10,C   9,C   8,H  24)    179.8621         0.029361   
    117. D(C  10,C   9,C   8,C   7)     -0.0090         0.029361   
    118. D(H  26,C  10,C   9,H  25)      0.0544         0.030573   
    119. D(H  26,C  10,C   9,C   8)   -179.9181         0.030573   
    120. D(C  11,C  10,C   9,H  25)    179.9088         0.030573   
    121. D(C  11,C  10,C   9,C   8)     -0.0637         0.030573   
    122. D(C   6,C  11,C  10,H  26)   -179.9918         0.032067   
    123. D(C   6,C  11,C  10,C   9)      0.1493         0.032067   
    124. D(C   3,C  11,C  10,C   9)    178.9154         0.032067   
    125. D(C  10,C  11,C   6,C   7)     -0.1662         0.028795   
    126. D(C  10,C  11,C   6,N   5)    178.9855         0.028795   
    127. D(C   3,C  11,C   6,C   7)   -179.1968         0.028795   
    128. D(C   3,C  11,C   6,N   5)     -0.0452         0.028795   
    129. D(C  10,C  11,C   3,C   4)   -178.7537         0.032633   
    130. D(C   3,C  11,C  10,H  26)     -1.2257         0.032067   
    131. D(C  10,C  11,C   3,C   2)      3.1767         0.032633   
    132. D(C   6,C  11,C   3,C   4)      0.0761         0.032633   
    133. D(C   6,C  11,C   3,C   2)   -177.9935         0.032633   
    134. D(O  14,C  12,C   1,C   2)     21.3064         0.012429   
    135. D(O  14,C  12,C   1,N   0)   -109.0930         0.012429   
    136. D(O  13,C  12,C   1,H  18)    -45.4614         0.012429   
    137. D(O  13,C  12,C   1,C   2)   -158.6751         0.012429   
    138. D(O  13,C  12,C   1,N   0)     70.9255         0.012429   
    -----------------------------------------------------------------

Number of atoms                         .... 27
Number of degrees of freedom            .... 138


         *************************************************************
         *                GEOMETRY OPTIMIZATION CYCLE   1            *
         *************************************************************
---------------------------------
CARTESIAN COORDINATES (ANGSTROEM)
---------------------------------
  N     1.853087    0.405612    1.428271
  C     2.317005    0.024516    0.147687
  C     1.432969    0.352295   -0.995763
  C     0.118909   -0.286198   -0.899053
  C    -0.135388   -1.539348   -1.483633
  N    -1.397972   -1.911120   -1.217120
  C    -1.993481   -0.954899   -0.479950
  C    -3.282098   -0.852841    0.031118
  C    -3.614656    0.279546    0.742534
  C    -2.710938    1.299615    0.956343
  C    -1.452537    1.141316    0.427017
  C    -1.057209    0.043098   -0.287054
  C     3.711836    0.548125   -0.064529
  O     4.673812    0.028543    0.584706
  O     3.933764    1.587596   -0.962586
  H     0.848068    0.364013    1.624098
  H     2.358354   -0.257232    2.120282
  H     2.282573    1.342029    1.690621
  H     2.448890   -1.099283    0.120435
  H     1.951452    0.095352   -1.962859
  H     1.330556    1.476313   -1.053459
  H     0.540150   -2.149084   -2.064665
  H    -1.855270   -2.816719   -1.534730
  H    -3.978583   -1.639672   -0.133797
  H    -4.604987    0.421007    1.170731
  H    -3.013613    2.179092    1.524967
  H    -0.704692    1.918330    0.570387

----------------------------
CARTESIAN COORDINATES (A.U.)
----------------------------
  NO LB    ZA    FRAG    MASS        X           Y           Z
   0 N   7.0000    0    14.007    3.501827    0.766496    2.699040
   1 C   6.0000    0    12.011    4.378504    0.046329    0.279088
   2 C   6.0000    0    12.011    2.707919    0.665740   -1.881720
   3 C   6.0000    0    12.011    0.224706   -0.540836   -1.698963
   4 C   6.0000    0    12.011   -0.255847   -2.908947   -2.803660
   5 N   7.0000    0    14.007   -2.641785   -3.611494   -2.300024
   6 C   6.0000    0    12.011   -3.767132   -1.804497   -0.906973
   7 C   6.0000    0    12.011   -6.202266   -1.611637    0.058804
   8 C   6.0000    0    12.011   -6.830710    0.528264    1.403187
   9 C   6.0000    0    12.011   -5.122930    2.455917    1.807227
  10 C   6.0000    0    12.011   -2.744897    2.156774    0.806945
  11 C   6.0000    0    12.011   -1.997836    0.081443   -0.542454
  12 C   6.0000    0    12.011    7.014354    1.035806   -0.121942
  13 O   8.0000    0    15.999    8.832225    0.053938    1.104934
  14 O   8.0000    0    15.999    7.433736    3.000123   -1.819025
  15 H   1.0000    0     1.008    1.602617    0.687885    3.069101
  16 H   1.0000    0     1.008    4.456643   -0.486097    4.006753
  17 H   1.0000    0     1.008    4.313438    2.536067    3.194811
  18 H   1.0000    0     1.008    4.627732   -2.077344    0.227589
  19 H   1.0000    0     1.008    3.687709    0.180189   -3.709266
  20 H   1.0000    0     1.008    2.514386    2.789828   -1.990748
  21 H   1.0000    0     1.008    1.020735   -4.061180   -3.901651
  22 H   1.0000    0     1.008   -3.505952   -5.322828   -2.900220
  23 H   1.0000    0     1.008   -7.518433   -3.098531   -0.252840
  24 H   1.0000    0     1.008   -8.702164    0.795587    2.212362
  25 H   1.0000    0     1.008   -5.694904    4.117888    2.881770
  26 H   1.0000    0     1.008   -1.331674    3.625119    1.077875

      -----------------------------------------------------------      
     |                   =====================                   |     
     |                           x T B                           |     
     |                   =====================                   |     
     |                         S. Grimme                         |     
     |          Mulliken Center for Theoretical Chemistry        |     
     |                    University of Bonn                     |     
      -----------------------------------------------------------      

   * xtb version 6.7.1 (edcfbbe) compiled by 'albert@albert-system' on 2024-07-22

   xtb is free software: you can redistribute it and/or modify it under
   the terms of the GNU Lesser General Public License as published by
   the Free Software Foundation, either version 3 of the License, or
   (at your option) any later version.
   
   xtb is distributed in the hope that it will be useful,
   but WITHOUT ANY WARRANTY; without even the implied warranty of
   MERCHANTABILITY or FITNESS FOR A PARTICULAR PURPOSE.  See the
   GNU Lesser General Public License for more details.
   
   Cite this work as:
   * C. Bannwarth, E. Caldeweyher, S. Ehlert, A. Hansen, P. Pracht,
     J. Seibert, S. Spicher, S. Grimme, WIREs Comput. Mol. Sci., 2020, 11,
     e01493. DOI: 10.1002/wcms.1493
   
   for GFN2-xTB:
   * C. Bannwarth, S. Ehlert and S. Grimme., J. Chem. Theory Comput., 2019,
     15, 1652-1671. DOI: 10.1021/acs.jctc.8b01176
   for GFN1-xTB:
   * S. Grimme, C. Bannwarth, P. Shushkov, J. Chem. Theory Comput., 2017,
     13, 1989-2009. DOI: 10.1021/acs.jctc.7b00118
   for GFN0-xTB:
   * P. Pracht, E. Caldeweyher, S. Ehlert, S. Grimme, ChemRxiv, 2019, preprint.
     DOI: 10.26434/chemrxiv.8326202.v1
   for GFN-FF:
   * S. Spicher and S. Grimme, Angew. Chem. Int. Ed., 2020, 59, 15665-15673.
     DOI: 10.1002/anie.202004239
   
   for ALPB and GBSA implicit solvation:
   * S. Ehlert, M. Stahn, S. Spicher, S. Grimme, J. Chem. Theory Comput.,
     2021, 17, 4250-4261. DOI: 10.1021/acs.jctc.1c00471
   
   for ddCOSMO and CPCM-X implicit solvation:
   * M. Stahn, S. Ehlert, S. Grimme, J. Phys. Chem. A,
     2023, XX, XXXX-XXXX. DOI: 10.1021/acs.jpca.3c04382
   
   for DFT-D4:
   * E. Caldeweyher, C. Bannwarth and S. Grimme, J. Chem. Phys., 2017,
     147, 034112. DOI: 10.1063/1.4993215
   * E. Caldeweyher, S. Ehlert, A. Hansen, H. Neugebauer, S. Spicher,
     C. Bannwarth and S. Grimme, J. Chem. Phys., 2019, 150, 154122.
     DOI: 10.1063/1.5090222
   * E. Caldeweyher, J.-M. Mewes, S. Ehlert and S. Grimme, Phys. Chem. Chem. Phys.
     2020, 22, 8499-8512. DOI: 10.1039/D0CP00502A
   
   for sTDA-xTB:
   * S. Grimme and C. Bannwarth, J. Chem. Phys., 2016, 145, 054103.
     DOI: 10.1063/1.4959605
   
   in the mass-spec context:
   * V. Asgeirsson, C. Bauer and S. Grimme, Chem. Sci., 2017, 8, 4879.
     DOI: 10.1039/c7sc00601b
   * J. Koopman and S. Grimme, ACS Omega 2019, 4, 12, 15120-15133.
     DOI: 10.1021/acsomega.9b02011
   
   for metadynamics refer to:
   * S. Grimme, J. Chem. Theory Comput., 2019, 155, 2847-2862
     DOI: 10.1021/acs.jctc.9b00143
   
   for SPH calculations refer to:
   * S. Spicher and S. Grimme, J. Chem. Theory Comput., 2021, 17, 1701-1714
     DOI: 10.1021/acs.jctc.0c01306
   
   for ONIOM refer to:
   * C. Plett, A. Katbashev, S. Ehlert, S. Grimme, M. Bursch,
     Phys. Chem. Chem. Phys., 2023, 25, 17860-17868. DOI: 10.1039/D3CP02178E
   
   for DIPRO refer to:
   * J. Kohn, N. Gildemeister, S. Grimme, D. Fazzi, A. Hansen,
     J. Chem. Phys., 2023, just accepted.
   
   for PTB refer to:
   * S. Grimme, M. Mueller, A. Hansen, J. Chem. Phys., 2023, 158, 124111.
     DOI: 10.1063/5.0137838
   
   with help from (in alphabetical order)
   P. Atkinson, C. Bannwarth, F. Bohle, G. Brandenburg, E. Caldeweyher
   M. Checinski, S. Dohm, S. Ehlert, S. Ehrlich, I. Gerasimov, C. Hölzer
   A. Katbashev, J. Kohn, J. Koopman, C. Lavigne, S. Lehtola, F. März, M. Müller,
   F. Musil, H. Neugebauer, J. Pisarek, C. Plett, P. Pracht, F. Pultar,
   J. Seibert, P. Shushkov, S. Spicher, M. Stahn, M. Steiner, T. Strunk,
   J. Stückrath, T. Rose, and J. Unsleber
   
 * started run on 2026/04/09 at 18:40:48.338     
   ID    Z sym.   atoms
    1    7 N      1, 6
    2    6 C      2-5, 7-13
    3    8 O      14, 15
    4    1 H      16-27

           -------------------------------------------------
          |                Calculation Setup                |
           -------------------------------------------------

          program call               : /home/analima/Programs/orca-6.1.0-f.0_linux_x86-64/bin/otool_xtb geo_opt_XTB.xyz --grad -c 0 -u 0 -P 1 --namespace geo_opt --input geo_opt_XTB.input.tmp --alpb WATER --acc 0.200000
          calculation namespace      : geo_opt
          coordinate file            : geo_opt_XTB.xyz
          omp threads                :                     1


           -------------------------------------------------
          |                 G F N 2 - x T B                 |
           -------------------------------------------------

        Reference                      10.1021/acs.jctc.8b01176
      * Hamiltonian:
        H0-scaling (s, p, d)           1.850000    2.230000    2.230000
        zeta-weighting                 0.500000
      * Dispersion:
        s8                             2.700000
        a1                             0.520000
        a2                             5.000000
        s9                             5.000000
      * Repulsion:
        kExp                           1.500000    1.000000
        rExp                           1.000000
      * Coulomb:
        alpha                          2.000000
        third order                    shell-resolved
        anisotropic                    true
        a3                             3.000000
        a5                             4.000000
        cn-shift                       1.200000
        cn-exp                         4.000000
        max-rad                        5.000000

      * Solvation model:               ALPB
        Solvent                        WATER
        Parameter file                 internal GFN2-xTB/ALPB
        Dielectric constant                8.0200E+01
        Reference state                gsolv [1 M gas/solution]
        Free energy shift                  1.0808E-03 Eh       6.7819E-01 kcal/mol
        Temperature                        2.9815E+02 K
        Density                            1.0000E+00 kg/L
        Solvent mass                       1.8000E+01 g/mol
        Interaction kernel             P16
        Born radius scaling (c1)           1.4744E+00
        Born radii integrator          GBOBC
        Born offset                        0.0000E+00 a0       0.0000E+00 AA
        H-bond correction              true
        Ion screening                  false
        Surface tension                    1.0000E-05 Eh       1.5569E+01 dyn/cm
        Grid points                               230 per atom

          ...................................................
          :                      SETUP                      :
          :.................................................:
          :  # basis functions                  72          :
          :  # atomic orbitals                  72          :
          :  # shells                           42          :
          :  # electrons                        78          :
          :  max. iterations                   250          :
          :  Hamiltonian                  GFN2-xTB          :
          :  restarted?                      false          :
          :  GBSA solvation                   true          :
          :  PC potential                    false          :
          :  electronic temp.          300.0000000     K    :
          :  accuracy                    0.2000000          :
          :  -> integral cutoff          0.3198970E+02      :
          :  -> integral neglect         0.2000000E-08      :
          :  -> SCF convergence          0.2000000E-06 Eh   :
          :  -> wf. convergence          0.2000000E-04 e    :
          :  Broyden damping             0.4000000          :
          :  net charge                          0          :
          :  unpaired electrons                  0          :
          ...................................................

 iter      E             dE          RMSdq      gap      omega  full diag
   1    -44.0580741 -0.440581E+02  0.461E+00    2.42       0.0  T
   2    -44.2234327 -0.165359E+00  0.231E+00    2.21       1.0  T
   3    -44.2304486 -0.701588E-02  0.132E+00    3.28       1.0  T
   4    -44.2313739 -0.925269E-03  0.438E-01    3.38       1.0  T
   5    -44.2342640 -0.289009E-02  0.136E-01    3.42       1.0  T
   6    -44.2344147 -0.150773E-03  0.702E-02    3.42       1.0  T
   7    -44.2344337 -0.189235E-04  0.313E-02    3.42       1.0  T
   8    -44.2344414 -0.772002E-05  0.808E-03    3.42       2.4  T
   9    -44.2344417 -0.296511E-06  0.462E-03    3.42       4.2  T
  10    -44.2344418 -0.999398E-07  0.217E-03    3.42       8.9  T
  11    -44.2344418 -0.240241E-07  0.952E-04    3.42      20.2  T
  12    -44.2344418 -0.559101E-08  0.405E-04    3.42      47.5  T
  13    -44.2344418 -0.857817E-09  0.174E-04    3.42     110.5  T
  14    -44.2344418 -0.103981E-09  0.727E-05    3.42     264.6  T

   *** convergence criteria satisfied after 14 iterations ***

         #    Occupation            Energy/Eh            Energy/eV
      -------------------------------------------------------------
         1        2.0000           -0.7067171             -19.2307
       ...           ...                  ...                  ...
        33        2.0000           -0.4191588             -11.4059
        34        2.0000           -0.4131571             -11.2426
        35        2.0000           -0.3941059             -10.7242
        36        2.0000           -0.3904408             -10.6244
        37        2.0000           -0.3860320             -10.5045
        38        2.0000           -0.3748434             -10.2000
        39        2.0000           -0.3586453              -9.7592 (HOMO)
        40                         -0.2330231              -6.3409 (LUMO)
        41                         -0.2275093              -6.1908
        42                         -0.1921336              -5.2282
        43                         -0.1573124              -4.2807
        44                         -0.0588593              -1.6016
       ...                                ...                  ...
        72                          0.7999918              21.7689
      -------------------------------------------------------------
                  HL-Gap            0.1256222 Eh            3.4184 eV
             Fermi-level           -0.2958342 Eh           -8.0501 eV

 SCC (total)                   0 d,  0 h,  0 min,  0.021 sec
 SCC setup                      ...        0 min,  0.001 sec (  2.487%)
 Dispersion                     ...        0 min,  0.000 sec (  0.855%)
 classical contributions        ...        0 min,  0.000 sec (  0.155%)
 integral evaluation            ...        0 min,  0.002 sec (  9.269%)
 iterations                     ...        0 min,  0.014 sec ( 65.737%)
 molecular gradient             ...        0 min,  0.005 sec ( 21.204%)
 printout                       ...        0 min,  0.000 sec (  0.234%)

         :::::::::::::::::::::::::::::::::::::::::::::::::::::
         ::                     SUMMARY                     ::
         :::::::::::::::::::::::::::::::::::::::::::::::::::::
         :: total energy             -43.619675824917 Eh    ::
         :: total w/o Gsasa/hb       -43.610226286703 Eh    ::
         :: gradient norm              0.245345308212 Eh/a0 ::
         :: HOMO-LUMO gap              3.418353732035 eV    ::
         ::.................................................::
         :: SCC energy               -44.234288394929 Eh    ::
         :: -> isotropic ES            0.216435027874 Eh    ::
         :: -> anisotropic ES         -0.006174642047 Eh    ::
         :: -> anisotropic XC          0.018772916566 Eh    ::
         :: -> dispersion             -0.026260725116 Eh    ::
         :: -> Gsolv                  -0.091780464306 Eh    ::
         ::    -> Gelec               -0.082330926092 Eh    ::
         ::    -> Gsasa                0.002131710131 Eh    ::
         ::    -> Ghb                 -0.012662008044 Eh    ::
         ::    -> Gshift               0.001080759698 Eh    ::
         :: repulsion energy           0.614612570012 Eh    ::
         :: add. restraining           0.000000000000 Eh    ::
         :: total charge               0.000000000000 e     ::
         :::::::::::::::::::::::::::::::::::::::::::::::::::::


Property printout bound to 'properties.out'

           -------------------------------------------------
          | TOTAL ENERGY              -43.619675824917 Eh   |
          | GRADIENT NORM               0.245345308212 Eh/α |
          | HOMO-LUMO GAP               3.418353732035 eV   |
           -------------------------------------------------

------------------------------------------------------------------------
 * finished run on 2026/04/09 at 18:40:48.366     
------------------------------------------------------------------------
 total:
 * wall-time:     0 d,  0 h,  0 min,  0.028 sec
 *  cpu-time:     0 d,  0 h,  0 min,  0.021 sec
 * ratio c/w:     0.755 speedup
 SCF:
 * wall-time:     0 d,  0 h,  0 min,  0.021 sec
 *  cpu-time:     0 d,  0 h,  0 min,  0.015 sec
 * ratio c/w:     0.687 speedup


-------------------------   --------------------
FINAL SINGLE POINT ENERGY       -43.619675824920
-------------------------   --------------------


-------------
DIPOLE MOMENT
-------------
                                X             Y             Z
Total Dipole Moment    :     -5.15600      -2.31600       2.71400
                        -----------------------------------------
Magnitude (a.u.)       :      6.27009
Magnitude (Debye)      :     15.93729


------------------
CARTESIAN GRADIENT
------------------

   1   N   :   -0.027666699   -0.008260163   -0.071152728
   2   C   :   -0.017573916    0.048810435    0.029858849
   3   C   :    0.001737817   -0.046344723    0.032190926
   4   C   :   -0.022250870    0.056637789    0.039349482
   5   C   :   -0.019502130   -0.017504848   -0.003035659
   6   N   :    0.023782907    0.049215995    0.016545041
   7   C   :    0.024806445    0.016022355    0.001385799
   8   C   :   -0.002029380   -0.004098258   -0.001950066
   9   C   :    0.020306542    0.007381663   -0.003874609
  10   C   :   -0.011350777   -0.004347988    0.001577566
  11   C   :   -0.010275339   -0.043888454   -0.022204287
  12   C   :    0.017807059   -0.025829234   -0.020275879
  13   C   :   -0.079272544   -0.073783443    0.054928535
  14   O   :    0.034425942   -0.013818093    0.015887067
  15   O   :    0.025322746    0.082463460   -0.071136069
  16   H   :    0.003151659   -0.001479696    0.006132298
  17   H   :    0.017594337   -0.018484153    0.014787153
  18   H   :    0.017692845    0.013483969    0.006551657
  19   H   :    0.001853695   -0.013870689   -0.002208812
  20   H   :    0.008854891   -0.000744852   -0.018521066
  21   H   :   -0.000282304    0.016126747   -0.001548479
  22   H   :    0.003743075   -0.002532581   -0.002200332
  23   H   :   -0.016157649   -0.031158754   -0.010272089
  24   H   :    0.008627528    0.006721517    0.000726341
  25   H   :   -0.001376741    0.006675732    0.004246229
  26   H   :   -0.005386689    0.005376591    0.004972140
  27   H   :    0.003417550   -0.002770326   -0.000759008

Difference to translation invariance:
           :    0.0000000000   -0.0000000000   -0.0000000000

Difference to rotation invariance:
           :    0.0003341276    0.0002159225    0.0000137990

Norm of the Cartesian gradient     ...    0.2453453082
RMS gradient                       ...    0.0272605898
MAX gradient                       ...    0.0824634597
------------------------------------------------------------------------------
                         ORCA GEOMETRY RELAXATION STEP
------------------------------------------------------------------------------

Reading the OPT-File                    .... done
Getting information on internals        .... done
Copying old internal coords+grads       .... done
Making the new internal coordinates     .... (2022 redundants) done
Validating the new internal coordinates .... (2022 redundants) done
Calculating the B-matrix                .... done
Calculating the G,G- and P matrices     .... done
Transforming gradient to internals      .... done
Projecting the internal gradient        .... done
Number of atoms                         ....  27
Number of internal coordinates          .... 138
Current Energy                          ....   -43.619675825 Eh
Current gradient norm                   ....     0.245345308 Eh/bohr
Maximum allowed component of the step   ....  0.300
Current trust radius                    ....  0.300
Evaluating the initial hessian          ....  (Almloef) done
Projecting the Hessian                  .... done
Forming the augmented Hessian           .... done
Diagonalizing the augmented Hessian     .... done
Last element of RFO vector              ....  0.949088341
Lowest eigenvalues of augmented Hessian:
 -0.054787961  0.012429243  0.012556597  0.015682730  0.016691293
Length of the computed step             ....  0.331908022
Warning: the length of the step is outside the trust region - taking restricted step instead
The input lambda is                     ....     0.011429
   iter:   5  x=    0.003551  g=  126.052280 f(x)=     0.430477
   iter:  10  x=   -0.097379  g=    0.419137 f(x)=     0.005268
The output lambda is                    ....    -0.098154 (14 iterations)
The final length of the internal step   ....  0.300000000
Converting the step to Cartesian space:
 Initial RMS(Int)=    0.0255376959
Transforming coordinates:
 Iter   0:  RMS(Cart)=    0.0466270345 RMS(Int)=    1.0694639535
 Iter   5:  RMS(Cart)=    0.0000000082 RMS(Int)=    0.0000000064
done
Storing new coordinates                 .... done

                                .--------------------.
          ----------------------|Geometry convergence|-------------------------
          Item                value                   Tolerance       Converged
          ---------------------------------------------------------------------
          RMS gradient        0.0149014179            0.0001000000      NO
          MAX gradient        0.1115497921            0.0003000000      NO
          RMS step            0.0255376959            0.0020000000      NO
          MAX step            0.1703870687            0.0040000000      NO
          -------------------------------------------------------------------------
          ........................................................
          Max(Bonds)      0.0902      Max(Angles)    2.04
          Max(Dihed)        2.35      Max(Improp)    0.00
          ---------------------------------------------------------------------

The optimization has not yet converged - more geometry cycles are needed


    ---------------------------------------------------------------------------
                         Redundant Internal Coordinates
                            (Angstroem and degrees)

        Definition                    Value    dE/dq     Step     New-Value
    ----------------------------------------------------------------------------
     1. B(C   1,N   0)                1.4143 -0.047049  0.0408    1.4552   
     2. B(C   2,C   1)                1.4820 -0.030543  0.0297    1.5118   
     3. B(C   3,C   2)                1.4642 -0.019364  0.0179    1.4820   
     4. B(C   4,C   3)                1.4060  0.014326 -0.0119    1.3941   
     5. B(N   5,C   4)                1.3429 -0.018767  0.0118    1.3547   
     6. B(C   6,N   5)                1.3463 -0.016746  0.0117    1.3580   
     7. B(C   7,C   6)                1.3900 -0.002932  0.0020    1.3921   
     8. B(C   8,C   7)                1.3780 -0.000208 -0.0005    1.3775   
     9. B(C   9,C   8)                1.3795 -0.026375  0.0181    1.3976   
    10. B(C  10,C   9)                1.3743 -0.000948  0.0008    1.3751   
    11. B(C  11,C  10)                1.3683 -0.032368  0.0227    1.3910   
    12. B(C  11,C   6)                1.3820 -0.033648  0.0258    1.4077   
    13. B(C  11,C   3)                1.3661 -0.049041  0.0340    1.4001   
    14. B(C  12,C   1)                1.5049 -0.019839  0.0207    1.5256   
    15. B(O  13,C  12)                1.2716  0.039803 -0.0219    1.2497   
    16. B(O  14,C  12)                1.3915  0.111550 -0.0902    1.3013   
    17. B(H  15,N   0)                1.0248 -0.001858  0.0019    1.0267   
    18. B(H  16,N   0)                1.0833  0.028960 -0.0357    1.0476   
    19. B(H  17,N   0)                1.0631  0.020645 -0.0241    1.0390   
    20. B(H  18,C   1)                1.1318  0.014041 -0.0183    1.1136   
    21. B(H  19,C   2)                1.1270  0.020138 -0.0258    1.1012   
    22. B(H  20,C   2)                1.1301  0.016141 -0.0209    1.1093   
    23. B(H  21,C   4)                1.0797  0.004957 -0.0056    1.0741   
    24. B(H  22,N   5)                1.0631  0.036564 -0.0426    1.0205   
    25. B(H  23,C   7)                1.0637 -0.010734  0.0115    1.0751   
    26. B(H  24,C   8)                1.0882  0.003791 -0.0044    1.0838   
    27. B(H  25,C   9)                1.0901  0.008426 -0.0097    1.0804   
    28. B(H  26,C  10)                1.0879  0.000271 -0.0003    1.0876   
    29. A(H  16,N   0,H  17)          101.12 -0.001903    0.95    102.07   
    30. A(H  15,N   0,H  17)          112.63  0.002489   -0.90    111.73   
    31. A(H  15,N   0,H  16)          108.09 -0.000018    0.14    108.23   
    32. A(C   1,N   0,H  15)          118.93  0.012684   -1.89    117.05   
    33. A(C   1,N   0,H  16)          105.10 -0.011170    1.80    106.90   
    34. A(C   1,N   0,H  17)          109.16 -0.005336    0.57    109.74   
    35. A(C   2,C   1,C  12)          111.54 -0.006371    0.87    112.41   
    36. A(C   2,C   1,H  18)          105.70 -0.003681    0.74    106.44   
    37. A(N   0,C   1,C   2)          116.32  0.011816   -1.92    114.40   
    38. A(N   0,C   1,C  12)          109.75 -0.002046    0.11    109.86   
    39. A(N   0,C   1,H  18)          109.12 -0.001556    0.16    109.28   
    40. A(C  12,C   1,H  18)          103.54  0.000628    0.31    103.85   
    41. A(C   1,C   2,C   3)          112.83 -0.000424   -0.01    112.81   
    42. A(H  19,C   2,H  20)          102.98 -0.002188    0.47    103.46   
    43. A(C   3,C   2,H  20)          110.84  0.001024   -0.02    110.82   
    44. A(C   3,C   2,H  19)          111.72  0.000625   -0.22    111.50   
    45. A(C   1,C   2,H  20)          108.26 -0.000883    0.22    108.48   
    46. A(C   1,C   2,H  19)          109.71  0.001678   -0.38    109.32   
    47. A(C   2,C   3,C   4)          121.57 -0.008355    0.93    122.50   
    48. A(C   2,C   3,C  11)          134.20  0.014950   -1.66    132.54   
    49. A(C   4,C   3,C  11)          104.21 -0.006594    0.73    104.93   
    50. A(N   5,C   4,H  21)          122.60  0.004329   -0.37    122.23   
    51. A(C   3,C   4,H  21)          127.87  0.002917   -0.19    127.68   
    52. A(C   3,C   4,N   5)          109.53 -0.007247    0.56    110.09   
    53. A(C   6,N   5,H  22)          125.34  0.000918   -0.02    125.32   
    54. A(C   4,N   5,H  22)          125.52  0.002245   -0.19    125.33   
    55. A(C   4,N   5,C   6)          109.14 -0.003164    0.21    109.35   
    56. A(C   7,C   6,C  11)          121.58 -0.000210    0.04    121.62   
    57. A(N   5,C   6,C  11)          106.84  0.001242   -0.00    106.84   
    58. A(N   5,C   6,C   7)          131.57 -0.001035   -0.04    131.53   
    59. A(C   6,C   7,C   8)          118.29  0.001270   -0.22    118.07   
    60. A(C   8,C   7,H  23)          122.00  0.001583   -0.17    121.83   
    61. A(C   6,C   7,H  23)          119.72 -0.002852    0.39    120.10   
    62. A(C   9,C   8,H  24)          116.05 -0.006108    0.86    116.90   
    63. A(C   7,C   8,H  24)          121.98  0.008444   -0.98    121.00   
    64. A(C   7,C   8,C   9)          121.98 -0.002337    0.12    122.09   
    65. A(C  10,C   9,H  25)          123.23  0.010163   -1.17    122.06   
    66. A(C   8,C   9,H  25)          119.70  0.003150   -0.29    119.41   
    67. A(C   8,C   9,C  10)          117.06 -0.013312    1.46    118.53   
    68. A(C   9,C  10,C  11)          123.92  0.019779   -2.04    121.88   
    69. A(C  11,C  10,H  26)          116.32 -0.014164    1.55    117.88   
    70. A(C   9,C  10,H  26)          119.76 -0.005616    0.48    120.25   
    71. A(C   3,C  11,C   6)          110.28  0.015762   -1.49    108.79   
    72. A(C   6,C  11,C  10)          117.18 -0.005190    0.63    117.81   
    73. A(C   3,C  11,C  10)          132.53 -0.010572    0.86    133.39   
    74. A(O  13,C  12,O  14)          120.94 -0.011653    1.26    122.20   
    75. A(C   1,C  12,O  14)          119.92  0.008244   -0.92    118.99   
    76. A(C   1,C  12,O  13)          119.15  0.003408   -0.34    118.81   
    77. D(C   2,C   1,N   0,H  16)    156.05  0.001844    0.23    156.29   
    78. D(C  12,C   1,N   0,H  16)    -76.16  0.001006   -0.06    -76.22   
    79. D(C   2,C   1,N   0,H  17)    -96.17 -0.007455    2.35    -93.83   
    80. D(C  12,C   1,N   0,H  17)     31.62 -0.008294    2.05     33.67   
    81. D(C  12,C   1,N   0,H  15)    162.73  0.001831   -0.47    162.26   
    82. D(C   2,C   1,N   0,H  15)     34.94  0.002670   -0.17     34.77   
    83. D(H  19,C   2,C   1,H  18)    -64.38  0.001324   -0.21    -64.59   
    84. D(C   3,C   2,C   1,H  18)     60.88  0.003122   -0.80     60.08   
    85. D(H  19,C   2,C   1,C  12)     47.47 -0.002859    0.96     48.43   
    86. D(C   3,C   2,C   1,C  12)    172.74 -0.001061    0.36    173.10   
    87. D(C   3,C   2,C   1,N   0)    -60.35  0.000443   -0.35    -60.71   
    88. D(H  19,C   2,C   1,N   0)    174.38 -0.001355    0.24    174.63   
    89. D(C   4,C   3,C   2,H  20)    146.32 -0.000235    0.02    146.34   
    90. D(C   4,C   3,C   2,H  19)     32.09  0.001462   -0.42     31.67   
    91. D(C   4,C   3,C   2,C   1)    -92.08 -0.000930    0.27    -91.80   
    92. D(C  11,C   3,C   2,H  19)   -150.11  0.001286   -0.40   -150.51   
    93. D(C  11,C   3,C   2,C   1)     85.73 -0.001106    0.29     86.02   
    94. D(H  21,C   4,C   3,C  11)    179.90  0.000161   -0.10    179.80   
    95. D(H  21,C   4,C   3,C   2)     -1.73  0.000491   -0.14     -1.87   
    96. D(N   5,C   4,C   3,C  11)     -0.08 -0.000014    0.01     -0.07   
    97. D(N   5,C   4,C   3,C   2)    178.29  0.000316   -0.03    178.26   
    98. D(H  22,N   5,C   4,H  21)      0.21 -0.000003    0.02      0.23   
    99. D(H  22,N   5,C   4,C   3)   -179.81  0.000161   -0.08   -179.89   
   100. D(C   6,N   5,C   4,H  21)   -179.92 -0.000117    0.10   -179.83   
   101. D(C   6,N   5,C   4,C   3)      0.06  0.000047   -0.00      0.05   
   102. D(C  11,C   6,N   5,H  22)    179.86 -0.000183    0.08    179.93   
   103. D(C  11,C   6,N   5,C   4)     -0.01 -0.000072   -0.00     -0.01   
   104. D(C   7,C   6,N   5,C   4)    179.03 -0.000246    0.08    179.10   
   105. D(C   7,C   6,N   5,H  22)     -1.11 -0.000357    0.16     -0.95   
   106. D(C   8,C   7,C   6,C  11)      0.10  0.000008    0.01      0.12   
   107. D(C   8,C   7,C   6,N   5)   -178.81  0.000194   -0.07   -178.89   
   108. D(H  23,C   7,C   6,C  11)   -179.90  0.000075   -0.03   -179.93   
   109. D(H  23,C   7,C   6,N   5)      1.19  0.000261   -0.12      1.07   
   110. D(H  24,C   8,C   7,H  23)      0.12  0.000130   -0.05      0.07   
   111. D(H  24,C   8,C   7,C   6)   -179.87  0.000199   -0.09   -179.97   
   112. D(C   9,C   8,C   7,H  23)    179.99 -0.000190    0.09    180.08   
   113. D(C   9,C   8,C   7,C   6)     -0.01 -0.000121    0.04      0.03   
   114. D(H  25,C   9,C   8,H  24)     -0.11  0.000132   -0.05     -0.16   
   115. D(H  25,C   9,C   8,C   7)   -179.98  0.000416   -0.18   -180.16   
   116. D(C  10,C   9,C   8,H  24)    179.86 -0.000168    0.07    179.93   
   117. D(C  10,C   9,C   8,C   7)     -0.01  0.000116   -0.06     -0.07   
   118. D(H  26,C  10,C   9,H  25)      0.05  0.000508   -0.21     -0.16   
   119. D(H  26,C  10,C   9,C   8)   -179.92  0.000822   -0.34   -180.25   
   120. D(C  11,C  10,C   9,H  25)    179.91 -0.000320    0.14    180.05   
   121. D(C  11,C  10,C   9,C   8)     -0.06 -0.000005    0.02     -0.04   
   122. D(C   6,C  11,C  10,H  26)   -179.99 -0.000890    0.38   -179.61   
   123. D(C   6,C  11,C  10,C   9)      0.15 -0.000098    0.04      0.18   
   124. D(C   3,C  11,C  10,C   9)    178.92  0.000124    0.01    178.93   
   125. D(C  10,C  11,C   6,C   7)     -0.17  0.000119   -0.05     -0.22   
   126. D(C  10,C  11,C   6,N   5)    178.99 -0.000045    0.01    179.00   
   127. D(C   3,C  11,C   6,C   7)   -179.20  0.000207   -0.06   -179.26   
   128. D(C   3,C  11,C   6,N   5)     -0.05  0.000043    0.01     -0.04   
   129. D(C  10,C  11,C   3,C   4)   -178.75 -0.000056   -0.01   -178.76   
   130. D(C   3,C  11,C  10,H  26)     -1.23 -0.000668    0.36     -0.87   
   131. D(C  10,C  11,C   3,C   2)      3.18  0.000215   -0.03      3.14   
   132. D(C   6,C  11,C   3,C   4)      0.08 -0.000018   -0.01      0.07   
   133. D(C   6,C  11,C   3,C   2)   -177.99  0.000253   -0.04   -178.03   
   134. D(O  14,C  12,C   1,C   2)     21.31  0.003409   -0.31     20.99   
   135. D(O  14,C  12,C   1,N   0)   -109.09 -0.005648    1.47   -107.62   
   136. D(O  13,C  12,C   1,H  18)    -45.46  0.000124   -0.47    -45.93   
   137. D(O  13,C  12,C   1,C   2)   -158.68  0.006800   -1.87   -160.55   
   138. D(O  13,C  12,C   1,N   0)     70.93 -0.002257   -0.08     70.85   
    ----------------------------------------------------------------------------

Geometry step timings:
Preparation and reading OPT file:      0.000 s ( 0.435 %)
Internal coordinates            :      0.000 s ( 0.402 %)
B/P matrices and projection     :      0.001 s (30.422 %)
Hessian update/contruction      :      0.000 s (10.843 %)
Making the step                 :      0.001 s (46.787 %)
Converting the step to Cartesian:      0.000 s ( 3.079 %)
Storing new data                :      0.000 s ( 0.469 %)
Checking convergence            :      0.000 s ( 0.469 %)
Final printing                  :      0.000 s ( 7.062 %)
Total time                      :      0.003 s

Time for energy+gradient        :      0.031 s
Time for complete geometry iter :      0.034 s

         *************************************************************
         *                GEOMETRY OPTIMIZATION CYCLE   2            *
         *************************************************************
---------------------------------
CARTESIAN COORDINATES (ANGSTROEM)
---------------------------------
  N     1.853498    0.414164    1.431434
  C     2.361937    0.009406    0.129455
  C     1.452289    0.348953   -1.029286
  C     0.125853   -0.304424   -0.929061
  C    -0.143385   -1.545216   -1.504636
  N    -1.415258   -1.920214   -1.227553
  C    -2.014169   -0.959562   -0.477497
  C    -3.301838   -0.863650    0.042530
  C    -3.628636    0.266271    0.759491
  C    -2.713601    1.300961    0.972687
  C    -1.448655    1.177874    0.447466
  C    -1.061910    0.058864   -0.282799
  C     3.776273    0.547343   -0.064680
  O     4.707198    0.048220    0.603127
  O     3.968793    1.529518   -0.896383
  H     0.837880    0.362196    1.572614
  H     2.315327   -0.200346    2.143094
  H     2.228356    1.351295    1.678146
  H     2.493051   -1.096315    0.113504
  H     1.956612    0.095584   -1.974811
  H     1.345597    1.451850   -1.081122
  H     0.518887   -2.154830   -2.090749
  H    -1.854404   -2.788998   -1.533687
  H    -4.009513   -1.656587   -0.119922
  H    -4.617257    0.390250    1.186007
  H    -3.017124    2.169184    1.539571
  H    -0.715800    1.968209    0.593061

----------------------------
CARTESIAN COORDINATES (A.U.)
----------------------------
  NO LB    ZA    FRAG    MASS        X           Y           Z
   0 N   7.0000    0    14.007    3.502604    0.782656    2.705019
   1 C   6.0000    0    12.011    4.463414    0.017774    0.244635
   2 C   6.0000    0    12.011    2.744428    0.659425   -1.945069
   3 C   6.0000    0    12.011    0.237827   -0.575278   -1.755671
   4 C   6.0000    0    12.011   -0.270958   -2.920036   -2.843350
   5 N   7.0000    0    14.007   -2.674450   -3.628678   -2.319739
   6 C   6.0000    0    12.011   -3.806228   -1.813309   -0.902338
   7 C   6.0000    0    12.011   -6.239570   -1.632062    0.080370
   8 C   6.0000    0    12.011   -6.857128    0.503180    1.435229
   9 C   6.0000    0    12.011   -5.127962    2.458460    1.838112
  10 C   6.0000    0    12.011   -2.737562    2.225860    0.845588
  11 C   6.0000    0    12.011   -2.006719    0.111236   -0.534412
  12 C   6.0000    0    12.011    7.136121    1.034328   -0.122228
  13 O   8.0000    0    15.999    8.895316    0.091123    1.139744
  14 O   8.0000    0    15.999    7.499932    2.890370   -1.693919
  15 H   1.0000    0     1.008    1.583364    0.684452    2.971809
  16 H   1.0000    0     1.008    4.375333   -0.378598    4.049860
  17 H   1.0000    0     1.008    4.210983    2.553577    3.171237
  18 H   1.0000    0     1.008    4.711183   -2.071735    0.214491
  19 H   1.0000    0     1.008    3.697461    0.180627   -3.731852
  20 H   1.0000    0     1.008    2.542809    2.743599   -2.043025
  21 H   1.0000    0     1.008    0.980554   -4.072039   -3.950942
  22 H   1.0000    0     1.008   -3.504316   -5.270442   -2.898249
  23 H   1.0000    0     1.008   -7.576882   -3.130496   -0.226619
  24 H   1.0000    0     1.008   -8.725352    0.737466    2.241229
  25 H   1.0000    0     1.008   -5.701538    4.099164    2.909368
  26 H   1.0000    0     1.008   -1.352666    3.719376    1.120723

      -----------------------------------------------------------      
     |                   =====================                   |     
     |                           x T B                           |     
     |                   =====================                   |     
     |                         S. Grimme                         |     
     |          Mulliken Center for Theoretical Chemistry        |     
     |                    University of Bonn                     |     
      -----------------------------------------------------------      

   * xtb version 6.7.1 (edcfbbe) compiled by 'albert@albert-system' on 2024-07-22

   xtb is free software: you can redistribute it and/or modify it under
   the terms of the GNU Lesser General Public License as published by
   the Free Software Foundation, either version 3 of the License, or
   (at your option) any later version.
   
   xtb is distributed in the hope that it will be useful,
   but WITHOUT ANY WARRANTY; without even the implied warranty of
   MERCHANTABILITY or FITNESS FOR A PARTICULAR PURPOSE.  See the
   GNU Lesser General Public License for more details.
   
   Cite this work as:
   * C. Bannwarth, E. Caldeweyher, S. Ehlert, A. Hansen, P. Pracht,
     J. Seibert, S. Spicher, S. Grimme, WIREs Comput. Mol. Sci., 2020, 11,
     e01493. DOI: 10.1002/wcms.1493
   
   for GFN2-xTB:
   * C. Bannwarth, S. Ehlert and S. Grimme., J. Chem. Theory Comput., 2019,
     15, 1652-1671. DOI: 10.1021/acs.jctc.8b01176
   for GFN1-xTB:
   * S. Grimme, C. Bannwarth, P. Shushkov, J. Chem. Theory Comput., 2017,
     13, 1989-2009. DOI: 10.1021/acs.jctc.7b00118
   for GFN0-xTB:
   * P. Pracht, E. Caldeweyher, S. Ehlert, S. Grimme, ChemRxiv, 2019, preprint.
     DOI: 10.26434/chemrxiv.8326202.v1
   for GFN-FF:
   * S. Spicher and S. Grimme, Angew. Chem. Int. Ed., 2020, 59, 15665-15673.
     DOI: 10.1002/anie.202004239
   
   for ALPB and GBSA implicit solvation:
   * S. Ehlert, M. Stahn, S. Spicher, S. Grimme, J. Chem. Theory Comput.,
     2021, 17, 4250-4261. DOI: 10.1021/acs.jctc.1c00471
   
   for ddCOSMO and CPCM-X implicit solvation:
   * M. Stahn, S. Ehlert, S. Grimme, J. Phys. Chem. A,
     2023, XX, XXXX-XXXX. DOI: 10.1021/acs.jpca.3c04382
   
   for DFT-D4:
   * E. Caldeweyher, C. Bannwarth and S. Grimme, J. Chem. Phys., 2017,
     147, 034112. DOI: 10.1063/1.4993215
   * E. Caldeweyher, S. Ehlert, A. Hansen, H. Neugebauer, S. Spicher,
     C. Bannwarth and S. Grimme, J. Chem. Phys., 2019, 150, 154122.
     DOI: 10.1063/1.5090222
   * E. Caldeweyher, J.-M. Mewes, S. Ehlert and S. Grimme, Phys. Chem. Chem. Phys.
     2020, 22, 8499-8512. DOI: 10.1039/D0CP00502A
   
   for sTDA-xTB:
   * S. Grimme and C. Bannwarth, J. Chem. Phys., 2016, 145, 054103.
     DOI: 10.1063/1.4959605
   
   in the mass-spec context:
   * V. Asgeirsson, C. Bauer and S. Grimme, Chem. Sci., 2017, 8, 4879.
     DOI: 10.1039/c7sc00601b
   * J. Koopman and S. Grimme, ACS Omega 2019, 4, 12, 15120-15133.
     DOI: 10.1021/acsomega.9b02011
   
   for metadynamics refer to:
   * S. Grimme, J. Chem. Theory Comput., 2019, 155, 2847-2862
     DOI: 10.1021/acs.jctc.9b00143
   
   for SPH calculations refer to:
   * S. Spicher and S. Grimme, J. Chem. Theory Comput., 2021, 17, 1701-1714
     DOI: 10.1021/acs.jctc.0c01306
   
   for ONIOM refer to:
   * C. Plett, A. Katbashev, S. Ehlert, S. Grimme, M. Bursch,
     Phys. Chem. Chem. Phys., 2023, 25, 17860-17868. DOI: 10.1039/D3CP02178E
   
   for DIPRO refer to:
   * J. Kohn, N. Gildemeister, S. Grimme, D. Fazzi, A. Hansen,
     J. Chem. Phys., 2023, just accepted.
   
   for PTB refer to:
   * S. Grimme, M. Mueller, A. Hansen, J. Chem. Phys., 2023, 158, 124111.
     DOI: 10.1063/5.0137838
   
   with help from (in alphabetical order)
   P. Atkinson, C. Bannwarth, F. Bohle, G. Brandenburg, E. Caldeweyher
   M. Checinski, S. Dohm, S. Ehlert, S. Ehrlich, I. Gerasimov, C. Hölzer
   A. Katbashev, J. Kohn, J. Koopman, C. Lavigne, S. Lehtola, F. März, M. Müller,
   F. Musil, H. Neugebauer, J. Pisarek, C. Plett, P. Pracht, F. Pultar,
   J. Seibert, P. Shushkov, S. Spicher, M. Stahn, M. Steiner, T. Strunk,
   J. Stückrath, T. Rose, and J. Unsleber
   
 * started run on 2026/04/09 at 18:40:48.372     
   ID    Z sym.   atoms
    1    7 N      1, 6
    2    6 C      2-5, 7-13
    3    8 O      14, 15
    4    1 H      16-27

           -------------------------------------------------
          |                Calculation Setup                |
           -------------------------------------------------

          program call               : /home/analima/Programs/orca-6.1.0-f.0_linux_x86-64/bin/otool_xtb geo_opt_XTB.xyz --grad -c 0 -u 0 -P 1 --namespace geo_opt --input geo_opt_XTB.input.tmp --alpb WATER --acc 0.200000
          calculation namespace      : geo_opt
          coordinate file            : geo_opt_XTB.xyz
          omp threads                :                     1


           -------------------------------------------------
          |                 G F N 2 - x T B                 |
           -------------------------------------------------

        Reference                      10.1021/acs.jctc.8b01176
      * Hamiltonian:
        H0-scaling (s, p, d)           1.850000    2.230000    2.230000
        zeta-weighting                 0.500000
      * Dispersion:
        s8                             2.700000
        a1                             0.520000
        a2                             5.000000
        s9                             5.000000
      * Repulsion:
        kExp                           1.500000    1.000000
        rExp                           1.000000
      * Coulomb:
        alpha                          2.000000
        third order                    shell-resolved
        anisotropic                    true
        a3                             3.000000
        a5                             4.000000
        cn-shift                       1.200000
        cn-exp                         4.000000
        max-rad                        5.000000

      * Solvation model:               ALPB
        Solvent                        WATER
        Parameter file                 internal GFN2-xTB/ALPB
        Dielectric constant                8.0200E+01
        Reference state                gsolv [1 M gas/solution]
        Free energy shift                  1.0808E-03 Eh       6.7819E-01 kcal/mol
        Temperature                        2.9815E+02 K
        Density                            1.0000E+00 kg/L
        Solvent mass                       1.8000E+01 g/mol
        Interaction kernel             P16
        Born radius scaling (c1)           1.4744E+00
        Born radii integrator          GBOBC
        Born offset                        0.0000E+00 a0       0.0000E+00 AA
        H-bond correction              true
        Ion screening                  false
        Surface tension                    1.0000E-05 Eh       1.5569E+01 dyn/cm
        Grid points                               230 per atom
q/qsh data taken from xtbrestart
CAMM data taken from xtbrestart

          ...................................................
          :                      SETUP                      :
          :.................................................:
          :  # basis functions                  72          :
          :  # atomic orbitals                  72          :
          :  # shells                           42          :
          :  # electrons                        78          :
          :  max. iterations                   250          :
          :  Hamiltonian                  GFN2-xTB          :
          :  restarted?                       true          :
          :  GBSA solvation                   true          :
          :  PC potential                    false          :
          :  electronic temp.          300.0000000     K    :
          :  accuracy                    0.2000000          :
          :  -> integral cutoff          0.3198970E+02      :
          :  -> integral neglect         0.2000000E-08      :
          :  -> SCF convergence          0.2000000E-06 Eh   :
          :  -> wf. convergence          0.2000000E-04 e    :
          :  Broyden damping             0.4000000          :
          :  net charge                          0          :
          :  unpaired electrons                  0          :
          ...................................................

 iter      E             dE          RMSdq      gap      omega  full diag
   1    -44.2662845 -0.442663E+02  0.367E-01    3.46       0.0  T
   2    -44.2676743 -0.138981E-02  0.210E-01    3.46       1.0  T
   3    -44.2677683 -0.940527E-04  0.115E-01    3.47       1.0  T
   4    -44.2677753 -0.696366E-05  0.393E-02    3.47       1.0  T
   5    -44.2677866 -0.112961E-04  0.126E-02    3.47       1.5  T
   6    -44.2677891 -0.253035E-05  0.581E-03    3.47       3.3  T
   7    -44.2677892 -0.930385E-07  0.176E-03    3.47      10.9  T
   8    -44.2677892 -0.126350E-07  0.828E-04    3.47      23.2  T
   9    -44.2677892 -0.247388E-08  0.371E-04    3.47      51.9  T
  10    -44.2677892 -0.879226E-09  0.161E-04    3.47     119.5  T
  11    -44.2677892 -0.153427E-09  0.581E-05    3.47     331.1  T

   *** convergence criteria satisfied after 11 iterations ***

         #    Occupation            Energy/Eh            Energy/eV
      -------------------------------------------------------------
         1        2.0000           -0.6982510             -19.0004
       ...           ...                  ...                  ...
        33        2.0000           -0.4174949             -11.3606
        34        2.0000           -0.4147494             -11.2859
        35        2.0000           -0.4001850             -10.8896
        36        2.0000           -0.3851346             -10.4800
        37        2.0000           -0.3839172             -10.4469
        38        2.0000           -0.3778841             -10.2827
        39        2.0000           -0.3601649              -9.8006 (HOMO)
        40                         -0.2327545              -6.3336 (LUMO)
        41                         -0.2048732              -5.5749
        42                         -0.1968622              -5.3569
        43                         -0.1599913              -4.3536
        44                         -0.0695673              -1.8930
       ...                                ...                  ...
        72                          0.7362942              20.0356
      -------------------------------------------------------------
                  HL-Gap            0.1274104 Eh            3.4670 eV
             Fermi-level           -0.2964597 Eh           -8.0671 eV

 SCC (total)                   0 d,  0 h,  0 min,  0.015 sec
 SCC setup                      ...        0 min,  0.001 sec (  3.595%)
 Dispersion                     ...        0 min,  0.000 sec (  1.130%)
 classical contributions        ...        0 min,  0.000 sec (  0.217%)
 integral evaluation            ...        0 min,  0.003 sec ( 19.522%)
 iterations                     ...        0 min,  0.006 sec ( 43.938%)
 molecular gradient             ...        0 min,  0.005 sec ( 31.033%)
 printout                       ...        0 min,  0.000 sec (  0.490%)

         :::::::::::::::::::::::::::::::::::::::::::::::::::::
         ::                     SUMMARY                     ::
         :::::::::::::::::::::::::::::::::::::::::::::::::::::
         :: total energy             -43.656473451097 Eh    ::
         :: total w/o Gsasa/hb       -43.647421323299 Eh    ::
         :: gradient norm              0.131058548467 Eh/a0 ::
         :: HOMO-LUMO gap              3.467014455789 eV    ::
         ::.................................................::
         :: SCC energy               -44.267633869767 Eh    ::
         :: -> isotropic ES            0.206490215910 Eh    ::
         :: -> anisotropic ES         -0.006117048836 Eh    ::
         :: -> anisotropic XC          0.016949764115 Eh    ::
         :: -> dispersion             -0.026089105786 Eh    ::
         :: -> Gsolv                  -0.086265385808 Eh    ::
         ::    -> Gelec               -0.077213258009 Eh    ::
         ::    -> Gsasa                0.002033797237 Eh    ::
         ::    -> Ghb                 -0.012166684734 Eh    ::
         ::    -> Gshift               0.001080759698 Eh    ::
         :: repulsion energy           0.611160418669 Eh    ::
         :: add. restraining           0.000000000000 Eh    ::
         :: total charge               0.000000000000 e     ::
         :::::::::::::::::::::::::::::::::::::::::::::::::::::


Property printout bound to 'properties.out'

           -------------------------------------------------
          | TOTAL ENERGY              -43.656473451097 Eh   |
          | GRADIENT NORM               0.131058548467 Eh/α |
          | HOMO-LUMO GAP               3.467014455789 eV   |
           -------------------------------------------------

------------------------------------------------------------------------
 * finished run on 2026/04/09 at 18:40:48.393     
------------------------------------------------------------------------
 total:
 * wall-time:     0 d,  0 h,  0 min,  0.021 sec
 *  cpu-time:     0 d,  0 h,  0 min,  0.019 sec
 * ratio c/w:     0.931 speedup
 SCF:
 * wall-time:     0 d,  0 h,  0 min,  0.015 sec
 *  cpu-time:     0 d,  0 h,  0 min,  0.013 sec
 * ratio c/w:     0.909 speedup


-------------------------   --------------------
FINAL SINGLE POINT ENERGY       -43.656473451100
-------------------------   --------------------


-------------
DIPOLE MOMENT
-------------
                                X             Y             Z
Total Dipole Moment    :     -5.17800      -2.05900       2.45000
                        -----------------------------------------
Magnitude (a.u.)       :      6.08717
Magnitude (Debye)      :     15.47236


------------------
CARTESIAN GRADIENT
------------------

   1   N   :   -0.016718701   -0.002858872   -0.034378819
   2   C   :    0.000103873    0.032414865    0.015645515
   3   C   :    0.003290886   -0.029542458    0.008554341
   4   C   :   -0.007095411    0.035789458    0.020687464
   5   C   :   -0.008050775   -0.015330659   -0.005912246
   6   N   :    0.009408638    0.016635980    0.004525210
   7   C   :    0.004389497    0.003493081    0.001943507
   8   C   :   -0.001931562   -0.000887145   -0.000231535
   9   C   :    0.007028310   -0.000967749   -0.003501367
  10   C   :   -0.004394486    0.007250874    0.005361236
  11   C   :   -0.009465660   -0.018605799   -0.008633918
  12   C   :    0.011396164   -0.014240976   -0.011928948
  13   C   :   -0.043478291   -0.053452303    0.035089261
  14   O   :    0.012941564    0.004031340   -0.001714764
  15   O   :    0.016861925    0.040662382   -0.032009757
  16   H   :    0.002227547   -0.000710753    0.006604190
  17   H   :    0.007353756   -0.004940761    0.006790375
  18   H   :    0.009697847    0.002228350    0.005438181
  19   H   :    0.002411131   -0.007199769   -0.003297038
  20   H   :    0.002633763    0.003140232   -0.007365518
  21   H   :    0.000569618    0.006722135   -0.002336554
  22   H   :    0.001727102   -0.000243073   -0.000380667
  23   H   :   -0.004715330   -0.009034918   -0.002679178
  24   H   :    0.002947904    0.001133260   -0.000225358
  25   H   :   -0.000433653    0.003847490    0.002372112
  26   H   :   -0.002276686    0.000882934    0.001447570
  27   H   :    0.003571030   -0.000217148    0.000136706

Difference to translation invariance:
           :    0.0000000000    0.0000000000    0.0000000000

Difference to rotation invariance:
           :    0.0003410880    0.0000103766   -0.0000713347

Norm of the Cartesian gradient     ...    0.1310585485
RMS gradient                       ...    0.0145620609
MAX gradient                       ...    0.0534523025
------------------------------------------------------------------------------
                         ORCA GEOMETRY RELAXATION STEP
------------------------------------------------------------------------------

Reading the OPT-File                    .... done
Getting information on internals        .... done
Copying old internal coords+grads       .... done
Making the new internal coordinates     .... (2022 redundants) done
Validating the new internal coordinates .... (2022 redundants) done
Calculating the B-matrix                .... done
Calculating the G,G- and P matrices     .... done
Transforming gradient to internals      .... done
Projecting the internal gradient        .... done
Number of atoms                         ....  27
Number of internal coordinates          .... 138
Current Energy                          ....   -43.656473451 Eh
Current gradient norm                   ....     0.131058548 Eh/bohr
Maximum allowed component of the step   ....  0.300
Current trust radius                    ....  0.300
Updating the Hessian (BFGS)             .... done
Forming the augmented Hessian           .... done
Diagonalizing the augmented Hessian     .... done
Last element of RFO vector              ....  0.954190356
Lowest eigenvalues of augmented Hessian:
 -0.022584767  0.012444640  0.012558864  0.015687992  0.016693007
Length of the computed step             ....  0.313564484
Warning: the length of the step is outside the trust region - taking restricted step instead
The input lambda is                     ....     0.011427
   iter:   5  x=    0.002308  g=   41.231117 f(x)=     0.172717
   iter:  10  x=   -0.030035  g=    1.004131 f(x)=     0.000053
The output lambda is                    ....    -0.030035 (13 iterations)
The final length of the internal step   ....  0.300000000
Converting the step to Cartesian space:
 Initial RMS(Int)=    0.0255376959
Transforming coordinates:
 Iter   0:  RMS(Cart)=    0.0645705285 RMS(Int)=    1.0695938260
 Iter   5:  RMS(Cart)=    0.0000001487 RMS(Int)=    0.0000001081
done
Storing new coordinates                 .... done
The predicted energy change is          ....    -0.012293766
Previously predicted energy change      ....    -0.029657915
Actually observed energy change         ....    -0.036797626
Ratio of predicted to observed change   ....     1.240735427
New trust radius                        ....     0.450000000

                                .--------------------.
          ----------------------|Geometry convergence|-------------------------
          Item                value                   Tolerance       Converged
          ---------------------------------------------------------------------
          Energy change      -0.0367976262            0.0000050000      NO
          RMS gradient        0.0067902787            0.0001000000      NO
          MAX gradient        0.0536432763            0.0003000000      NO
          RMS step            0.0255376959            0.0020000000      NO
          MAX step            0.1544160204            0.0040000000      NO
          -------------------------------------------------------------------------
          ........................................................
          Max(Bonds)      0.0817      Max(Angles)    3.44
          Max(Dihed)        4.39      Max(Improp)    0.00
          ---------------------------------------------------------------------

The optimization has not yet converged - more geometry cycles are needed


    ---------------------------------------------------------------------------
                         Redundant Internal Coordinates
                            (Angstroem and degrees)

        Definition                    Value    dE/dq     Step     New-Value
    ----------------------------------------------------------------------------
     1. B(C   1,N   0)                1.4552 -0.016549  0.0268    1.4820   
     2. B(C   2,C   1)                1.5118 -0.008872  0.0158    1.5275   
     3. B(C   3,C   2)                1.4820 -0.005869  0.0100    1.4920   
     4. B(C   4,C   3)                1.3940  0.013482 -0.0202    1.3738   
     5. B(N   5,C   4)                1.3546 -0.006335  0.0077    1.3623   
     6. B(C   6,N   5)                1.3580 -0.004388  0.0060    1.3640   
     7. B(C   7,C   6)                1.3920  0.000853 -0.0011    1.3909   
     8. B(C   8,C   7)                1.3775  0.001973 -0.0030    1.3745   
     9. B(C   9,C   8)                1.3976 -0.006207  0.0081    1.4057   
    10. B(C  10,C   9)                1.3752  0.001251 -0.0016    1.3736   
    11. B(C  11,C  10)                1.3911 -0.008126  0.0110    1.4021   
    12. B(C  11,C   6)                1.4078 -0.009105  0.0136    1.4214   
    13. B(C  11,C   3)                1.4001 -0.017268  0.0227    1.4229   
    14. B(C  12,C   1)                1.5256 -0.015939  0.0316    1.5572   
    15. B(O  13,C  12)                1.2497  0.007113 -0.0080    1.2417   
    16. B(O  14,C  12)                1.3013  0.053643 -0.0817    1.2196   
    17. B(H  15,N   0)                1.0267 -0.001259  0.0025    1.0292   
    18. B(H  16,N   0)                1.0476  0.010751 -0.0239    1.0237   
    19. B(H  17,N   0)                1.0390  0.006803 -0.0142    1.0249   
    20. B(H  18,C   1)                1.1136  0.007479 -0.0181    1.0955   
    21. B(H  19,C   2)                1.1012  0.006809 -0.0154    1.0858   
    22. B(H  20,C   2)                1.1093  0.006736 -0.0158    1.0934   
    23. B(H  21,C   4)                1.0741  0.001411 -0.0028    1.0713   
    24. B(H  22,N   5)                1.0205  0.010526 -0.0216    0.9989   
    25. B(H  23,C   7)                1.0751 -0.002742  0.0052    1.0803   
    26. B(H  24,C   8)                1.0838  0.001769 -0.0038    1.0801   
    27. B(H  25,C   9)                1.0804  0.002108 -0.0042    1.0762   
    28. B(H  26,C  10)                1.0876  0.002267 -0.0052    1.0825   
    29. A(H  16,N   0,H  17)          102.05 -0.004173    2.50    104.54   
    30. A(H  15,N   0,H  17)          111.71  0.000271   -0.96    110.75   
    31. A(H  15,N   0,H  16)          108.24 -0.002361    0.80    109.04   
    32. A(C   1,N   0,H  15)          117.04  0.010951   -3.20    113.84   
    33. A(C   1,N   0,H  16)          106.90 -0.005240    1.76    108.66   
    34. A(C   1,N   0,H  17)          109.71 -0.001870    0.24    109.95   
    35. A(C   2,C   1,C  12)          112.40 -0.003358    0.71    113.11   
    36. A(C   2,C   1,H  18)          106.43 -0.003098    1.45    107.88   
    37. A(N   0,C   1,C   2)          114.40  0.008343   -2.86    111.54   
    38. A(N   0,C   1,C  12)          109.86 -0.001670   -0.02    109.84   
    39. A(N   0,C   1,H  18)          109.28  0.000025   -0.13    109.14   
    40. A(C  12,C   1,H  18)          103.84 -0.001133    1.38    105.21   
    41. A(C   1,C   2,C   3)          112.81  0.002338   -0.83    111.98   
    42. A(H  19,C   2,H  20)          103.46 -0.003322    1.59    105.05   
    43. A(C   3,C   2,H  20)          110.82  0.000708    0.09    110.91   
    44. A(C   3,C   2,H  19)          111.50 -0.000200   -0.25    111.25   
    45. A(C   1,C   2,H  20)          108.48 -0.000751    0.24    108.72   
    46. A(C   1,C   2,H  19)          109.32  0.000737   -0.62    108.70   
    47. A(C   2,C   3,C   4)          122.50 -0.007556    1.63    124.14   
    48. A(C   2,C   3,C  11)          132.54  0.012531   -2.63    129.91   
    49. A(C   4,C   3,C  11)          104.93 -0.004981    1.00    105.93   
    50. A(N   5,C   4,H  21)          122.24  0.002412   -0.46    121.77   
    51. A(C   3,C   4,H  21)          127.69  0.000306    0.05    127.74   
    52. A(C   3,C   4,N   5)          110.08 -0.002718    0.41    110.49   
    53. A(C   6,N   5,H  22)          125.32 -0.000596    0.17    125.50   
    54. A(C   4,N   5,H  22)          125.34  0.000100    0.01    125.34   
    55. A(C   4,N   5,C   6)          109.34  0.000496   -0.18    109.16   
    56. A(C   7,C   6,C  11)          121.61  0.000128   -0.01    121.61   
    57. A(N   5,C   6,C  11)          106.85 -0.001210    0.35    107.20   
    58. A(N   5,C   6,C   7)          131.53  0.001081   -0.34    131.19   
    59. A(C   6,C   7,C   8)          118.06  0.000865   -0.21    117.85   
    60. A(C   8,C   7,H  23)          121.83  0.001161   -0.28    121.56   
    61. A(C   6,C   7,H  23)          120.11 -0.002026    0.48    120.59   
    62. A(C   9,C   8,H  24)          116.90 -0.004609    1.13    118.04   
    63. A(C   7,C   8,H  24)          121.00  0.003952   -0.90    120.10   
    64. A(C   7,C   8,C   9)          122.10  0.000657   -0.24    121.86   
    65. A(C  10,C   9,H  25)          122.06  0.006082   -1.32    120.74   
    66. A(C   8,C   9,H  25)          119.41  0.002215   -0.41    119.00   
    67. A(C   8,C   9,C  10)          118.54 -0.008297    1.72    120.26   
    68. A(C   9,C  10,C  11)          121.89  0.010816   -2.17    119.71   
    69. A(C  11,C  10,H  26)          117.87 -0.007916    1.68    119.55   
    70. A(C   9,C  10,H  26)          120.24 -0.002898    0.50    120.74   
    71. A(C   3,C  11,C   6)          108.80  0.008413   -1.58    107.23   
    72. A(C   6,C  11,C  10)          117.81 -0.004168    0.90    118.70   
    73. A(C   3,C  11,C  10)          133.38 -0.004244    0.68    134.06   
    74. A(O  13,C  12,O  14)          122.19 -0.016708    3.44    125.63   
    75. A(C   1,C  12,O  14)          118.99  0.005921   -1.23    117.75   
    76. A(C   1,C  12,O  13)          118.80  0.010817   -2.22    116.58   
    77. D(C   2,C   1,N   0,H  16)    156.27  0.001401    0.63    156.89   
    78. D(C  12,C   1,N   0,H  16)    -76.23  0.002117   -0.78    -77.02   
    79. D(C   2,C   1,N   0,H  17)    -93.82 -0.006837    4.39    -89.44   
    80. D(C  12,C   1,N   0,H  17)     33.68 -0.006122    2.98     36.65   
    81. D(C  12,C   1,N   0,H  15)    162.28  0.001989   -1.15    161.13   
    82. D(C   2,C   1,N   0,H  15)     34.78  0.001274    0.26     35.04   
    83. D(H  19,C   2,C   1,H  18)    -64.60  0.001464   -0.26    -64.86   
    84. D(C   3,C   2,C   1,H  18)     60.07  0.003437   -1.68     58.40   
    85. D(H  19,C   2,C   1,C  12)     48.44 -0.003324    2.48     50.92   
    86. D(C   3,C   2,C   1,C  12)    173.11 -0.001352    1.07    174.17   
    87. D(C   3,C   2,C   1,N   0)    -60.71  0.000467   -0.79    -61.49   
    88. D(H  19,C   2,C   1,N   0)    174.62 -0.001506    0.63    175.25   
    89. D(C   4,C   3,C   2,H  20)    146.34 -0.001716    0.62    146.95   
    90. D(C   4,C   3,C   2,H  19)     31.67  0.002061   -1.25     30.42   
    91. D(C   4,C   3,C   2,C   1)    -91.80 -0.000513    0.41    -91.40   
    92. D(C  11,C   3,C   2,H  19)   -150.51  0.001660   -1.15   -151.66   
    93. D(C  11,C   3,C   2,C   1)     86.02 -0.000914    0.51     86.53   
    94. D(H  21,C   4,C   3,C  11)    179.80  0.000181   -0.17    179.63   
    95. D(H  21,C   4,C   3,C   2)     -1.87  0.000247   -0.17     -2.04   
    96. D(N   5,C   4,C   3,C  11)     -0.07  0.000042    0.05     -0.03   
    97. D(N   5,C   4,C   3,C   2)    178.26  0.000108    0.04    178.30   
    98. D(H  22,N   5,C   4,H  21)      0.23  0.000006    0.02      0.25   
    99. D(H  22,N   5,C   4,C   3)   -179.89  0.000133   -0.18   -180.07   
   100. D(C   6,N   5,C   4,H  21)   -179.83 -0.000143    0.19   -179.64   
   101. D(C   6,N   5,C   4,C   3)      0.05 -0.000016   -0.02      0.04   
   102. D(C  11,C   6,N   5,H  22)    179.93 -0.000169    0.14    180.08   
   103. D(C  11,C   6,N   5,C   4)     -0.01 -0.000020   -0.02     -0.03   
   104. D(C   7,C   6,N   5,C   4)    179.10 -0.000143    0.14    179.24   
   105. D(C   7,C   6,N   5,H  22)     -0.95 -0.000292    0.30     -0.65   
   106. D(C   8,C   7,C   6,C  11)      0.12 -0.000029    0.05      0.16   
   107. D(C   8,C   7,C   6,N   5)   -178.89  0.000117   -0.14   -179.02   
   108. D(H  23,C   7,C   6,C  11)   -179.93  0.000055   -0.05   -179.98   
   109. D(H  23,C   7,C   6,N   5)      1.07  0.000201   -0.23      0.84   
   110. D(H  24,C   8,C   7,H  23)      0.07  0.000071   -0.06      0.01   
   111. D(H  24,C   8,C   7,C   6)   -179.97  0.000156   -0.16   -180.13   
   112. D(C   9,C   8,C   7,H  23)   -179.93 -0.000184    0.20   -179.73   
   113. D(C   9,C   8,C   7,C   6)      0.03 -0.000100    0.10      0.13   
   114. D(H  25,C   9,C   8,H  24)     -0.16  0.000087   -0.08     -0.24   
   115. D(H  25,C   9,C   8,C   7)    179.84  0.000332   -0.32    179.52   
   116. D(C  10,C   9,C   8,H  24)    179.93 -0.000121    0.10    180.04   
   117. D(C  10,C   9,C   8,C   7)     -0.07  0.000124   -0.14     -0.20   
   118. D(H  26,C  10,C   9,H  25)     -0.16  0.000418   -0.43     -0.58   
   119. D(H  26,C  10,C   9,C   8)    179.75  0.000627   -0.62    179.13   
   120. D(C  11,C  10,C   9,H  25)   -179.95 -0.000222    0.22   -179.73   
   121. D(C  11,C  10,C   9,C   8)     -0.04 -0.000013    0.03     -0.01   
   122. D(C   6,C  11,C  10,H  26)   -179.61 -0.000749    0.73   -178.88   
   123. D(C   6,C  11,C  10,C   9)      0.18 -0.000115    0.10      0.28   
   124. D(C   3,C  11,C  10,C   9)    178.93  0.000061   -0.00    178.93   
   125. D(C  10,C  11,C   6,C   7)     -0.22  0.000152   -0.14     -0.36   
   126. D(C  10,C  11,C   6,N   5)    179.00  0.000056   -0.01    178.99   
   127. D(C   3,C  11,C   6,C   7)   -179.26  0.000133   -0.08   -179.34   
   128. D(C   3,C  11,C   6,N   5)     -0.04  0.000037    0.05      0.01   
   129. D(C  10,C  11,C   3,C   4)   -178.76 -0.000108    0.02   -178.74   
   130. D(C   3,C  11,C  10,H  26)     -0.87 -0.000574    0.63     -0.24   
   131. D(C  10,C  11,C   3,C   2)      3.14  0.000358   -0.10      3.05   
   132. D(C   6,C  11,C   3,C   4)      0.07 -0.000048   -0.06      0.01   
   133. D(C   6,C  11,C   3,C   2)   -178.03  0.000418   -0.18   -178.20   
   134. D(O  14,C  12,C   1,C   2)     20.99  0.003890   -3.27     17.72   
   135. D(O  14,C  12,C   1,N   0)   -107.62 -0.003271    0.02   -107.59   
   136. D(O  13,C  12,C   1,H  18)    -45.93 -0.000980    0.81    -45.11   
   137. D(O  13,C  12,C   1,C   2)   -160.55  0.004846   -1.92   -162.47   
   138. D(O  13,C  12,C   1,N   0)     70.85 -0.002315    1.37     72.21   
    ----------------------------------------------------------------------------

Geometry step timings:
Preparation and reading OPT file:      0.000 s ( 0.330 %)
Internal coordinates            :      0.000 s ( 0.418 %)
B/P matrices and projection     :      0.002 s (42.904 %)
Hessian update/contruction      :      0.000 s ( 7.107 %)
Making the step                 :      0.002 s (41.628 %)
Converting the step to Cartesian:      0.000 s ( 1.870 %)
Storing new data                :      0.000 s ( 0.506 %)
Checking convergence            :      0.000 s ( 0.484 %)
Final printing                  :      0.000 s ( 4.752 %)
Total time                      :      0.005 s

Time for energy+gradient        :      0.025 s
Time for complete geometry iter :      0.030 s

         *************************************************************
         *                GEOMETRY OPTIMIZATION CYCLE   3            *
         *************************************************************
---------------------------------
CARTESIAN COORDINATES (ANGSTROEM)
---------------------------------
  N     1.799477    0.414614    1.405810
  C     2.379324   -0.008677    0.109315
  C     1.463620    0.351367   -1.059108
  C     0.139588   -0.329358   -0.960935
  C    -0.143791   -1.549279   -1.525440
  N    -1.420159   -1.924597   -1.232842
  C    -2.006640   -0.958639   -0.468986
  C    -3.286748   -0.866261    0.066854
  C    -3.599708    0.258925    0.791623
  C    -2.670324    1.294142    0.993026
  C    -1.405624    1.201776    0.464915
  C    -1.043223    0.068848   -0.277474
  C     3.816220    0.572331   -0.041071
  O     4.698651    0.063332    0.668930
  O     3.980561    1.483083   -0.835420
  H     0.774162    0.335682    1.447232
  H     2.209529   -0.156431    2.149924
  H     2.096603    1.370943    1.623705
  H     2.508937   -1.096461    0.111461
  H     1.967755    0.098521   -1.986885
  H     1.342784    1.437721   -1.088503
  H     0.501202   -2.161040   -2.123337
  H    -1.856417   -2.771859   -1.532186
  H    -4.006202   -1.657074   -0.088492
  H    -4.583935    0.369399    1.222447
  H    -2.967062    2.158284    1.561729
  H    -0.688581    2.000709    0.603706

----------------------------
CARTESIAN COORDINATES (A.U.)
----------------------------
  NO LB    ZA    FRAG    MASS        X           Y           Z
   0 N   7.0000    0    14.007    3.400518    0.783506    2.656596
   1 C   6.0000    0    12.011    4.496270   -0.016398    0.206576
   2 C   6.0000    0    12.011    2.765841    0.663987   -2.001424
   3 C   6.0000    0    12.011    0.263783   -0.622396   -1.815905
   4 C   6.0000    0    12.011   -0.271726   -2.927714   -2.882664
   5 N   7.0000    0    14.007   -2.683711   -3.636960   -2.329734
   6 C   6.0000    0    12.011   -3.792000   -1.811565   -0.886254
   7 C   6.0000    0    12.011   -6.211053   -1.636996    0.126335
   8 C   6.0000    0    12.011   -6.802462    0.489297    1.495950
   9 C   6.0000    0    12.011   -5.046182    2.445574    1.876548
  10 C   6.0000    0    12.011   -2.656244    2.271028    0.878561
  11 C   6.0000    0    12.011   -1.971405    0.130104   -0.524349
  12 C   6.0000    0    12.011    7.211610    1.081550   -0.077612
  13 O   8.0000    0    15.999    8.879164    0.119680    1.264094
  14 O   8.0000    0    15.999    7.522170    2.802620   -1.578715
  15 H   1.0000    0     1.008    1.462955    0.634347    2.734872
  16 H   1.0000    0     1.008    4.175405   -0.295611    4.062768
  17 H   1.0000    0     1.008    3.962006    2.590707    3.068359
  18 H   1.0000    0     1.008    4.741203   -2.072010    0.210631
  19 H   1.0000    0     1.008    3.718518    0.186177   -3.754669
  20 H   1.0000    0     1.008    2.537494    2.716899   -2.056972
  21 H   1.0000    0     1.008    0.947134   -4.083774   -4.012525
  22 H   1.0000    0     1.008   -3.508119   -5.238055   -2.895413
  23 H   1.0000    0     1.008   -7.570625   -3.131417   -0.167226
  24 H   1.0000    0     1.008   -8.662382    0.698064    2.310090
  25 H   1.0000    0     1.008   -5.606934    4.078567    2.951241
  26 H   1.0000    0     1.008   -1.301230    3.780791    1.140840

      -----------------------------------------------------------      
     |                   =====================                   |     
     |                           x T B                           |     
     |                   =====================                   |     
     |                         S. Grimme                         |     
     |          Mulliken Center for Theoretical Chemistry        |     
     |                    University of Bonn                     |     
      -----------------------------------------------------------      

   * xtb version 6.7.1 (edcfbbe) compiled by 'albert@albert-system' on 2024-07-22

   xtb is free software: you can redistribute it and/or modify it under
   the terms of the GNU Lesser General Public License as published by
   the Free Software Foundation, either version 3 of the License, or
   (at your option) any later version.
   
   xtb is distributed in the hope that it will be useful,
   but WITHOUT ANY WARRANTY; without even the implied warranty of
   MERCHANTABILITY or FITNESS FOR A PARTICULAR PURPOSE.  See the
   GNU Lesser General Public License for more details.
   
   Cite this work as:
   * C. Bannwarth, E. Caldeweyher, S. Ehlert, A. Hansen, P. Pracht,
     J. Seibert, S. Spicher, S. Grimme, WIREs Comput. Mol. Sci., 2020, 11,
     e01493. DOI: 10.1002/wcms.1493
   
   for GFN2-xTB:
   * C. Bannwarth, S. Ehlert and S. Grimme., J. Chem. Theory Comput., 2019,
     15, 1652-1671. DOI: 10.1021/acs.jctc.8b01176
   for GFN1-xTB:
   * S. Grimme, C. Bannwarth, P. Shushkov, J. Chem. Theory Comput., 2017,
     13, 1989-2009. DOI: 10.1021/acs.jctc.7b00118
   for GFN0-xTB:
   * P. Pracht, E. Caldeweyher, S. Ehlert, S. Grimme, ChemRxiv, 2019, preprint.
     DOI: 10.26434/chemrxiv.8326202.v1
   for GFN-FF:
   * S. Spicher and S. Grimme, Angew. Chem. Int. Ed., 2020, 59, 15665-15673.
     DOI: 10.1002/anie.202004239
   
   for ALPB and GBSA implicit solvation:
   * S. Ehlert, M. Stahn, S. Spicher, S. Grimme, J. Chem. Theory Comput.,
     2021, 17, 4250-4261. DOI: 10.1021/acs.jctc.1c00471
   
   for ddCOSMO and CPCM-X implicit solvation:
   * M. Stahn, S. Ehlert, S. Grimme, J. Phys. Chem. A,
     2023, XX, XXXX-XXXX. DOI: 10.1021/acs.jpca.3c04382
   
   for DFT-D4:
   * E. Caldeweyher, C. Bannwarth and S. Grimme, J. Chem. Phys., 2017,
     147, 034112. DOI: 10.1063/1.4993215
   * E. Caldeweyher, S. Ehlert, A. Hansen, H. Neugebauer, S. Spicher,
     C. Bannwarth and S. Grimme, J. Chem. Phys., 2019, 150, 154122.
     DOI: 10.1063/1.5090222
   * E. Caldeweyher, J.-M. Mewes, S. Ehlert and S. Grimme, Phys. Chem. Chem. Phys.
     2020, 22, 8499-8512. DOI: 10.1039/D0CP00502A
   
   for sTDA-xTB:
   * S. Grimme and C. Bannwarth, J. Chem. Phys., 2016, 145, 054103.
     DOI: 10.1063/1.4959605
   
   in the mass-spec context:
   * V. Asgeirsson, C. Bauer and S. Grimme, Chem. Sci., 2017, 8, 4879.
     DOI: 10.1039/c7sc00601b
   * J. Koopman and S. Grimme, ACS Omega 2019, 4, 12, 15120-15133.
     DOI: 10.1021/acsomega.9b02011
   
   for metadynamics refer to:
   * S. Grimme, J. Chem. Theory Comput., 2019, 155, 2847-2862
     DOI: 10.1021/acs.jctc.9b00143
   
   for SPH calculations refer to:
   * S. Spicher and S. Grimme, J. Chem. Theory Comput., 2021, 17, 1701-1714
     DOI: 10.1021/acs.jctc.0c01306
   
   for ONIOM refer to:
   * C. Plett, A. Katbashev, S. Ehlert, S. Grimme, M. Bursch,
     Phys. Chem. Chem. Phys., 2023, 25, 17860-17868. DOI: 10.1039/D3CP02178E
   
   for DIPRO refer to:
   * J. Kohn, N. Gildemeister, S. Grimme, D. Fazzi, A. Hansen,
     J. Chem. Phys., 2023, just accepted.
   
   for PTB refer to:
   * S. Grimme, M. Mueller, A. Hansen, J. Chem. Phys., 2023, 158, 124111.
     DOI: 10.1063/5.0137838
   
   with help from (in alphabetical order)
   P. Atkinson, C. Bannwarth, F. Bohle, G. Brandenburg, E. Caldeweyher
   M. Checinski, S. Dohm, S. Ehlert, S. Ehrlich, I. Gerasimov, C. Hölzer
   A. Katbashev, J. Kohn, J. Koopman, C. Lavigne, S. Lehtola, F. März, M. Müller,
   F. Musil, H. Neugebauer, J. Pisarek, C. Plett, P. Pracht, F. Pultar,
   J. Seibert, P. Shushkov, S. Spicher, M. Stahn, M. Steiner, T. Strunk,
   J. Stückrath, T. Rose, and J. Unsleber
   
 * started run on 2026/04/09 at 18:40:48.402     
   ID    Z sym.   atoms
    1    7 N      1, 6
    2    6 C      2-5, 7-13
    3    8 O      14, 15
    4    1 H      16-27

           -------------------------------------------------
          |                Calculation Setup                |
           -------------------------------------------------

          program call               : /home/analima/Programs/orca-6.1.0-f.0_linux_x86-64/bin/otool_xtb geo_opt_XTB.xyz --grad -c 0 -u 0 -P 1 --namespace geo_opt --input geo_opt_XTB.input.tmp --alpb WATER --acc 0.200000
          calculation namespace      : geo_opt
          coordinate file            : geo_opt_XTB.xyz
          omp threads                :                     1


           -------------------------------------------------
          |                 G F N 2 - x T B                 |
           -------------------------------------------------

        Reference                      10.1021/acs.jctc.8b01176
      * Hamiltonian:
        H0-scaling (s, p, d)           1.850000    2.230000    2.230000
        zeta-weighting                 0.500000
      * Dispersion:
        s8                             2.700000
        a1                             0.520000
        a2                             5.000000
        s9                             5.000000
      * Repulsion:
        kExp                           1.500000    1.000000
        rExp                           1.000000
      * Coulomb:
        alpha                          2.000000
        third order                    shell-resolved
        anisotropic                    true
        a3                             3.000000
        a5                             4.000000
        cn-shift                       1.200000
        cn-exp                         4.000000
        max-rad                        5.000000

      * Solvation model:               ALPB
        Solvent                        WATER
        Parameter file                 internal GFN2-xTB/ALPB
        Dielectric constant                8.0200E+01
        Reference state                gsolv [1 M gas/solution]
        Free energy shift                  1.0808E-03 Eh       6.7819E-01 kcal/mol
        Temperature                        2.9815E+02 K
        Density                            1.0000E+00 kg/L
        Solvent mass                       1.8000E+01 g/mol
        Interaction kernel             P16
        Born radius scaling (c1)           1.4744E+00
        Born radii integrator          GBOBC
        Born offset                        0.0000E+00 a0       0.0000E+00 AA
        H-bond correction              true
        Ion screening                  false
        Surface tension                    1.0000E-05 Eh       1.5569E+01 dyn/cm
        Grid points                               230 per atom
q/qsh data taken from xtbrestart
CAMM data taken from xtbrestart

          ...................................................
          :                      SETUP                      :
          :.................................................:
          :  # basis functions                  72          :
          :  # atomic orbitals                  72          :
          :  # shells                           42          :
          :  # electrons                        78          :
          :  max. iterations                   250          :
          :  Hamiltonian                  GFN2-xTB          :
          :  restarted?                       true          :
          :  GBSA solvation                   true          :
          :  PC potential                    false          :
          :  electronic temp.          300.0000000     K    :
          :  accuracy                    0.2000000          :
          :  -> integral cutoff          0.3198970E+02      :
          :  -> integral neglect         0.2000000E-08      :
          :  -> SCF convergence          0.2000000E-06 Eh   :
          :  -> wf. convergence          0.2000000E-04 e    :
          :  Broyden damping             0.4000000          :
          :  net charge                          0          :
          :  unpaired electrons                  0          :
          ...................................................

 iter      E             dE          RMSdq      gap      omega  full diag
   1    -44.2962640 -0.442963E+02  0.361E-01    3.50       0.0  T
   2    -44.2979345 -0.167054E-02  0.184E-01    3.50       1.0  T
   3    -44.2980159 -0.813749E-04  0.103E-01    3.51       1.0  T
   4    -44.2980138  0.203990E-05  0.452E-02    3.51       1.0  T
   5    -44.2980282 -0.143989E-04  0.131E-02    3.51       1.5  T
   6    -44.2980314 -0.319258E-05  0.489E-03    3.51       3.9  T
   7    -44.2980315 -0.346558E-07  0.178E-03    3.51      10.8  T
   8    -44.2980315 -0.320218E-07  0.784E-04    3.51      24.6  T
   9    -44.2980315 -0.201577E-08  0.335E-04    3.51      57.5  T
  10    -44.2980315 -0.425040E-09  0.126E-04    3.51     153.1  T
  11    -44.2980315 -0.840430E-10  0.543E-05    3.51     354.1  T

   *** convergence criteria satisfied after 11 iterations ***

         #    Occupation            Energy/Eh            Energy/eV
      -------------------------------------------------------------
         1        2.0000           -0.6926467             -18.8479
       ...           ...                  ...                  ...
        33        2.0000           -0.4178544             -11.3704
        34        2.0000           -0.4165872             -11.3359
        35        2.0000           -0.4053827             -11.0310
        36        2.0000           -0.3863974             -10.5144
        37        2.0000           -0.3830515             -10.4234
        38        2.0000           -0.3762128             -10.2373
        39        2.0000           -0.3613125              -9.8318 (HOMO)
        40                         -0.2323647              -6.3230 (LUMO)
        41                         -0.1998748              -5.4389
        42                         -0.1836893              -4.9984
        43                         -0.1595392              -4.3413
        44                         -0.0749105              -2.0384
       ...                                ...                  ...
        72                          0.7108356              19.3428
      -------------------------------------------------------------
                  HL-Gap            0.1289478 Eh            3.5088 eV
             Fermi-level           -0.2968386 Eh           -8.0774 eV

 SCC (total)                   0 d,  0 h,  0 min,  0.015 sec
 SCC setup                      ...        0 min,  0.000 sec (  2.255%)
 Dispersion                     ...        0 min,  0.000 sec (  0.710%)
 classical contributions        ...        0 min,  0.000 sec (  0.120%)
 integral evaluation            ...        0 min,  0.002 sec ( 12.723%)
 iterations                     ...        0 min,  0.008 sec ( 53.814%)
 molecular gradient             ...        0 min,  0.004 sec ( 29.997%)
 printout                       ...        0 min,  0.000 sec (  0.327%)

         :::::::::::::::::::::::::::::::::::::::::::::::::::::
         ::                     SUMMARY                     ::
         :::::::::::::::::::::::::::::::::::::::::::::::::::::
         :: total energy             -43.667739337124 Eh    ::
         :: total w/o Gsasa/hb       -43.659265663089 Eh    ::
         :: gradient norm              0.052846778530 Eh/a0 ::
         :: HOMO-LUMO gap              3.508849263910 eV    ::
         ::.................................................::
         :: SCC energy               -44.297874028214 Eh    ::
         :: -> isotropic ES            0.193953290844 Eh    ::
         :: -> anisotropic ES         -0.006085774656 Eh    ::
         :: -> anisotropic XC          0.015560839355 Eh    ::
         :: -> dispersion             -0.026158877880 Eh    ::
         :: -> Gsolv                  -0.079338935545 Eh    ::
         ::    -> Gelec               -0.070865261510 Eh    ::
         ::    -> Gsasa                0.001958568397 Eh    ::
         ::    -> Ghb                 -0.011513002131 Eh    ::
         ::    -> Gshift               0.001080759698 Eh    ::
         :: repulsion energy           0.630134691090 Eh    ::
         :: add. restraining           0.000000000000 Eh    ::
         :: total charge               0.000000000000 e     ::
         :::::::::::::::::::::::::::::::::::::::::::::::::::::


Property printout bound to 'properties.out'

           -------------------------------------------------
          | TOTAL ENERGY              -43.667739337124 Eh   |
          | GRADIENT NORM               0.052846778530 Eh/α |
          | HOMO-LUMO GAP               3.508849263910 eV   |
           -------------------------------------------------

------------------------------------------------------------------------
 * finished run on 2026/04/09 at 18:40:48.423     
------------------------------------------------------------------------
 total:
 * wall-time:     0 d,  0 h,  0 min,  0.021 sec
 *  cpu-time:     0 d,  0 h,  0 min,  0.020 sec
 * ratio c/w:     0.932 speedup
 SCF:
 * wall-time:     0 d,  0 h,  0 min,  0.015 sec
 *  cpu-time:     0 d,  0 h,  0 min,  0.014 sec
 * ratio c/w:     0.912 speedup


-------------------------   --------------------
FINAL SINGLE POINT ENERGY       -43.667739337120
-------------------------   --------------------


-------------
DIPOLE MOMENT
-------------
                                X             Y             Z
Total Dipole Moment    :     -5.22900      -1.78600       2.05600
                        -----------------------------------------
Magnitude (a.u.)       :      5.89571
Magnitude (Debye)      :     14.98570


------------------
CARTESIAN GRADIENT
------------------

   1   N   :   -0.006002173   -0.000793890   -0.008748081
   2   C   :    0.009087180    0.015008896    0.004615857
   3   C   :    0.002843698   -0.013341141   -0.004349847
   4   C   :   -0.002172579    0.011344637    0.006020497
   5   C   :   -0.000675008   -0.004787755   -0.002504623
   6   N   :    0.000029332   -0.003585584   -0.002923419
   7   C   :   -0.004707633   -0.001859965    0.002026409
   8   C   :   -0.000919458    0.002260232    0.001160144
   9   C   :   -0.000188315   -0.005582651   -0.003168745
  10   C   :    0.001586993    0.008194809    0.003862610
  11   C   :   -0.005787668   -0.001527817   -0.000082420
  12   C   :    0.005667320   -0.004408031   -0.004603967
  13   C   :   -0.010657143    0.006788612   -0.008416576
  14   O   :    0.000527256    0.009017363   -0.010275953
  15   O   :    0.000690238   -0.024381676    0.022057162
  16   H   :    0.001055145    0.000121813    0.004423032
  17   H   :   -0.000503622    0.003501315   -0.001810266
  18   H   :    0.003804525   -0.004062310    0.003174032
  19   H   :    0.001274232    0.000425981   -0.002632000
  20   H   :   -0.001187417    0.003866587    0.001091726
  21   H   :    0.000767418   -0.000610402   -0.001489439
  22   H   :    0.000424652    0.001083268    0.000685640
  23   H   :    0.002702954    0.004971091    0.002066406
  24   H   :    0.000187861   -0.000887454   -0.000359326
  25   H   :    0.000469242    0.001188875    0.000524925
  26   H   :   -0.000105901   -0.001442341   -0.000703198
  27   H   :    0.001788871   -0.000502463    0.000359419

Difference to translation invariance:
           :   -0.0000000000    0.0000000000   -0.0000000000

Difference to rotation invariance:
           :    0.0001710024    0.0002002207   -0.0001149845

Norm of the Cartesian gradient     ...    0.0528467785
RMS gradient                       ...    0.0058718643
MAX gradient                       ...    0.0243816756
------------------------------------------------------------------------------
                         ORCA GEOMETRY RELAXATION STEP
------------------------------------------------------------------------------

Reading the OPT-File                    .... done
Getting information on internals        .... done
Copying old internal coords+grads       .... done
Making the new internal coordinates     .... (2022 redundants) done
Validating the new internal coordinates .... (2022 redundants) done
Calculating the B-matrix                .... done
Calculating the G,G- and P matrices     .... done
Transforming gradient to internals      .... done
Projecting the internal gradient        .... done
Number of atoms                         ....  27
Number of internal coordinates          .... 138
Current Energy                          ....   -43.667739337 Eh
Current gradient norm                   ....     0.052846779 Eh/bohr
Maximum allowed component of the step   ....  0.300
Current trust radius                    ....  0.450
Updating the Hessian (BFGS)             .... done
Forming the augmented Hessian           .... done
Diagonalizing the augmented Hessian     .... done
Last element of RFO vector              ....  0.979751489
Lowest eigenvalues of augmented Hessian:
 -0.004547889  0.012460503  0.012816804  0.015692536  0.016696266
Length of the computed step             ....  0.204355325
The final length of the internal step   ....  0.204355325
Converting the step to Cartesian space:
 Initial RMS(Int)=    0.0173958805
Transforming coordinates:
 Iter   0:  RMS(Cart)=    0.0466821988 RMS(Int)=    0.5350922814
 Iter   5:  RMS(Cart)=    0.0000000296 RMS(Int)=    0.0000000189
done
Storing new coordinates                 .... done
The predicted energy change is          ....    -0.002368907
Previously predicted energy change      ....    -0.012293766
Actually observed energy change         ....    -0.011265886
Ratio of predicted to observed change   ....     0.916390146
New trust radius                        ....     0.675000000

                                .--------------------.
          ----------------------|Geometry convergence|-------------------------
          Item                value                   Tolerance       Converged
          ---------------------------------------------------------------------
          Energy change      -0.0112658860            0.0000050000      NO
          RMS gradient        0.0037897994            0.0001000000      NO
          MAX gradient        0.0324803281            0.0003000000      NO
          RMS step            0.0173958805            0.0020000000      NO
          MAX step            0.0895390381            0.0040000000      NO
          -------------------------------------------------------------------------
          ........................................................
          Max(Bonds)      0.0197      Max(Angles)    1.91
          Max(Dihed)        5.13      Max(Improp)    0.00
          ---------------------------------------------------------------------

The optimization has not yet converged - more geometry cycles are needed


    ---------------------------------------------------------------------------
                         Redundant Internal Coordinates
                            (Angstroem and degrees)

        Definition                    Value    dE/dq     Step     New-Value
    ----------------------------------------------------------------------------
     1. B(C   1,N   0)                1.4820 -0.002293  0.0074    1.4894   
     2. B(C   2,C   1)                1.5275  0.000067  0.0033    1.5309   
     3. B(C   3,C   2)                1.4920 -0.000369  0.0025    1.4945   
     4. B(C   4,C   3)                1.3737  0.003041 -0.0054    1.3684   
     5. B(N   5,C   4)                1.3622 -0.000884  0.0021    1.3643   
     6. B(C   6,N   5)                1.3640  0.001132  0.0004    1.3644   
     7. B(C   7,C   6)                1.3908  0.000226 -0.0002    1.3906   
     8. B(C   8,C   7)                1.3745 -0.000736  0.0003    1.3748   
     9. B(C   9,C   8)                1.4057  0.003524 -0.0009    1.4048   
    10. B(C  10,C   9)                1.3736 -0.000421  0.0002    1.3738   
    11. B(C  11,C  10)                1.4021  0.002011  0.0009    1.4030   
    12. B(C  11,C   6)                1.4215  0.001988  0.0013    1.4227   
    13. B(C  11,C   3)                1.4229 -0.002142  0.0058    1.4288   
    14. B(C  12,C   1)                1.5572 -0.012235  0.0197    1.5769   
    15. B(O  13,C  12)                1.2417 -0.009197  0.0035    1.2452   
    16. B(O  14,C  12)                1.2196 -0.032480  0.0161    1.2357   
    17. B(H  15,N   0)                1.0292 -0.000882  0.0015    1.0306   
    18. B(H  16,N   0)                1.0237 -0.003472  0.0005    1.0242   
    19. B(H  17,N   0)                1.0249 -0.002011 -0.0001    1.0247   
    20. B(H  18,C   1)                1.0955 -0.000278 -0.0026    1.0929   
    21. B(H  19,C   2)                1.0858 -0.002385  0.0005    1.0863   
    22. B(H  20,C   2)                1.0934 -0.000652 -0.0020    1.0915   
    23. B(H  21,C   4)                1.0713 -0.000745  0.0004    1.0717   
    24. B(H  22,N   5)                0.9989 -0.006016  0.0036    1.0025   
    25. B(H  23,C   7)                1.0803  0.000577  0.0005    1.0809   
    26. B(H  24,C   8)                1.0801 -0.000097 -0.0005    1.0795   
    27. B(H  25,C   9)                1.0762 -0.001501  0.0011    1.0773   
    28. B(H  26,C  10)                1.0825  0.000860 -0.0017    1.0807   
    29. A(H  16,N   0,H  17)          104.47 -0.003588    1.76    106.23   
    30. A(H  15,N   0,H  17)          110.60 -0.000279   -0.66    109.94   
    31. A(H  15,N   0,H  16)          109.09 -0.002328    0.59    109.68   
    32. A(C   1,N   0,H  15)          113.77  0.006805   -1.80    111.97   
    33. A(C   1,N   0,H  16)          108.65 -0.001475    0.83    109.48   
    34. A(C   1,N   0,H  17)          109.82 -0.000091   -0.04    109.78   
    35. A(C   2,C   1,C  12)          113.04 -0.000503    0.04    113.08   
    36. A(C   2,C   1,H  18)          107.85 -0.002343    1.08    108.93   
    37. A(N   0,C   1,C   2)          111.55  0.002961   -1.34    110.21   
    38. A(N   0,C   1,C  12)          109.81 -0.000355   -0.28    109.53   
    39. A(N   0,C   1,H  18)          109.16  0.001236   -0.24    108.91   
    40. A(C  12,C   1,H  18)          105.16 -0.001226    1.05    106.21   
    41. A(C   1,C   2,C   3)          111.97  0.001587   -0.48    111.49   
    42. A(H  19,C   2,H  20)          105.05 -0.002214    1.00    106.06   
    43. A(C   3,C   2,H  20)          110.92  0.000292    0.17    111.09   
    44. A(C   3,C   2,H  19)          111.22  0.000027   -0.31    110.92   
    45. A(C   1,C   2,H  20)          108.72 -0.000387    0.20    108.93   
    46. A(C   1,C   2,H  19)          108.69  0.000455   -0.47    108.22   
    47. A(C   2,C   3,C   4)          124.14 -0.005772    0.99    125.13   
    48. A(C   2,C   3,C  11)          129.91  0.007063   -1.30    128.61   
    49. A(C   4,C   3,C  11)          105.93 -0.001295    0.31    106.24   
    50. A(N   5,C   4,H  21)          121.78  0.000993   -0.23    121.55   
    51. A(C   3,C   4,H  21)          127.75 -0.001247    0.18    127.93   
    52. A(C   3,C   4,N   5)          110.47  0.000254    0.05    110.52   
    53. A(C   6,N   5,H  22)          125.50 -0.000464    0.08    125.58   
    54. A(C   4,N   5,H  22)          125.35 -0.000415    0.05    125.39   
    55. A(C   4,N   5,C   6)          109.15  0.000880   -0.13    109.02   
    56. A(C   7,C   6,C  11)          121.59  0.000230   -0.02    121.58   
    57. A(N   5,C   6,C  11)          107.21 -0.001994    0.28    107.49   
    58. A(N   5,C   6,C   7)          131.19  0.001763   -0.26    130.93   
    59. A(C   6,C   7,C   8)          117.85  0.000168   -0.05    117.80   
    60. A(C   8,C   7,H  23)          121.56  0.000704   -0.15    121.41   
    61. A(C   6,C   7,H  23)          120.59 -0.000872    0.20    120.79   
    62. A(C   9,C   8,H  24)          118.04 -0.002186    0.49    118.53   
    63. A(C   7,C   8,H  24)          120.10  0.000623   -0.27    119.84   
    64. A(C   7,C   8,C   9)          121.86  0.001563   -0.22    121.64   
    65. A(C  10,C   9,H  25)          120.73  0.002100   -0.50    120.24   
    66. A(C   8,C   9,H  25)          119.00  0.000925   -0.17    118.83   
    67. A(C   8,C   9,C  10)          120.27 -0.003024    0.66    120.93   
    68. A(C   9,C  10,C  11)          119.73  0.002794   -0.72    119.01   
    69. A(C  11,C  10,H  26)          119.54 -0.002697    0.65    120.20   
    70. A(C   9,C  10,H  26)          120.73 -0.000090    0.07    120.79   
    71. A(C   3,C  11,C   6)          107.24  0.002155   -0.51    106.73   
    72. A(C   6,C  11,C  10)          118.70 -0.001729    0.34    119.04   
    73. A(C   3,C  11,C  10)          134.05 -0.000425    0.17    134.22   
    74. A(O  13,C  12,O  14)          125.64 -0.011777    1.91    127.55   
    75. A(C   1,C  12,O  14)          117.77  0.000051   -0.16    117.60   
    76. A(C   1,C  12,O  13)          116.59  0.011734   -1.74    114.85   
    77. D(C   2,C   1,N   0,H  16)    156.82  0.000401    1.81    158.64   
    78. D(C  12,C   1,N   0,H  16)    -77.05  0.001653    0.52    -76.53   
    79. D(C   2,C   1,N   0,H  17)    -89.47 -0.004703    4.19    -85.28   
    80. D(C  12,C   1,N   0,H  17)     36.65 -0.003451    2.90     39.55   
    81. D(C  12,C   1,N   0,H  15)    161.22  0.001154    0.27    161.49   
    82. D(C   2,C   1,N   0,H  15)     35.10 -0.000098    1.56     36.66   
    83. D(H  19,C   2,C   1,H  18)    -64.89  0.000763    0.41    -64.48   
    84. D(C   3,C   2,C   1,H  18)     58.38  0.002180   -0.69     57.69   
    85. D(H  19,C   2,C   1,C  12)     50.93 -0.002492    2.26     53.19   
    86. D(C   3,C   2,C   1,C  12)    174.19 -0.001076    1.16    175.35   
    87. D(C   3,C   2,C   1,N   0)    -61.48  0.000388   -0.34    -61.82   
    88. D(H  19,C   2,C   1,N   0)    175.26 -0.001029    0.76    176.02   
    89. D(C   4,C   3,C   2,H  20)    146.95 -0.001341    0.64    147.60   
    90. D(C   4,C   3,C   2,H  19)     30.42  0.001205   -0.52     29.91   
    91. D(C   4,C   3,C   2,C   1)    -91.40 -0.000524    0.70    -90.70   
    92. D(C  11,C   3,C   2,H  19)   -151.66  0.000968   -0.48   -152.14   
    93. D(C  11,C   3,C   2,C   1)     86.52 -0.000761    0.73     87.25   
    94. D(H  21,C   4,C   3,C  11)    179.62  0.000160   -0.27    179.35   
    95. D(H  21,C   4,C   3,C   2)     -2.04  0.000153   -0.28     -2.32   
    96. D(N   5,C   4,C   3,C  11)     -0.03  0.000198   -0.21     -0.24   
    97. D(N   5,C   4,C   3,C   2)    178.31  0.000191   -0.23    178.09   
    98. D(H  22,N   5,C   4,H  21)      0.25  0.000075   -0.05      0.20   
    99. D(H  22,N   5,C   4,C   3)    179.93  0.000030   -0.10    179.83   
   100. D(C   6,N   5,C   4,H  21)   -179.64 -0.000101    0.23   -179.40   
   101. D(C   6,N   5,C   4,C   3)      0.04 -0.000146    0.18      0.22   
   102. D(C  11,C   6,N   5,H  22)   -179.92 -0.000147    0.21   -179.71   
   103. D(C  11,C   6,N   5,C   4)     -0.03  0.000030   -0.07     -0.10   
   104. D(C   7,C   6,N   5,C   4)    179.24 -0.000043    0.11    179.35   
   105. D(C   7,C   6,N   5,H  22)     -0.65 -0.000220    0.39     -0.26   
   106. D(C   8,C   7,C   6,C  11)      0.16 -0.000075    0.12      0.28   
   107. D(C   8,C   7,C   6,N   5)   -179.02  0.000018   -0.08   -179.10   
   108. D(H  23,C   7,C   6,C  11)   -179.98  0.000009   -0.03   -180.00   
   109. D(H  23,C   7,C   6,N   5)      0.84  0.000102   -0.23      0.61   
   110. D(H  24,C   8,C   7,H  23)      0.02  0.000006   -0.03     -0.01   
   111. D(H  24,C   8,C   7,C   6)    179.88  0.000089   -0.18    179.69   
   112. D(C   9,C   8,C   7,H  23)   -179.73 -0.000175    0.31   -179.42   
   113. D(C   9,C   8,C   7,C   6)      0.13 -0.000092    0.16      0.29   
   114. D(H  25,C   9,C   8,H  24)     -0.24  0.000048   -0.09     -0.33   
   115. D(H  25,C   9,C   8,C   7)    179.52  0.000231   -0.42    179.10   
   116. D(C  10,C   9,C   8,H  24)   -179.96 -0.000046    0.09   -179.87   
   117. D(C  10,C   9,C   8,C   7)     -0.21  0.000138   -0.24     -0.44   
   118. D(H  26,C  10,C   9,H  25)     -0.58  0.000359   -0.64     -1.22   
   119. D(H  26,C  10,C   9,C   8)    179.14  0.000450   -0.83    178.31   
   120. D(C  11,C  10,C   9,H  25)   -179.73 -0.000099    0.22   -179.50   
   121. D(C  11,C  10,C   9,C   8)     -0.01 -0.000008    0.04      0.03   
   122. D(C   6,C  11,C  10,H  26)   -178.88 -0.000639    1.07   -177.80   
   123. D(C   6,C  11,C  10,C   9)      0.28 -0.000165    0.23      0.51   
   124. D(C   3,C  11,C  10,C   9)    178.92 -0.000043    0.11    179.04   
   125. D(C  10,C  11,C   6,C   7)     -0.36  0.000212   -0.31     -0.68   
   126. D(C  10,C  11,C   6,N   5)    178.99  0.000163   -0.16    178.84   
   127. D(C   3,C  11,C   6,C   7)   -179.34  0.000140   -0.22   -179.57   
   128. D(C   3,C  11,C   6,N   5)      0.01  0.000091   -0.07     -0.05   
   129. D(C  10,C  11,C   3,C   4)   -178.74 -0.000251    0.27   -178.47   
   130. D(C   3,C  11,C  10,H  26)     -0.23 -0.000517    0.95      0.72   
   131. D(C  10,C  11,C   3,C   2)      3.05  0.000064    0.23      3.28   
   132. D(C   6,C  11,C   3,C   4)      0.01 -0.000175    0.17      0.18   
   133. D(C   6,C  11,C   3,C   2)   -178.20  0.000140    0.12   -178.08   
   134. D(O  14,C  12,C   1,C   2)     17.70  0.001184    0.77     18.47   
   135. D(O  14,C  12,C   1,N   0)   -107.57 -0.002063    2.76   -104.81   
   136. D(O  13,C  12,C   1,H  18)    -45.10 -0.000437   -3.28    -48.37   
   137. D(O  13,C  12,C   1,C   2)   -162.50  0.003415   -5.13   -167.63   
   138. D(O  13,C  12,C   1,N   0)     72.23  0.000168   -3.14     69.09   
    ----------------------------------------------------------------------------

Geometry step timings:
Preparation and reading OPT file:      0.000 s ( 0.431 %)
Internal coordinates            :      0.000 s ( 0.574 %)
B/P matrices and projection     :      0.001 s (43.254 %)
Hessian update/contruction      :      0.000 s ( 8.086 %)
Making the step                 :      0.001 s (32.632 %)
Converting the step to Cartesian:      0.000 s ( 3.876 %)
Storing new data                :      0.000 s ( 0.574 %)
Checking convergence            :      0.000 s ( 0.718 %)
Final printing                  :      0.000 s ( 9.856 %)
Total time                      :      0.002 s

Time for energy+gradient        :      0.024 s
Time for complete geometry iter :      0.027 s

         *************************************************************
         *                GEOMETRY OPTIMIZATION CYCLE   4            *
         *************************************************************
---------------------------------
CARTESIAN COORDINATES (ANGSTROEM)
---------------------------------
  N     1.773674    0.387172    1.386649
  C     2.383586   -0.031961    0.094094
  C     1.466731    0.348648   -1.071280
  C     0.145728   -0.343840   -0.976853
  C    -0.148975   -1.557141   -1.536706
  N    -1.425794   -1.927408   -1.230363
  C    -1.998505   -0.955640   -0.462795
  C    -3.272846   -0.860907    0.085720
  C    -3.575749    0.266008    0.812507
  C    -2.640016    1.297351    0.997212
  C    -1.377943    1.210378    0.461407
  C    -1.030359    0.070686   -0.279384
  C     3.828274    0.587406   -0.031312
  O     4.668372    0.114012    0.756460
  O     3.973328    1.546269   -0.797140
  H     0.749573    0.271236    1.383867
  H     2.181391   -0.160515    2.150064
  H     2.011364    1.365247    1.578760
  H     2.517131   -1.116621    0.099963
  H     1.972451    0.093370   -1.998143
  H     1.341854    1.432899   -1.084103
  H     0.483646   -2.174011   -2.143169
  H    -1.871863   -2.774561   -1.527558
  H    -3.998660   -1.648121   -0.061698
  H    -4.556980    0.375955    1.248941
  H    -2.930446    2.167048    1.562690
  H    -0.668966    2.017041    0.582169

----------------------------
CARTESIAN COORDINATES (A.U.)
----------------------------
  NO LB    ZA    FRAG    MASS        X           Y           Z
   0 N   7.0000    0    14.007    3.351759    0.731650    2.620387
   1 C   6.0000    0    12.011    4.504324   -0.060397    0.177812
   2 C   6.0000    0    12.011    2.771719    0.658849   -2.024425
   3 C   6.0000    0    12.011    0.275386   -0.649763   -1.845984
   4 C   6.0000    0    12.011   -0.281521   -2.942570   -2.903953
   5 N   7.0000    0    14.007   -2.694361   -3.642273   -2.325049
   6 C   6.0000    0    12.011   -3.776627   -1.805897   -0.874555
   7 C   6.0000    0    12.011   -6.184783   -1.626878    0.161988
   8 C   6.0000    0    12.011   -6.757186    0.502682    1.535415
   9 C   6.0000    0    12.011   -4.988907    2.451639    1.884457
  10 C   6.0000    0    12.011   -2.603936    2.287284    0.871934
  11 C   6.0000    0    12.011   -1.947095    0.133577   -0.527959
  12 C   6.0000    0    12.011    7.234390    1.110036   -0.059172
  13 O   8.0000    0    15.999    8.821944    0.215452    1.429503
  14 O   8.0000    0    15.999    7.508502    2.922025   -1.506376
  15 H   1.0000    0     1.008    1.416487    0.512561    2.615129
  16 H   1.0000    0     1.008    4.122232   -0.303329    4.063032
  17 H   1.0000    0     1.008    3.800926    2.579942    2.983425
  18 H   1.0000    0     1.008    4.756687   -2.110108    0.188902
  19 H   1.0000    0     1.008    3.727392    0.176443   -3.775944
  20 H   1.0000    0     1.008    2.535737    2.707786   -2.048658
  21 H   1.0000    0     1.008    0.913959   -4.108286   -4.050003
  22 H   1.0000    0     1.008   -3.537308   -5.243160   -2.886667
  23 H   1.0000    0     1.008   -7.556372   -3.114497   -0.116591
  24 H   1.0000    0     1.008   -8.611444    0.710452    2.360157
  25 H   1.0000    0     1.008   -5.537741    4.095127    2.953055
  26 H   1.0000    0     1.008   -1.264163    3.811655    1.100139

      -----------------------------------------------------------      
     |                   =====================                   |     
     |                           x T B                           |     
     |                   =====================                   |     
     |                         S. Grimme                         |     
     |          Mulliken Center for Theoretical Chemistry        |     
     |                    University of Bonn                     |     
      -----------------------------------------------------------      

   * xtb version 6.7.1 (edcfbbe) compiled by 'albert@albert-system' on 2024-07-22

   xtb is free software: you can redistribute it and/or modify it under
   the terms of the GNU Lesser General Public License as published by
   the Free Software Foundation, either version 3 of the License, or
   (at your option) any later version.
   
   xtb is distributed in the hope that it will be useful,
   but WITHOUT ANY WARRANTY; without even the implied warranty of
   MERCHANTABILITY or FITNESS FOR A PARTICULAR PURPOSE.  See the
   GNU Lesser General Public License for more details.
   
   Cite this work as:
   * C. Bannwarth, E. Caldeweyher, S. Ehlert, A. Hansen, P. Pracht,
     J. Seibert, S. Spicher, S. Grimme, WIREs Comput. Mol. Sci., 2020, 11,
     e01493. DOI: 10.1002/wcms.1493
   
   for GFN2-xTB:
   * C. Bannwarth, S. Ehlert and S. Grimme., J. Chem. Theory Comput., 2019,
     15, 1652-1671. DOI: 10.1021/acs.jctc.8b01176
   for GFN1-xTB:
   * S. Grimme, C. Bannwarth, P. Shushkov, J. Chem. Theory Comput., 2017,
     13, 1989-2009. DOI: 10.1021/acs.jctc.7b00118
   for GFN0-xTB:
   * P. Pracht, E. Caldeweyher, S. Ehlert, S. Grimme, ChemRxiv, 2019, preprint.
     DOI: 10.26434/chemrxiv.8326202.v1
   for GFN-FF:
   * S. Spicher and S. Grimme, Angew. Chem. Int. Ed., 2020, 59, 15665-15673.
     DOI: 10.1002/anie.202004239
   
   for ALPB and GBSA implicit solvation:
   * S. Ehlert, M. Stahn, S. Spicher, S. Grimme, J. Chem. Theory Comput.,
     2021, 17, 4250-4261. DOI: 10.1021/acs.jctc.1c00471
   
   for ddCOSMO and CPCM-X implicit solvation:
   * M. Stahn, S. Ehlert, S. Grimme, J. Phys. Chem. A,
     2023, XX, XXXX-XXXX. DOI: 10.1021/acs.jpca.3c04382
   
   for DFT-D4:
   * E. Caldeweyher, C. Bannwarth and S. Grimme, J. Chem. Phys., 2017,
     147, 034112. DOI: 10.1063/1.4993215
   * E. Caldeweyher, S. Ehlert, A. Hansen, H. Neugebauer, S. Spicher,
     C. Bannwarth and S. Grimme, J. Chem. Phys., 2019, 150, 154122.
     DOI: 10.1063/1.5090222
   * E. Caldeweyher, J.-M. Mewes, S. Ehlert and S. Grimme, Phys. Chem. Chem. Phys.
     2020, 22, 8499-8512. DOI: 10.1039/D0CP00502A
   
   for sTDA-xTB:
   * S. Grimme and C. Bannwarth, J. Chem. Phys., 2016, 145, 054103.
     DOI: 10.1063/1.4959605
   
   in the mass-spec context:
   * V. Asgeirsson, C. Bauer and S. Grimme, Chem. Sci., 2017, 8, 4879.
     DOI: 10.1039/c7sc00601b
   * J. Koopman and S. Grimme, ACS Omega 2019, 4, 12, 15120-15133.
     DOI: 10.1021/acsomega.9b02011
   
   for metadynamics refer to:
   * S. Grimme, J. Chem. Theory Comput., 2019, 155, 2847-2862
     DOI: 10.1021/acs.jctc.9b00143
   
   for SPH calculations refer to:
   * S. Spicher and S. Grimme, J. Chem. Theory Comput., 2021, 17, 1701-1714
     DOI: 10.1021/acs.jctc.0c01306
   
   for ONIOM refer to:
   * C. Plett, A. Katbashev, S. Ehlert, S. Grimme, M. Bursch,
     Phys. Chem. Chem. Phys., 2023, 25, 17860-17868. DOI: 10.1039/D3CP02178E
   
   for DIPRO refer to:
   * J. Kohn, N. Gildemeister, S. Grimme, D. Fazzi, A. Hansen,
     J. Chem. Phys., 2023, just accepted.
   
   for PTB refer to:
   * S. Grimme, M. Mueller, A. Hansen, J. Chem. Phys., 2023, 158, 124111.
     DOI: 10.1063/5.0137838
   
   with help from (in alphabetical order)
   P. Atkinson, C. Bannwarth, F. Bohle, G. Brandenburg, E. Caldeweyher
   M. Checinski, S. Dohm, S. Ehlert, S. Ehrlich, I. Gerasimov, C. Hölzer
   A. Katbashev, J. Kohn, J. Koopman, C. Lavigne, S. Lehtola, F. März, M. Müller,
   F. Musil, H. Neugebauer, J. Pisarek, C. Plett, P. Pracht, F. Pultar,
   J. Seibert, P. Shushkov, S. Spicher, M. Stahn, M. Steiner, T. Strunk,
   J. Stückrath, T. Rose, and J. Unsleber
   
 * started run on 2026/04/09 at 18:40:48.428     
   ID    Z sym.   atoms
    1    7 N      1, 6
    2    6 C      2-5, 7-13
    3    8 O      14, 15
    4    1 H      16-27

           -------------------------------------------------
          |                Calculation Setup                |
           -------------------------------------------------

          program call               : /home/analima/Programs/orca-6.1.0-f.0_linux_x86-64/bin/otool_xtb geo_opt_XTB.xyz --grad -c 0 -u 0 -P 1 --namespace geo_opt --input geo_opt_XTB.input.tmp --alpb WATER --acc 0.200000
          calculation namespace      : geo_opt
          coordinate file            : geo_opt_XTB.xyz
          omp threads                :                     1


           -------------------------------------------------
          |                 G F N 2 - x T B                 |
           -------------------------------------------------

        Reference                      10.1021/acs.jctc.8b01176
      * Hamiltonian:
        H0-scaling (s, p, d)           1.850000    2.230000    2.230000
        zeta-weighting                 0.500000
      * Dispersion:
        s8                             2.700000
        a1                             0.520000
        a2                             5.000000
        s9                             5.000000
      * Repulsion:
        kExp                           1.500000    1.000000
        rExp                           1.000000
      * Coulomb:
        alpha                          2.000000
        third order                    shell-resolved
        anisotropic                    true
        a3                             3.000000
        a5                             4.000000
        cn-shift                       1.200000
        cn-exp                         4.000000
        max-rad                        5.000000

      * Solvation model:               ALPB
        Solvent                        WATER
        Parameter file                 internal GFN2-xTB/ALPB
        Dielectric constant                8.0200E+01
        Reference state                gsolv [1 M gas/solution]
        Free energy shift                  1.0808E-03 Eh       6.7819E-01 kcal/mol
        Temperature                        2.9815E+02 K
        Density                            1.0000E+00 kg/L
        Solvent mass                       1.8000E+01 g/mol
        Interaction kernel             P16
        Born radius scaling (c1)           1.4744E+00
        Born radii integrator          GBOBC
        Born offset                        0.0000E+00 a0       0.0000E+00 AA
        H-bond correction              true
        Ion screening                  false
        Surface tension                    1.0000E-05 Eh       1.5569E+01 dyn/cm
        Grid points                               230 per atom
q/qsh data taken from xtbrestart
CAMM data taken from xtbrestart

          ...................................................
          :                      SETUP                      :
          :.................................................:
          :  # basis functions                  72          :
          :  # atomic orbitals                  72          :
          :  # shells                           42          :
          :  # electrons                        78          :
          :  max. iterations                   250          :
          :  Hamiltonian                  GFN2-xTB          :
          :  restarted?                       true          :
          :  GBSA solvation                   true          :
          :  PC potential                    false          :
          :  electronic temp.          300.0000000     K    :
          :  accuracy                    0.2000000          :
          :  -> integral cutoff          0.3198970E+02      :
          :  -> integral neglect         0.2000000E-08      :
          :  -> SCF convergence          0.2000000E-06 Eh   :
          :  -> wf. convergence          0.2000000E-04 e    :
          :  Broyden damping             0.4000000          :
          :  net charge                          0          :
          :  unpaired electrons                  0          :
          ...................................................

 iter      E             dE          RMSdq      gap      omega  full diag
   1    -44.2925782 -0.442926E+02  0.185E-01    3.52       0.0  T
   2    -44.2926430 -0.648448E-04  0.109E-01    3.51       1.0  T
   3    -44.2926373  0.568323E-05  0.382E-02    3.51       1.0  T
   4    -44.2926489 -0.115199E-04  0.928E-03    3.51       2.1  T
   5    -44.2926504 -0.150144E-05  0.368E-03    3.51       5.2  T
   6    -44.2926505 -0.122979E-06  0.202E-03    3.51       9.5  T
   7    -44.2926505 -0.802811E-08  0.579E-04    3.51      33.2  T
   8    -44.2926505 -0.382934E-08  0.243E-04    3.51      79.2  T
   9    -44.2926505 -0.188138E-09  0.115E-04    3.51     167.0  T
  10    -44.2926505 -0.618883E-10  0.386E-05    3.51     499.0  T

   *** convergence criteria satisfied after 10 iterations ***

         #    Occupation            Energy/Eh            Energy/eV
      -------------------------------------------------------------
         1        2.0000           -0.6908432             -18.7988
       ...           ...                  ...                  ...
        33        2.0000           -0.4181384             -11.3781
        34        2.0000           -0.4173374             -11.3563
        35        2.0000           -0.4068094             -11.0698
        36        2.0000           -0.3899477             -10.6110
        37        2.0000           -0.3832102             -10.4277
        38        2.0000           -0.3760318             -10.2323
        39        2.0000           -0.3616969              -9.8423 (HOMO)
        40                         -0.2326057              -6.3295 (LUMO)
        41                         -0.2003840              -5.4527
        42                         -0.1892002              -5.1484
        43                         -0.1598451              -4.3496
        44                         -0.0759058              -2.0655
       ...                                ...                  ...
        72                          0.7072640              19.2456
      -------------------------------------------------------------
                  HL-Gap            0.1290912 Eh            3.5128 eV
             Fermi-level           -0.2971513 Eh           -8.0859 eV

 SCC (total)                   0 d,  0 h,  0 min,  0.017 sec
 SCC setup                      ...        0 min,  0.000 sec (  2.272%)
 Dispersion                     ...        0 min,  0.000 sec (  0.579%)
 classical contributions        ...        0 min,  0.000 sec (  0.101%)
 integral evaluation            ...        0 min,  0.002 sec (  8.983%)
 iterations                     ...        0 min,  0.009 sec ( 54.553%)
 molecular gradient             ...        0 min,  0.006 sec ( 33.045%)
 printout                       ...        0 min,  0.000 sec (  0.387%)

         :::::::::::::::::::::::::::::::::::::::::::::::::::::
         ::                     SUMMARY                     ::
         :::::::::::::::::::::::::::::::::::::::::::::::::::::
         :: total energy             -43.670375218720 Eh    ::
         :: total w/o Gsasa/hb       -43.662097759244 Eh    ::
         :: gradient norm              0.026290926610 Eh/a0 ::
         :: HOMO-LUMO gap              3.512750830810 eV    ::
         ::.................................................::
         :: SCC energy               -44.292490485250 Eh    ::
         :: -> isotropic ES            0.190363737133 Eh    ::
         :: -> anisotropic ES         -0.005890370384 Eh    ::
         :: -> anisotropic XC          0.016095809544 Eh    ::
         :: -> dispersion             -0.026206835737 Eh    ::
         :: -> Gsolv                  -0.077358832998 Eh    ::
         ::    -> Gelec               -0.069081373522 Eh    ::
         ::    -> Gsasa                0.001946734309 Eh    ::
         ::    -> Ghb                 -0.011304953484 Eh    ::
         ::    -> Gshift               0.001080759698 Eh    ::
         :: repulsion energy           0.622115266529 Eh    ::
         :: add. restraining           0.000000000000 Eh    ::
         :: total charge              -0.000000000000 e     ::
         :::::::::::::::::::::::::::::::::::::::::::::::::::::


Property printout bound to 'properties.out'

           -------------------------------------------------
          | TOTAL ENERGY              -43.670375218720 Eh   |
          | GRADIENT NORM               0.026290926610 Eh/α |
          | HOMO-LUMO GAP               3.512750830810 eV   |
           -------------------------------------------------

------------------------------------------------------------------------
 * finished run on 2026/04/09 at 18:40:48.451     
------------------------------------------------------------------------
 total:
 * wall-time:     0 d,  0 h,  0 min,  0.022 sec
 *  cpu-time:     0 d,  0 h,  0 min,  0.021 sec
 * ratio c/w:     0.928 speedup
 SCF:
 * wall-time:     0 d,  0 h,  0 min,  0.017 sec
 *  cpu-time:     0 d,  0 h,  0 min,  0.016 sec
 * ratio c/w:     0.913 speedup


-------------------------   --------------------
FINAL SINGLE POINT ENERGY       -43.670375218720
-------------------------   --------------------


-------------
DIPOLE MOMENT
-------------
                                X             Y             Z
Total Dipole Moment    :     -5.22700      -1.96700       1.83700
                        -----------------------------------------
Magnitude (a.u.)       :      5.87922
Magnitude (Debye)      :     14.94378


------------------
CARTESIAN GRADIENT
------------------

   1   N   :   -0.005424140   -0.000046122   -0.003450433
   2   C   :    0.005936913    0.006888580    0.006124689
   3   C   :    0.001416250   -0.006214680   -0.004451126
   4   C   :   -0.001226322    0.003484171    0.002480418
   5   C   :    0.000577850   -0.001104355   -0.000994005
   6   N   :   -0.000065913   -0.002686723   -0.002183118
   7   C   :   -0.004147051   -0.001946788    0.001275873
   8   C   :   -0.000468868    0.002339170    0.001157520
   9   C   :   -0.001135950   -0.004691157   -0.002126584
  10   C   :    0.002442578    0.005173289    0.002026394
  11   C   :   -0.003330873    0.001684217    0.001733244
  12   C   :    0.003049453   -0.001232182   -0.002068207
  13   C   :   -0.003392518   -0.008216215   -0.010649338
  14   O   :    0.001470002    0.004059180    0.001363071
  15   O   :    0.000238279   -0.000697347    0.006463369
  16   H   :    0.000243344    0.000604356    0.002767958
  17   H   :   -0.000942880    0.001872114   -0.000942010
  18   H   :    0.002069855   -0.002526118    0.002057315
  19   H   :    0.000562356    0.000646569   -0.001685431
  20   H   :   -0.000841241    0.002184481    0.001403589
  21   H   :    0.000263006   -0.000677907   -0.000897119
  22   H   :    0.000347311    0.000885038    0.000448978
  23   H   :    0.001348521    0.002179056    0.001017741
  24   H   :   -0.000290482   -0.000944307   -0.000265662
  25   H   :    0.000342498    0.000474582    0.000053806
  26   H   :    0.000072214   -0.001088068   -0.000689064
  27   H   :    0.000885809   -0.000402834    0.000028133

Difference to translation invariance:
           :   -0.0000000000   -0.0000000000    0.0000000000

Difference to rotation invariance:
           :    0.0001486061    0.0002357076    0.0001376679

Norm of the Cartesian gradient     ...    0.0262909266
RMS gradient                       ...    0.0029212141
MAX gradient                       ...    0.0106493381
------------------------------------------------------------------------------
                         ORCA GEOMETRY RELAXATION STEP
------------------------------------------------------------------------------

Reading the OPT-File                    .... done
Getting information on internals        .... done
Copying old internal coords+grads       .... done
Making the new internal coordinates     .... (2022 redundants) done
Validating the new internal coordinates .... (2022 redundants) done
Calculating the B-matrix                .... done
Calculating the G,G- and P matrices     .... done
Transforming gradient to internals      .... done
Projecting the internal gradient        .... done
Number of atoms                         ....  27
Number of internal coordinates          .... 138
Current Energy                          ....   -43.670375219 Eh
Current gradient norm                   ....     0.026290927 Eh/bohr
Maximum allowed component of the step   ....  0.300
Current trust radius                    ....  0.675
Updating the Hessian (BFGS)             .... done
Forming the augmented Hessian           .... done
Diagonalizing the augmented Hessian     .... done
Last element of RFO vector              ....  0.901652854
Lowest eigenvalues of augmented Hessian:
 -0.005350408  0.012194217  0.015587884  0.016676829  0.020518585
Length of the computed step             ....  0.479630882
The final length of the internal step   ....  0.479630882
Converting the step to Cartesian space:
 Initial RMS(Int)=    0.0408288920
Transforming coordinates:
 Iter   0:  RMS(Cart)=    0.0655162031 RMS(Int)=    0.0401200667
 Iter   5:  RMS(Cart)=    0.0000082697 RMS(Int)=    0.0000047796
done
Storing new coordinates                 .... done
The predicted energy change is          ....    -0.003290623
Previously predicted energy change      ....    -0.002368907
Actually observed energy change         ....    -0.002635882
Ratio of predicted to observed change   ....     1.112699402
New trust radius                        ....     0.700000000

                                .--------------------.
          ----------------------|Geometry convergence|-------------------------
          Item                value                   Tolerance       Converged
          ---------------------------------------------------------------------
          Energy change      -0.0026358816            0.0000050000      NO
          RMS gradient        0.0014079894            0.0001000000      NO
          MAX gradient        0.0047449230            0.0003000000      NO
          RMS step            0.0408288920            0.0020000000      NO
          MAX step            0.2825476434            0.0040000000      NO
          -------------------------------------------------------------------------
          ........................................................
          Max(Bonds)      0.0286      Max(Angles)    3.23
          Max(Dihed)       16.19      Max(Improp)    0.00
          ---------------------------------------------------------------------

The optimization has not yet converged - more geometry cycles are needed


    ---------------------------------------------------------------------------
                         Redundant Internal Coordinates
                            (Angstroem and degrees)

        Definition                    Value    dE/dq     Step     New-Value
    ----------------------------------------------------------------------------
     1. B(C   1,N   0)                1.4894  0.002014  0.0085    1.4979   
     2. B(C   2,C   1)                1.5309  0.001382  0.0037    1.5346   
     3. B(C   3,C   2)                1.4945  0.000545  0.0032    1.4977   
     4. B(C   4,C   3)                1.3684  0.000205 -0.0065    1.3618   
     5. B(N   5,C   4)                1.3643  0.000265  0.0029    1.3671   
     6. B(C   6,N   5)                1.3644  0.001752 -0.0007    1.3637   
     7. B(C   7,C   6)                1.3906  0.000045 -0.0000    1.3906   
     8. B(C   8,C   7)                1.3747 -0.001171  0.0016    1.3763   
     9. B(C   9,C   8)                1.4048  0.003811 -0.0037    1.4011   
    10. B(C  10,C   9)                1.3739 -0.000787  0.0011    1.3750   
    11. B(C  11,C  10)                1.4030  0.002843 -0.0003    1.4027   
    12. B(C  11,C   6)                1.4228  0.003017 -0.0001    1.4226   
    13. B(C  11,C   3)                1.4288  0.000431  0.0083    1.4371   
    14. B(C  12,C   1)                1.5769 -0.003227  0.0286    1.6055   
    15. B(O  13,C  12)                1.2452  0.000313  0.0026    1.2478   
    16. B(O  14,C  12)                1.2357 -0.004521  0.0214    1.2571   
    17. B(H  15,N   0)                1.0306 -0.000317  0.0023    1.0329   
    18. B(H  16,N   0)                1.0242 -0.002079  0.0027    1.0270   
    19. B(H  17,N   0)                1.0247 -0.001545  0.0012    1.0259   
    20. B(H  18,C   1)                1.0929 -0.000581 -0.0026    1.0903   
    21. B(H  19,C   2)                1.0863 -0.002102  0.0034    1.0897   
    22. B(H  20,C   2)                1.0915 -0.000695 -0.0019    1.0896   
    23. B(H  21,C   4)                1.0717 -0.000558  0.0010    1.0727   
    24. B(H  22,N   5)                1.0025 -0.002743  0.0066    1.0091   
    25. B(H  23,C   7)                1.0809  0.000919 -0.0001    1.0807   
    26. B(H  24,C   8)                1.0795 -0.000242 -0.0004    1.0791   
    27. B(H  25,C   9)                1.0773 -0.001260  0.0028    1.0801   
    28. B(H  26,C  10)                1.0807  0.000284 -0.0023    1.0784   
    29. A(H  16,N   0,H  17)          106.16 -0.002174    2.90    109.06   
    30. A(H  15,N   0,H  17)          109.78 -0.000521   -1.19    108.59   
    31. A(H  15,N   0,H  16)          109.72 -0.001753    1.14    110.86   
    32. A(C   1,N   0,H  15)          111.89  0.004242   -3.23    108.67   
    33. A(C   1,N   0,H  16)          109.47 -0.000365    1.26    110.73   
    34. A(C   1,N   0,H  17)          109.65  0.000223   -0.27    109.38   
    35. A(C   2,C   1,C  12)          112.99 -0.000382   -0.11    112.88   
    36. A(C   2,C   1,H  18)          108.91 -0.000179    1.57    110.47   
    37. A(N   0,C   1,C   2)          110.21 -0.000184   -1.78    108.42   
    38. A(N   0,C   1,C  12)          109.49  0.001886   -1.00    108.49   
    39. A(N   0,C   1,H  18)          108.95 -0.000045   -0.12    108.83   
    40. A(C  12,C   1,H  18)          106.16 -0.001137    1.70    107.86   
    41. A(C   1,C   2,C   3)          111.47  0.000161   -0.66    110.81   
    42. A(H  19,C   2,H  20)          106.06 -0.001075    1.60    107.66   
    43. A(C   3,C   2,H  20)          111.09  0.000049    0.30    111.39   
    44. A(C   3,C   2,H  19)          110.89  0.000283   -0.59    110.30   
    45. A(C   1,C   2,H  20)          108.93  0.000177    0.26    109.19   
    46. A(C   1,C   2,H  19)          108.20  0.000356   -0.79    107.41   
    47. A(C   2,C   3,C   4)          125.13 -0.003992    1.82    126.95   
    48. A(C   2,C   3,C  11)          128.61  0.004045   -2.23    126.38   
    49. A(C   4,C   3,C  11)          106.24 -0.000054    0.41    106.65   
    50. A(N   5,C   4,H  21)          121.55  0.000550   -0.40    121.15   
    51. A(C   3,C   4,H  21)          127.94 -0.001244    0.42    128.35   
    52. A(C   3,C   4,N   5)          110.51  0.000694   -0.01    110.50   
    53. A(C   6,N   5,H  22)          125.58 -0.000090    0.10    125.69   
    54. A(C   4,N   5,H  22)          125.40 -0.000175    0.07    125.47   
    55. A(C   4,N   5,C   6)          109.02  0.000266   -0.18    108.84   
    56. A(C   7,C   6,C  11)          121.57 -0.000012   -0.01    121.56   
    57. A(N   5,C   6,C  11)          107.50 -0.001202    0.49    107.98   
    58. A(N   5,C   6,C   7)          130.93  0.001214   -0.47    130.46   
    59. A(C   6,C   7,C   8)          117.79  0.000054   -0.07    117.73   
    60. A(C   8,C   7,H  23)          121.41  0.000417   -0.26    121.15   
    61. A(C   6,C   7,H  23)          120.79 -0.000471    0.33    121.12   
    62. A(C   9,C   8,H  24)          118.52 -0.001146    0.79    119.31   
    63. A(C   7,C   8,H  24)          119.83 -0.000056   -0.37    119.46   
    64. A(C   7,C   8,C   9)          121.64  0.001203   -0.42    121.22   
    65. A(C  10,C   9,H  25)          120.23  0.000830   -0.77    119.46   
    66. A(C   8,C   9,H  25)          118.83  0.000291   -0.25    118.58   
    67. A(C   8,C   9,C  10)          120.94 -0.001122    1.02    121.96   
    68. A(C   9,C  10,C  11)          119.01  0.000516   -1.02    117.98   
    69. A(C  11,C  10,H  26)          120.19 -0.001060    1.02    121.20   
    70. A(C   9,C  10,H  26)          120.79  0.000548   -0.02    120.77   
    71. A(C   3,C  11,C   6)          106.73  0.000298   -0.71    106.03   
    72. A(C   6,C  11,C  10)          119.04 -0.000637    0.50    119.54   
    73. A(C   3,C  11,C  10)          134.21  0.000341    0.20    134.41   
    74. A(O  13,C  12,O  14)          127.44 -0.003903    2.63    130.07   
    75. A(C   1,C  12,O  14)          117.49  0.000121   -0.41    117.08   
    76. A(C   1,C  12,O  13)          114.74  0.003122   -2.68    112.06   
    77. D(C   2,C   1,N   0,H  16)    158.57 -0.000095    3.45    162.03   
    78. D(C  12,C   1,N   0,H  16)    -76.56  0.000606    1.23    -75.33   
    79. D(C   2,C   1,N   0,H  17)    -85.34 -0.002795    7.42    -77.92   
    80. D(C  12,C   1,N   0,H  17)     39.53 -0.002094    5.20     44.73   
    81. D(C  12,C   1,N   0,H  15)    161.59  0.000255    1.00    162.59   
    82. D(C   2,C   1,N   0,H  15)     36.72 -0.000446    3.22     39.94   
    83. D(H  19,C   2,C   1,H  18)    -64.51 -0.000029    0.87    -63.64   
    84. D(C   3,C   2,C   1,H  18)     57.67  0.000665   -0.86     56.81   
    85. D(H  19,C   2,C   1,C  12)     53.19 -0.001796    3.88     57.07   
    86. D(C   3,C   2,C   1,C  12)    175.37 -0.001101    2.15    177.52   
    87. D(C   3,C   2,C   1,N   0)    -61.79  0.000940   -0.65    -62.44   
    88. D(H  19,C   2,C   1,N   0)    176.03  0.000246    1.08    177.11   
    89. D(C   4,C   3,C   2,H  20)    147.60 -0.000716    1.33    148.93   
    90. D(C   4,C   3,C   2,H  19)     29.91  0.000411   -0.47     29.44   
    91. D(C   4,C   3,C   2,C   1)    -90.70 -0.000344    1.42    -89.29   
    92. D(C  11,C   3,C   2,H  19)   -152.14  0.000341   -0.47   -152.60   
    93. D(C  11,C   3,C   2,C   1)     87.25 -0.000413    1.42     88.67   
    94. D(H  21,C   4,C   3,C  11)    179.35  0.000071   -0.41    178.94   
    95. D(H  21,C   4,C   3,C   2)     -2.32  0.000108   -0.46     -2.78   
    96. D(N   5,C   4,C   3,C  11)     -0.25  0.000105   -0.38     -0.62   
    97. D(N   5,C   4,C   3,C   2)    178.09  0.000142   -0.43    177.66   
    98. D(H  22,N   5,C   4,H  21)      0.21  0.000095   -0.17      0.03   
    99. D(H  22,N   5,C   4,C   3)    179.83  0.000055   -0.20    179.63   
   100. D(C   6,N   5,C   4,H  21)   -179.41 -0.000038    0.34   -179.07   
   101. D(C   6,N   5,C   4,C   3)      0.22 -0.000078    0.31      0.53   
   102. D(C  11,C   6,N   5,H  22)   -179.71 -0.000114    0.41   -179.30   
   103. D(C  11,C   6,N   5,C   4)     -0.10  0.000018   -0.11     -0.20   
   104. D(C   7,C   6,N   5,C   4)    179.35 -0.000031    0.19    179.55   
   105. D(C   7,C   6,N   5,H  22)     -0.26 -0.000163    0.71      0.45   
   106. D(C   8,C   7,C   6,C  11)      0.28 -0.000045    0.20      0.47   
   107. D(C   8,C   7,C   6,N   5)   -179.11  0.000013   -0.14   -179.25   
   108. D(H  23,C   7,C   6,C  11)    179.99 -0.000010   -0.01    179.98   
   109. D(H  23,C   7,C   6,N   5)      0.60  0.000048   -0.35      0.26   
   110. D(H  24,C   8,C   7,H  23)     -0.01 -0.000050    0.06      0.04   
   111. D(H  24,C   8,C   7,C   6)    179.70 -0.000017   -0.15    179.55   
   112. D(C   9,C   8,C   7,H  23)   -179.43 -0.000106    0.50   -178.93   
   113. D(C   9,C   8,C   7,C   6)      0.28 -0.000073    0.29      0.58   
   114. D(H  25,C   9,C   8,H  24)     -0.33  0.000006   -0.12     -0.44   
   115. D(H  25,C   9,C   8,C   7)    179.10  0.000067   -0.56    178.54   
   116. D(C  10,C   9,C   8,H  24)   -179.87  0.000031    0.03   -179.84   
   117. D(C  10,C   9,C   8,C   7)     -0.44  0.000092   -0.41     -0.86   
   118. D(H  26,C  10,C   9,H  25)     -1.21  0.000186   -1.01     -2.23   
   119. D(H  26,C  10,C   9,C   8)    178.32  0.000158   -1.16    177.16   
   120. D(C  11,C  10,C   9,H  25)   -179.51  0.000036    0.17   -179.34   
   121. D(C  11,C  10,C   9,C   8)      0.03  0.000008    0.02      0.05   
   122. D(C   6,C  11,C  10,H  26)   -177.79 -0.000313    1.63   -176.16   
   123. D(C   6,C  11,C  10,C   9)      0.51 -0.000136    0.45      0.96   
   124. D(C   3,C  11,C  10,C   9)    179.02 -0.000044    0.20    179.22   
   125. D(C  10,C  11,C   6,C   7)     -0.68  0.000154   -0.57     -1.25   
   126. D(C  10,C  11,C   6,N   5)    178.84  0.000120   -0.31    178.52   
   127. D(C   3,C  11,C   6,C   7)   -179.56  0.000080   -0.39   -179.95   
   128. D(C   3,C  11,C   6,N   5)     -0.05  0.000046   -0.13     -0.18   
   129. D(C  10,C  11,C   3,C   4)   -178.46 -0.000166    0.53   -177.94   
   130. D(C   3,C  11,C  10,H  26)      0.72 -0.000221    1.38      2.10   
   131. D(C  10,C  11,C   3,C   2)      3.28 -0.000021    0.49      3.77   
   132. D(C   6,C  11,C   3,C   4)      0.18 -0.000092    0.30      0.48   
   133. D(C   6,C  11,C   3,C   2)   -178.08  0.000052    0.27   -177.81   
   134. D(O  14,C  12,C   1,C   2)     18.45  0.004745  -16.19      2.26   
   135. D(O  14,C  12,C   1,N   0)   -104.79  0.003856  -12.99   -117.79   
   136. D(O  13,C  12,C   1,H  18)    -48.36 -0.002768    6.21    -42.15   
   137. D(O  13,C  12,C   1,C   2)   -167.66 -0.001593    3.32   -164.33   
   138. D(O  13,C  12,C   1,N   0)     69.10 -0.002482    6.52     75.62   
    ----------------------------------------------------------------------------

Geometry step timings:
Preparation and reading OPT file:      0.000 s ( 0.456 %)
Internal coordinates            :      0.000 s ( 0.547 %)
B/P matrices and projection     :      0.001 s (41.469 %)
Hessian update/contruction      :      0.000 s ( 9.033 %)
Making the step                 :      0.001 s (32.345 %)
Converting the step to Cartesian:      0.000 s ( 4.608 %)
Storing new data                :      0.000 s ( 0.730 %)
Checking convergence            :      0.000 s ( 0.821 %)
Final printing                  :      0.000 s ( 9.991 %)
Total time                      :      0.002 s

Time for energy+gradient        :      0.026 s
Time for complete geometry iter :      0.028 s

         *************************************************************
         *                GEOMETRY OPTIMIZATION CYCLE   5            *
         *************************************************************
---------------------------------
CARTESIAN COORDINATES (ANGSTROEM)
---------------------------------
  N     1.724358    0.358373    1.385901
  C     2.384038   -0.037951    0.100824
  C     1.468963    0.373789   -1.060272
  C     0.159589   -0.349709   -0.987712
  C    -0.141562   -1.555074   -1.545291
  N    -1.418522   -1.924470   -1.226014
  C    -1.979735   -0.948784   -0.456097
  C    -3.249489   -0.859757    0.103737
  C    -3.549632    0.267518    0.834046
  C    -2.613290    1.296717    0.998621
  C    -1.351097    1.225844    0.457837
  C    -1.013503    0.080029   -0.277482
  C     3.826617    0.663441    0.033190
  O     4.651525    0.097225    0.778822
  O     4.017744    1.475994   -0.906766
  H     0.712863    0.163188    1.310370
  H     2.137061   -0.148939    2.177699
  H     1.849268    1.365973    1.533250
  H     2.537185   -1.117447    0.101162
  H     1.986584    0.125451   -1.986420
  H     1.327925    1.454021   -1.039667
  H     0.478364   -2.176903   -2.161574
  H    -1.874348   -2.773830   -1.524603
  H    -3.978303   -1.645282   -0.036754
  H    -4.529350    0.369075    1.274927
  H    -2.902104    2.172967    1.560205
  H    -0.661150    2.048538    0.558060

----------------------------
CARTESIAN COORDINATES (A.U.)
----------------------------
  NO LB    ZA    FRAG    MASS        X           Y           Z
   0 N   7.0000    0    14.007    3.258564    0.677227    2.618974
   1 C   6.0000    0    12.011    4.505180   -0.071717    0.190529
   2 C   6.0000    0    12.011    2.775937    0.706360   -2.003623
   3 C   6.0000    0    12.011    0.301579   -0.660854   -1.866505
   4 C   6.0000    0    12.011   -0.267513   -2.938663   -2.920176
   5 N   7.0000    0    14.007   -2.680618   -3.636722   -2.316830
   6 C   6.0000    0    12.011   -3.741157   -1.792942   -0.861898
   7 C   6.0000    0    12.011   -6.140645   -1.624704    0.196034
   8 C   6.0000    0    12.011   -6.707833    0.505535    1.576118
   9 C   6.0000    0    12.011   -4.938401    2.450440    1.887120
  10 C   6.0000    0    12.011   -2.553203    2.316510    0.865186
  11 C   6.0000    0    12.011   -1.915243    0.151234   -0.524365
  12 C   6.0000    0    12.011    7.231258    1.253723    0.062720
  13 O   8.0000    0    15.999    8.790109    0.183729    1.471760
  14 O   8.0000    0    15.999    7.592436    2.789224   -1.713539
  15 H   1.0000    0     1.008    1.347115    0.308381    2.476241
  16 H   1.0000    0     1.008    4.038460   -0.281454    4.115256
  17 H   1.0000    0     1.008    3.494611    2.581315    2.897422
  18 H   1.0000    0     1.008    4.794586   -2.111668    0.191169
  19 H   1.0000    0     1.008    3.754100    0.237068   -3.753790
  20 H   1.0000    0     1.008    2.509414    2.747702   -1.964685
  21 H   1.0000    0     1.008    0.903977   -4.113751   -4.084783
  22 H   1.0000    0     1.008   -3.542004   -5.241779   -2.881082
  23 H   1.0000    0     1.008   -7.517903   -3.109133   -0.069455
  24 H   1.0000    0     1.008   -8.559231    0.697451    2.409263
  25 H   1.0000    0     1.008   -5.484182    4.106313    2.948360
  26 H   1.0000    0     1.008   -1.249393    3.871175    1.054580

      -----------------------------------------------------------      
     |                   =====================                   |     
     |                           x T B                           |     
     |                   =====================                   |     
     |                         S. Grimme                         |     
     |          Mulliken Center for Theoretical Chemistry        |     
     |                    University of Bonn                     |     
      -----------------------------------------------------------      

   * xtb version 6.7.1 (edcfbbe) compiled by 'albert@albert-system' on 2024-07-22

   xtb is free software: you can redistribute it and/or modify it under
   the terms of the GNU Lesser General Public License as published by
   the Free Software Foundation, either version 3 of the License, or
   (at your option) any later version.
   
   xtb is distributed in the hope that it will be useful,
   but WITHOUT ANY WARRANTY; without even the implied warranty of
   MERCHANTABILITY or FITNESS FOR A PARTICULAR PURPOSE.  See the
   GNU Lesser General Public License for more details.
   
   Cite this work as:
   * C. Bannwarth, E. Caldeweyher, S. Ehlert, A. Hansen, P. Pracht,
     J. Seibert, S. Spicher, S. Grimme, WIREs Comput. Mol. Sci., 2020, 11,
     e01493. DOI: 10.1002/wcms.1493
   
   for GFN2-xTB:
   * C. Bannwarth, S. Ehlert and S. Grimme., J. Chem. Theory Comput., 2019,
     15, 1652-1671. DOI: 10.1021/acs.jctc.8b01176
   for GFN1-xTB:
   * S. Grimme, C. Bannwarth, P. Shushkov, J. Chem. Theory Comput., 2017,
     13, 1989-2009. DOI: 10.1021/acs.jctc.7b00118
   for GFN0-xTB:
   * P. Pracht, E. Caldeweyher, S. Ehlert, S. Grimme, ChemRxiv, 2019, preprint.
     DOI: 10.26434/chemrxiv.8326202.v1
   for GFN-FF:
   * S. Spicher and S. Grimme, Angew. Chem. Int. Ed., 2020, 59, 15665-15673.
     DOI: 10.1002/anie.202004239
   
   for ALPB and GBSA implicit solvation:
   * S. Ehlert, M. Stahn, S. Spicher, S. Grimme, J. Chem. Theory Comput.,
     2021, 17, 4250-4261. DOI: 10.1021/acs.jctc.1c00471
   
   for ddCOSMO and CPCM-X implicit solvation:
   * M. Stahn, S. Ehlert, S. Grimme, J. Phys. Chem. A,
     2023, XX, XXXX-XXXX. DOI: 10.1021/acs.jpca.3c04382
   
   for DFT-D4:
   * E. Caldeweyher, C. Bannwarth and S. Grimme, J. Chem. Phys., 2017,
     147, 034112. DOI: 10.1063/1.4993215
   * E. Caldeweyher, S. Ehlert, A. Hansen, H. Neugebauer, S. Spicher,
     C. Bannwarth and S. Grimme, J. Chem. Phys., 2019, 150, 154122.
     DOI: 10.1063/1.5090222
   * E. Caldeweyher, J.-M. Mewes, S. Ehlert and S. Grimme, Phys. Chem. Chem. Phys.
     2020, 22, 8499-8512. DOI: 10.1039/D0CP00502A
   
   for sTDA-xTB:
   * S. Grimme and C. Bannwarth, J. Chem. Phys., 2016, 145, 054103.
     DOI: 10.1063/1.4959605
   
   in the mass-spec context:
   * V. Asgeirsson, C. Bauer and S. Grimme, Chem. Sci., 2017, 8, 4879.
     DOI: 10.1039/c7sc00601b
   * J. Koopman and S. Grimme, ACS Omega 2019, 4, 12, 15120-15133.
     DOI: 10.1021/acsomega.9b02011
   
   for metadynamics refer to:
   * S. Grimme, J. Chem. Theory Comput., 2019, 155, 2847-2862
     DOI: 10.1021/acs.jctc.9b00143
   
   for SPH calculations refer to:
   * S. Spicher and S. Grimme, J. Chem. Theory Comput., 2021, 17, 1701-1714
     DOI: 10.1021/acs.jctc.0c01306
   
   for ONIOM refer to:
   * C. Plett, A. Katbashev, S. Ehlert, S. Grimme, M. Bursch,
     Phys. Chem. Chem. Phys., 2023, 25, 17860-17868. DOI: 10.1039/D3CP02178E
   
   for DIPRO refer to:
   * J. Kohn, N. Gildemeister, S. Grimme, D. Fazzi, A. Hansen,
     J. Chem. Phys., 2023, just accepted.
   
   for PTB refer to:
   * S. Grimme, M. Mueller, A. Hansen, J. Chem. Phys., 2023, 158, 124111.
     DOI: 10.1063/5.0137838
   
   with help from (in alphabetical order)
   P. Atkinson, C. Bannwarth, F. Bohle, G. Brandenburg, E. Caldeweyher
   M. Checinski, S. Dohm, S. Ehlert, S. Ehrlich, I. Gerasimov, C. Hölzer
   A. Katbashev, J. Kohn, J. Koopman, C. Lavigne, S. Lehtola, F. März, M. Müller,
   F. Musil, H. Neugebauer, J. Pisarek, C. Plett, P. Pracht, F. Pultar,
   J. Seibert, P. Shushkov, S. Spicher, M. Stahn, M. Steiner, T. Strunk,
   J. Stückrath, T. Rose, and J. Unsleber
   
 * started run on 2026/04/09 at 18:40:48.457     
   ID    Z sym.   atoms
    1    7 N      1, 6
    2    6 C      2-5, 7-13
    3    8 O      14, 15
    4    1 H      16-27

           -------------------------------------------------
          |                Calculation Setup                |
           -------------------------------------------------

          program call               : /home/analima/Programs/orca-6.1.0-f.0_linux_x86-64/bin/otool_xtb geo_opt_XTB.xyz --grad -c 0 -u 0 -P 1 --namespace geo_opt --input geo_opt_XTB.input.tmp --alpb WATER --acc 0.200000
          calculation namespace      : geo_opt
          coordinate file            : geo_opt_XTB.xyz
          omp threads                :                     1


           -------------------------------------------------
          |                 G F N 2 - x T B                 |
           -------------------------------------------------

        Reference                      10.1021/acs.jctc.8b01176
      * Hamiltonian:
        H0-scaling (s, p, d)           1.850000    2.230000    2.230000
        zeta-weighting                 0.500000
      * Dispersion:
        s8                             2.700000
        a1                             0.520000
        a2                             5.000000
        s9                             5.000000
      * Repulsion:
        kExp                           1.500000    1.000000
        rExp                           1.000000
      * Coulomb:
        alpha                          2.000000
        third order                    shell-resolved
        anisotropic                    true
        a3                             3.000000
        a5                             4.000000
        cn-shift                       1.200000
        cn-exp                         4.000000
        max-rad                        5.000000

      * Solvation model:               ALPB
        Solvent                        WATER
        Parameter file                 internal GFN2-xTB/ALPB
        Dielectric constant                8.0200E+01
        Reference state                gsolv [1 M gas/solution]
        Free energy shift                  1.0808E-03 Eh       6.7819E-01 kcal/mol
        Temperature                        2.9815E+02 K
        Density                            1.0000E+00 kg/L
        Solvent mass                       1.8000E+01 g/mol
        Interaction kernel             P16
        Born radius scaling (c1)           1.4744E+00
        Born radii integrator          GBOBC
        Born offset                        0.0000E+00 a0       0.0000E+00 AA
        H-bond correction              true
        Ion screening                  false
        Surface tension                    1.0000E-05 Eh       1.5569E+01 dyn/cm
        Grid points                               230 per atom
q/qsh data taken from xtbrestart
CAMM data taken from xtbrestart

          ...................................................
          :                      SETUP                      :
          :.................................................:
          :  # basis functions                  72          :
          :  # atomic orbitals                  72          :
          :  # shells                           42          :
          :  # electrons                        78          :
          :  max. iterations                   250          :
          :  Hamiltonian                  GFN2-xTB          :
          :  restarted?                       true          :
          :  GBSA solvation                   true          :
          :  PC potential                    false          :
          :  electronic temp.          300.0000000     K    :
          :  accuracy                    0.2000000          :
          :  -> integral cutoff          0.3198970E+02      :
          :  -> integral neglect         0.2000000E-08      :
          :  -> SCF convergence          0.2000000E-06 Eh   :
          :  -> wf. convergence          0.2000000E-04 e    :
          :  Broyden damping             0.4000000          :
          :  net charge                          0          :
          :  unpaired electrons                  0          :
          ...................................................

 iter      E             dE          RMSdq      gap      omega  full diag
   1    -44.2791228 -0.442791E+02  0.356E-01    3.51       0.0  T
   2    -44.2792916 -0.168759E-03  0.209E-01    3.50       1.0  T
   3    -44.2792665  0.250609E-04  0.670E-02    3.50       1.0  T
   4    -44.2793128 -0.462105E-04  0.139E-02    3.50       1.4  T
   5    -44.2793151 -0.235669E-05  0.667E-03    3.50       2.9  T
   6    -44.2793155 -0.356697E-06  0.349E-03    3.50       5.5  T
   7    -44.2793155 -0.418916E-07  0.788E-04    3.50      24.4  T
   8    -44.2793155 -0.548014E-08  0.347E-04    3.50      55.5  T
   9    -44.2793155 -0.525993E-09  0.162E-04    3.50     118.5  T
  10    -44.2793155 -0.664144E-10  0.497E-05    3.50     387.4  T

   *** convergence criteria satisfied after 10 iterations ***

         #    Occupation            Energy/Eh            Energy/eV
      -------------------------------------------------------------
         1        2.0000           -0.6889553             -18.7474
       ...           ...                  ...                  ...
        33        2.0000           -0.4187380             -11.3944
        34        2.0000           -0.4183435             -11.3837
        35        2.0000           -0.4066867             -11.0665
        36        2.0000           -0.3935477             -10.7090
        37        2.0000           -0.3838414             -10.4449
        38        2.0000           -0.3751679             -10.2088
        39        2.0000           -0.3620082              -9.8507 (HOMO)
        40                         -0.2333626              -6.3501 (LUMO)
        41                         -0.2008051              -5.4642
        42                         -0.1981492              -5.3919
        43                         -0.1601415              -4.3577
        44                         -0.0771105              -2.0983
       ...                                ...                  ...
        72                          0.7044201              19.1682
      -------------------------------------------------------------
                  HL-Gap            0.1286457 Eh            3.5006 eV
             Fermi-level           -0.2976854 Eh           -8.1004 eV

 SCC (total)                   0 d,  0 h,  0 min,  0.015 sec
 SCC setup                      ...        0 min,  0.001 sec (  3.415%)
 Dispersion                     ...        0 min,  0.000 sec (  1.101%)
 classical contributions        ...        0 min,  0.000 sec (  0.210%)
 integral evaluation            ...        0 min,  0.002 sec ( 14.622%)
 iterations                     ...        0 min,  0.008 sec ( 50.570%)
 molecular gradient             ...        0 min,  0.005 sec ( 29.654%)
 printout                       ...        0 min,  0.000 sec (  0.359%)

         :::::::::::::::::::::::::::::::::::::::::::::::::::::
         ::                     SUMMARY                     ::
         :::::::::::::::::::::::::::::::::::::::::::::::::::::
         :: total energy             -43.667146540087 Eh    ::
         :: total w/o Gsasa/hb       -43.658992824219 Eh    ::
         :: gradient norm              0.055943762085 Eh/a0 ::
         :: HOMO-LUMO gap              3.500626397725 eV    ::
         ::.................................................::
         :: SCC energy               -44.279153229167 Eh    ::
         :: -> isotropic ES            0.188876182713 Eh    ::
         :: -> anisotropic ES         -0.005751325120 Eh    ::
         :: -> anisotropic XC          0.017143151740 Eh    ::
         :: -> dispersion             -0.026271339133 Eh    ::
         :: -> Gsolv                  -0.077537101072 Eh    ::
         ::    -> Gelec               -0.069383385204 Eh    ::
         ::    -> Gsasa                0.001950978948 Eh    ::
         ::    -> Ghb                 -0.011185454515 Eh    ::
         ::    -> Gshift               0.001080759698 Eh    ::
         :: repulsion energy           0.612006689080 Eh    ::
         :: add. restraining           0.000000000000 Eh    ::
         :: total charge              -0.000000000000 e     ::
         :::::::::::::::::::::::::::::::::::::::::::::::::::::


Property printout bound to 'properties.out'

           -------------------------------------------------
          | TOTAL ENERGY              -43.667146540087 Eh   |
          | GRADIENT NORM               0.055943762085 Eh/α |
          | HOMO-LUMO GAP               3.500626397725 eV   |
           -------------------------------------------------

------------------------------------------------------------------------
 * finished run on 2026/04/09 at 18:40:48.478     
------------------------------------------------------------------------
 total:
 * wall-time:     0 d,  0 h,  0 min,  0.021 sec
 *  cpu-time:     0 d,  0 h,  0 min,  0.020 sec
 * ratio c/w:     0.927 speedup
 SCF:
 * wall-time:     0 d,  0 h,  0 min,  0.015 sec
 *  cpu-time:     0 d,  0 h,  0 min,  0.014 sec
 * ratio c/w:     0.903 speedup


-------------------------   --------------------
FINAL SINGLE POINT ENERGY       -43.667146540090
-------------------------   --------------------


-------------
DIPOLE MOMENT
-------------
                                X             Y             Z
Total Dipole Moment    :     -5.37700      -1.83600       1.95800
                        -----------------------------------------
Magnitude (a.u.)       :      6.00972
Magnitude (Debye)      :     15.27551


------------------
CARTESIAN GRADIENT
------------------

   1   N   :   -0.001039253    0.001888639    0.001516784
   2   C   :    0.005694431   -0.016138068   -0.002106046
   3   C   :   -0.001125862    0.004397300   -0.002486261
   4   C   :   -0.000096435   -0.007307447   -0.002565554
   5   C   :    0.001841040    0.003719847    0.001030702
   6   N   :   -0.000027162    0.000049459   -0.000250648
   7   C   :   -0.001236405   -0.001567343   -0.000340708
   8   C   :    0.000143570    0.001494220    0.000637093
   9   C   :   -0.001692312   -0.001554393    0.000042484
  10   C   :    0.002413207   -0.001121066   -0.001228717
  11   C   :    0.000986561    0.005155955    0.003229246
  12   C   :   -0.001256824    0.003169253    0.001815220
  13   C   :   -0.007244789    0.019862220    0.032067132
  14   O   :    0.002747461   -0.016056766   -0.001744021
  15   O   :    0.004405418    0.009222721   -0.027809741
  16   H   :   -0.000182587    0.001223829   -0.001546570
  17   H   :   -0.000326936   -0.001215722    0.001291680
  18   H   :    0.000165636    0.000638388   -0.000398165
  19   H   :   -0.002039880   -0.000966707   -0.000019965
  20   H   :    0.000021150   -0.001140070    0.000330275
  21   H   :   -0.000220983   -0.000109767    0.000470957
  22   H   :    0.000188141    0.000213234   -0.000142515
  23   H   :   -0.001207539   -0.002647976   -0.000738653
  24   H   :   -0.000669742   -0.000599834   -0.000014335
  25   H   :   -0.000048758   -0.000490452   -0.000433727
  26   H   :    0.000123428   -0.000008862   -0.000222638
  27   H   :   -0.000314577   -0.000110592   -0.000383309

Difference to translation invariance:
           :    0.0000000000   -0.0000000000    0.0000000000

Difference to rotation invariance:
           :   -0.0000687304    0.0002520770   -0.0002546303

Norm of the Cartesian gradient     ...    0.0559437621
RMS gradient                       ...    0.0062159736
MAX gradient                       ...    0.0320671318
------------------------------------------------------------------------------
                         ORCA GEOMETRY RELAXATION STEP
------------------------------------------------------------------------------

Reading the OPT-File                    .... done
Getting information on internals        .... done
Copying old internal coords+grads       .... done
Making the new internal coordinates     .... (2022 redundants) done
Validating the new internal coordinates .... (2022 redundants) done
Calculating the B-matrix                .... done
Calculating the G,G- and P matrices     .... done
Transforming gradient to internals      .... done
Projecting the internal gradient        .... done
Number of atoms                         ....  27
Number of internal coordinates          .... 138
Current Energy                          ....   -43.667146540 Eh
Current gradient norm                   ....     0.055943762 Eh/bohr
Maximum allowed component of the step   ....  0.300
Current trust radius                    ....  0.700
Updating the Hessian (BFGS)             .... done
Forming the augmented Hessian           .... done
Diagonalizing the augmented Hessian     .... done
Last element of RFO vector              ....  0.963745201
Lowest eigenvalues of augmented Hessian:
 -0.008361890  0.011848131  0.015564652  0.016603558  0.021294292
Length of the computed step             ....  0.276861832
The final length of the internal step   ....  0.276861832
Converting the step to Cartesian space:
 Initial RMS(Int)=    0.0235680442
Transforming coordinates:
 Iter   0:  RMS(Cart)=    0.0383556371 RMS(Int)=    0.5353457920
 Iter   5:  RMS(Cart)=    0.0000002143 RMS(Int)=    0.0000001552
done
Storing new coordinates                 .... done
The predicted energy change is          ....    -0.004501425
Previously predicted energy change      ....    -0.003290623
Actually observed energy change         ....     0.003228679
Ratio of predicted to observed change   ....     0.981175413
New trust radius                        ....     0.466666667

                                .--------------------.
          ----------------------|Geometry convergence|-------------------------
          Item                value                   Tolerance       Converged
          ---------------------------------------------------------------------
          Energy change       0.0032286786            0.0000050000      NO
          RMS gradient        0.0036102963            0.0001000000      NO
          MAX gradient        0.0274245938            0.0003000000      NO
          RMS step            0.0235680442            0.0020000000      NO
          MAX step            0.1451258100            0.0040000000      NO
          -------------------------------------------------------------------------
          ........................................................
          Max(Bonds)      0.0183      Max(Angles)    1.51
          Max(Dihed)        8.32      Max(Improp)    0.00
          ---------------------------------------------------------------------

The optimization has not yet converged - more geometry cycles are needed


    ---------------------------------------------------------------------------
                         Redundant Internal Coordinates
                            (Angstroem and degrees)

        Definition                    Value    dE/dq     Step     New-Value
    ----------------------------------------------------------------------------
     1. B(C   1,N   0)                1.4979  0.002027 -0.0056    1.4923   
     2. B(C   2,C   1)                1.5346  0.002664 -0.0037    1.5310   
     3. B(C   3,C   2)                1.4977  0.001546 -0.0023    1.4954   
     4. B(C   4,C   3)                1.3618 -0.003038  0.0036    1.3654   
     5. B(N   5,C   4)                1.3671  0.001565 -0.0017    1.3654   
     6. B(C   6,N   5)                1.3637  0.001702 -0.0011    1.3626   
     7. B(C   7,C   6)                1.3905 -0.000061  0.0000    1.3906   
     8. B(C   8,C   7)                1.3763 -0.001099  0.0003    1.3766   
     9. B(C   9,C   8)                1.4011  0.002470 -0.0009    1.4002   
    10. B(C  10,C   9)                1.3750 -0.000784  0.0001    1.3751   
    11. B(C  11,C  10)                1.4027  0.002798 -0.0020    1.4007   
    12. B(C  11,C   6)                1.4227  0.003020 -0.0024    1.4202   
    13. B(C  11,C   3)                1.4371  0.003044 -0.0044    1.4327   
    14. B(C  12,C   1)                1.6055  0.005505 -0.0123    1.5932   
    15. B(O  13,C  12)                1.2478  0.008060 -0.0035    1.2444   
    16. B(O  14,C  12)                1.2571  0.027425 -0.0183    1.2388   
    17. B(H  15,N   0)                1.0329  0.000061 -0.0007    1.0322   
    18. B(H  16,N   0)                1.0270  0.001465 -0.0003    1.0267   
    19. B(H  17,N   0)                1.0259  0.000591  0.0004    1.0264   
    20. B(H  18,C   1)                1.0903  0.000669  0.0011    1.0914   
    21. B(H  19,C   2)                1.0897 -0.000012  0.0006    1.0903   
    22. B(H  20,C   2)                1.0896 -0.000070  0.0014    1.0910   
    23. B(H  21,C   4)                1.0727  0.000068 -0.0000    1.0727   
    24. B(H  22,N   5)                1.0091  0.002993 -0.0023    1.0068   
    25. B(H  23,C   7)                1.0807  0.000891 -0.0011    1.0796   
    26. B(H  24,C   8)                1.0791 -0.000180  0.0004    1.0796   
    27. B(H  25,C   9)                1.0801 -0.000158 -0.0000    1.0801   
    28. B(H  26,C  10)                1.0784 -0.000323  0.0009    1.0792   
    29. A(H  16,N   0,H  17)          109.00  0.000413   -0.74    108.25   
    30. A(H  15,N   0,H  17)          108.38 -0.000006    0.54    108.92   
    31. A(H  15,N   0,H  16)          110.89  0.000545   -0.34    110.55   
    32. A(C   1,N   0,H  15)          108.57 -0.001654    0.98    109.56   
    33. A(C   1,N   0,H  16)          110.72  0.001343   -0.51    110.21   
    34. A(C   1,N   0,H  17)          109.24 -0.000689    0.19    109.42   
    35. A(C   2,C   1,C  12)          112.75 -0.000472    0.21    112.96   
    36. A(C   2,C   1,H  18)          110.46 -0.004312   -0.21    110.26   
    37. A(N   0,C   1,C   2)          108.39 -0.002750    0.93    109.32   
    38. A(N   0,C   1,C  12)          108.44  0.001089    0.06    108.50   
    39. A(N   0,C   1,H  18)          108.88  0.003506   -0.31    108.57   
    40. A(C  12,C   1,H  18)          107.84  0.003223   -0.71    107.13   
    41. A(C   1,C   2,C   3)          110.80 -0.001756    0.34    111.14   
    42. A(H  19,C   2,H  20)          107.67  0.000840   -0.53    107.14   
    43. A(C   3,C   2,H  20)          111.40  0.000046   -0.09    111.31   
    44. A(C   3,C   2,H  19)          110.27  0.000163    0.16    110.43   
    45. A(C   1,C   2,H  20)          109.20  0.000279   -0.11    109.09   
    46. A(C   1,C   2,H  19)          107.38  0.000521    0.21    107.59   
    47. A(C   2,C   3,C   4)          126.95 -0.000208   -0.42    126.53   
    48. A(C   2,C   3,C  11)          126.38 -0.001397    0.65    127.03   
    49. A(C   4,C   3,C  11)          106.65  0.001607   -0.23    106.42   
    50. A(N   5,C   4,H  21)          121.15 -0.000131    0.10    121.25   
    51. A(C   3,C   4,H  21)          128.35 -0.000687   -0.03    128.32   
    52. A(C   3,C   4,N   5)          110.49  0.000819   -0.07    110.43   
    53. A(C   6,N   5,H  22)          125.69  0.000445   -0.06    125.63   
    54. A(C   4,N   5,H  22)          125.47  0.000283   -0.03    125.44   
    55. A(C   4,N   5,C   6)          108.84 -0.000727    0.09    108.93   
    56. A(C   7,C   6,C  11)          121.56 -0.000495    0.03    121.59   
    57. A(N   5,C   6,C  11)          107.99  0.000486   -0.15    107.83   
    58. A(N   5,C   6,C   7)          130.46  0.000009    0.12    130.58   
    59. A(C   6,C   7,C   8)          117.72 -0.000053    0.04    117.76   
    60. A(C   8,C   7,H  23)          121.15 -0.000098    0.07    121.22   
    61. A(C   6,C   7,H  23)          121.13  0.000151   -0.10    121.02   
    62. A(C   9,C   8,H  24)          119.31  0.000494   -0.26    119.05   
    63. A(C   7,C   8,H  24)          119.46 -0.000761    0.18    119.65   
    64. A(C   7,C   8,C   9)          121.21  0.000266    0.08    121.30   
    65. A(C  10,C   9,H  25)          119.46 -0.001014    0.29    119.75   
    66. A(C   8,C   9,H  25)          118.57 -0.000729    0.12    118.69   
    67. A(C   8,C   9,C  10)          121.97  0.001742   -0.41    121.56   
    68. A(C   9,C  10,C  11)          117.98 -0.002612    0.49    118.47   
    69. A(C  11,C  10,H  26)          121.19  0.001250   -0.37    120.82   
    70. A(C   9,C  10,H  26)          120.76  0.001350   -0.10    120.66   
    71. A(C   3,C  11,C   6)          106.03 -0.002186    0.36    106.39   
    72. A(C   6,C  11,C  10)          119.54  0.001154   -0.23    119.31   
    73. A(C   3,C  11,C  10)          134.41  0.001035   -0.13    134.28   
    74. A(O  13,C  12,O  14)          129.76  0.007240   -1.11    128.65   
    75. A(C   1,C  12,O  14)          116.78 -0.001552    0.25    117.02   
    76. A(C   1,C  12,O  13)          111.75 -0.011966    1.51    113.26   
    77. D(C   2,C   1,N   0,H  16)    161.96 -0.000126    0.09    162.05   
    78. D(C  12,C   1,N   0,H  16)    -75.33 -0.001714    0.93    -74.40   
    79. D(C   2,C   1,N   0,H  17)    -78.01  0.000780   -1.05    -79.05   
    80. D(C  12,C   1,N   0,H  17)     44.71 -0.000809   -0.20     44.50   
    81. D(C  12,C   1,N   0,H  15)    162.71 -0.002156    1.03    163.74   
    82. D(C   2,C   1,N   0,H  15)     40.00 -0.000568    0.18     40.18   
    83. D(H  19,C   2,C   1,H  18)    -63.67  0.000005    0.08    -63.59   
    84. D(C   3,C   2,C   1,H  18)     56.80 -0.000501    0.61     57.40   
    85. D(H  19,C   2,C   1,C  12)     57.06  0.000753   -0.90     56.16   
    86. D(C   3,C   2,C   1,C  12)    177.53  0.000247   -0.38    177.15   
    87. D(C   3,C   2,C   1,N   0)    -62.41 -0.000547    0.49    -61.93   
    88. D(H  19,C   2,C   1,N   0)    177.12 -0.000041   -0.04    177.08   
    89. D(C   4,C   3,C   2,H  20)    148.93  0.000428    0.07    149.00   
    90. D(C   4,C   3,C   2,H  19)     29.45 -0.000762    0.68     30.13   
    91. D(C   4,C   3,C   2,C   1)    -89.29 -0.000407    0.10    -89.19   
    92. D(C  11,C   3,C   2,H  19)   -152.60 -0.000626    0.66   -151.94   
    93. D(C  11,C   3,C   2,C   1)     88.67 -0.000271    0.08     88.75   
    94. D(H  21,C   4,C   3,C  11)    178.94 -0.000085    0.11    179.05   
    95. D(H  21,C   4,C   3,C   2)     -2.78 -0.000016    0.11     -2.67   
    96. D(N   5,C   4,C   3,C  11)     -0.63 -0.000099    0.09     -0.54   
    97. D(N   5,C   4,C   3,C   2)    177.66 -0.000030    0.08    177.74   
    98. D(H  22,N   5,C   4,H  21)      0.03  0.000115   -0.05     -0.02   
    99. D(H  22,N   5,C   4,C   3)    179.63  0.000125   -0.03    179.60   
   100. D(C   6,N   5,C   4,H  21)   -179.07  0.000033   -0.08   -179.16   
   101. D(C   6,N   5,C   4,C   3)      0.53  0.000042   -0.06      0.47   
   102. D(C  11,C   6,N   5,H  22)   -179.30 -0.000049   -0.03   -179.32   
   103. D(C  11,C   6,N   5,C   4)     -0.20  0.000031    0.01     -0.19   
   104. D(C   7,C   6,N   5,C   4)    179.55  0.000022   -0.04    179.51   
   105. D(C   7,C   6,N   5,H  22)      0.45 -0.000059   -0.07      0.38   
   106. D(C   8,C   7,C   6,C  11)      0.47 -0.000026   -0.02      0.45   
   107. D(C   8,C   7,C   6,N   5)   -179.25 -0.000018    0.04   -179.22   
   108. D(H  23,C   7,C   6,C  11)    179.97 -0.000033    0.03    180.01   
   109. D(H  23,C   7,C   6,N   5)      0.26 -0.000025    0.09      0.34   
   110. D(H  24,C   8,C   7,H  23)      0.05 -0.000105    0.09      0.13   
   111. D(H  24,C   8,C   7,C   6)    179.55 -0.000111    0.14    179.69   
   112. D(C   9,C   8,C   7,H  23)   -178.94 -0.000021   -0.07   -179.00   
   113. D(C   9,C   8,C   7,C   6)      0.57 -0.000026   -0.02      0.55   
   114. D(H  25,C   9,C   8,H  24)     -0.44 -0.000031    0.05     -0.39   
   115. D(H  25,C   9,C   8,C   7)    178.54 -0.000128    0.21    178.75   
   116. D(C  10,C   9,C   8,H  24)   -179.84  0.000100   -0.11   -179.94   
   117. D(C  10,C   9,C   8,C   7)     -0.85  0.000003    0.05     -0.80   
   118. D(H  26,C  10,C   9,H  25)     -2.22 -0.000079    0.21     -2.00   
   119. D(H  26,C  10,C   9,C   8)    177.17 -0.000209    0.37    177.54   
   120. D(C  11,C  10,C   9,H  25)   -179.34  0.000168   -0.20   -179.54   
   121. D(C  11,C  10,C   9,C   8)      0.05  0.000038   -0.04      0.01   
   122. D(C   6,C  11,C  10,H  26)   -176.15  0.000174   -0.43   -176.58   
   123. D(C   6,C  11,C  10,C   9)      0.96 -0.000073   -0.01      0.96   
   124. D(C   3,C  11,C  10,C   9)    179.21  0.000032   -0.04    179.17   
   125. D(C  10,C  11,C   6,C   7)     -1.25  0.000052    0.04     -1.21   
   126. D(C  10,C  11,C   6,N   5)    178.52  0.000045   -0.00    178.52   
   127. D(C   3,C  11,C   6,C   7)   -179.95 -0.000063    0.08   -179.87   
   128. D(C   3,C  11,C   6,N   5)     -0.18 -0.000070    0.04     -0.14   
   129. D(C  10,C  11,C   3,C   4)   -177.93 -0.000029   -0.03   -177.96   
   130. D(C   3,C  11,C  10,H  26)      2.10  0.000278   -0.47      1.64   
   131. D(C  10,C  11,C   3,C   2)      3.77 -0.000123    0.00      3.77   
   132. D(C   6,C  11,C   3,C   4)      0.48  0.000101   -0.08      0.41   
   133. D(C   6,C  11,C   3,C   2)   -177.81  0.000007   -0.05   -177.86   
   134. D(O  14,C  12,C   1,C   2)      2.23 -0.013673    8.32     10.55   
   135. D(O  14,C  12,C   1,N   0)   -117.80 -0.010668    6.97   -110.82   
   136. D(O  13,C  12,C   1,H  18)    -42.12  0.005877   -6.05    -48.16   
   137. D(O  13,C  12,C   1,C   2)   -164.34  0.009370   -5.38   -169.72   
   138. D(O  13,C  12,C   1,N   0)     75.63  0.012375   -6.72     68.91   
    ----------------------------------------------------------------------------

Geometry step timings:
Preparation and reading OPT file:      0.000 s ( 0.422 %)
Internal coordinates            :      0.000 s ( 0.537 %)
B/P matrices and projection     :      0.001 s (43.340 %)
Hessian update/contruction      :      0.000 s ( 8.407 %)
Making the step                 :      0.001 s (32.975 %)
Converting the step to Cartesian:      0.000 s ( 3.954 %)
Storing new data                :      0.000 s ( 0.614 %)
Checking convergence            :      0.000 s ( 0.691 %)
Final printing                  :      0.000 s ( 9.060 %)
Total time                      :      0.003 s

Time for energy+gradient        :      0.025 s
Time for complete geometry iter :      0.028 s

         *************************************************************
         *                GEOMETRY OPTIMIZATION CYCLE   6            *
         *************************************************************
---------------------------------
CARTESIAN COORDINATES (ANGSTROEM)
---------------------------------
  N     1.753402    0.341582    1.382459
  C     2.385500   -0.044712    0.086975
  C     1.464932    0.361324   -1.066945
  C     0.152881   -0.351643   -0.986503
  C    -0.149538   -1.562314   -1.540824
  N    -1.426237   -1.926923   -1.222062
  C    -1.987343   -0.948886   -0.457030
  C    -3.257611   -0.853657    0.100678
  C    -3.556191    0.277510    0.826161
  C    -2.619332    1.305148    0.989512
  C    -1.358308    1.222078    0.447472
  C    -1.019485    0.075702   -0.282581
  C     3.823450    0.636069    0.002984
  O     4.645631    0.165494    0.809825
  O     3.977216    1.541521   -0.828303
  H     0.740382    0.147499    1.343641
  H     2.189462   -0.172327    2.156934
  H     1.893248    1.345463    1.543974
  H     2.540864   -1.125026    0.083862
  H     1.975540    0.114642   -1.998137
  H     1.329637    1.443816   -1.051490
  H     0.471395   -2.187414   -2.152719
  H    -1.882147   -2.774707   -1.517154
  H    -3.986280   -1.638159   -0.037773
  H    -4.535126    0.385377    1.268372
  H    -2.905102    2.183117    1.549926
  H    -0.660841    2.039427    0.548746

----------------------------
CARTESIAN COORDINATES (A.U.)
----------------------------
  NO LB    ZA    FRAG    MASS        X           Y           Z
   0 N   7.0000    0    14.007    3.313449    0.645497    2.612470
   1 C   6.0000    0    12.011    4.507942   -0.084494    0.164359
   2 C   6.0000    0    12.011    2.768321    0.682803   -2.016234
   3 C   6.0000    0    12.011    0.288904   -0.664510   -1.864220
   4 C   6.0000    0    12.011   -0.282586   -2.952346   -2.911736
   5 N   7.0000    0    14.007   -2.695197   -3.641357   -2.309363
   6 C   6.0000    0    12.011   -3.755534   -1.793134   -0.863661
   7 C   6.0000    0    12.011   -6.155993   -1.613178    0.190254
   8 C   6.0000    0    12.011   -6.720227    0.524417    1.561218
   9 C   6.0000    0    12.011   -4.949819    2.466373    1.869907
  10 C   6.0000    0    12.011   -2.566830    2.309393    0.845599
  11 C   6.0000    0    12.011   -1.926548    0.143056   -0.534001
  12 C   6.0000    0    12.011    7.225273    1.201996    0.005639
  13 O   8.0000    0    15.999    8.778971    0.312738    1.530347
  14 O   8.0000    0    15.999    7.515848    2.913053   -1.565265
  15 H   1.0000    0     1.008    1.399119    0.278733    2.539114
  16 H   1.0000    0     1.008    4.137484   -0.325650    4.076015
  17 H   1.0000    0     1.008    3.577720    2.542557    2.917687
  18 H   1.0000    0     1.008    4.801537   -2.125991    0.158477
  19 H   1.0000    0     1.008    3.733230    0.216641   -3.775932
  20 H   1.0000    0     1.008    2.512649    2.728417   -1.987028
  21 H   1.0000    0     1.008    0.890808   -4.133614   -4.068049
  22 H   1.0000    0     1.008   -3.556742   -5.243437   -2.867006
  23 H   1.0000    0     1.008   -7.532978   -3.095672   -0.071380
  24 H   1.0000    0     1.008   -8.570146    0.728256    2.396876
  25 H   1.0000    0     1.008   -5.489846    4.125494    2.928935
  26 H   1.0000    0     1.008   -1.248809    3.853959    1.036980

      -----------------------------------------------------------      
     |                   =====================                   |     
     |                           x T B                           |     
     |                   =====================                   |     
     |                         S. Grimme                         |     
     |          Mulliken Center for Theoretical Chemistry        |     
     |                    University of Bonn                     |     
      -----------------------------------------------------------      

   * xtb version 6.7.1 (edcfbbe) compiled by 'albert@albert-system' on 2024-07-22

   xtb is free software: you can redistribute it and/or modify it under
   the terms of the GNU Lesser General Public License as published by
   the Free Software Foundation, either version 3 of the License, or
   (at your option) any later version.
   
   xtb is distributed in the hope that it will be useful,
   but WITHOUT ANY WARRANTY; without even the implied warranty of
   MERCHANTABILITY or FITNESS FOR A PARTICULAR PURPOSE.  See the
   GNU Lesser General Public License for more details.
   
   Cite this work as:
   * C. Bannwarth, E. Caldeweyher, S. Ehlert, A. Hansen, P. Pracht,
     J. Seibert, S. Spicher, S. Grimme, WIREs Comput. Mol. Sci., 2020, 11,
     e01493. DOI: 10.1002/wcms.1493
   
   for GFN2-xTB:
   * C. Bannwarth, S. Ehlert and S. Grimme., J. Chem. Theory Comput., 2019,
     15, 1652-1671. DOI: 10.1021/acs.jctc.8b01176
   for GFN1-xTB:
   * S. Grimme, C. Bannwarth, P. Shushkov, J. Chem. Theory Comput., 2017,
     13, 1989-2009. DOI: 10.1021/acs.jctc.7b00118
   for GFN0-xTB:
   * P. Pracht, E. Caldeweyher, S. Ehlert, S. Grimme, ChemRxiv, 2019, preprint.
     DOI: 10.26434/chemrxiv.8326202.v1
   for GFN-FF:
   * S. Spicher and S. Grimme, Angew. Chem. Int. Ed., 2020, 59, 15665-15673.
     DOI: 10.1002/anie.202004239
   
   for ALPB and GBSA implicit solvation:
   * S. Ehlert, M. Stahn, S. Spicher, S. Grimme, J. Chem. Theory Comput.,
     2021, 17, 4250-4261. DOI: 10.1021/acs.jctc.1c00471
   
   for ddCOSMO and CPCM-X implicit solvation:
   * M. Stahn, S. Ehlert, S. Grimme, J. Phys. Chem. A,
     2023, XX, XXXX-XXXX. DOI: 10.1021/acs.jpca.3c04382
   
   for DFT-D4:
   * E. Caldeweyher, C. Bannwarth and S. Grimme, J. Chem. Phys., 2017,
     147, 034112. DOI: 10.1063/1.4993215
   * E. Caldeweyher, S. Ehlert, A. Hansen, H. Neugebauer, S. Spicher,
     C. Bannwarth and S. Grimme, J. Chem. Phys., 2019, 150, 154122.
     DOI: 10.1063/1.5090222
   * E. Caldeweyher, J.-M. Mewes, S. Ehlert and S. Grimme, Phys. Chem. Chem. Phys.
     2020, 22, 8499-8512. DOI: 10.1039/D0CP00502A
   
   for sTDA-xTB:
   * S. Grimme and C. Bannwarth, J. Chem. Phys., 2016, 145, 054103.
     DOI: 10.1063/1.4959605
   
   in the mass-spec context:
   * V. Asgeirsson, C. Bauer and S. Grimme, Chem. Sci., 2017, 8, 4879.
     DOI: 10.1039/c7sc00601b
   * J. Koopman and S. Grimme, ACS Omega 2019, 4, 12, 15120-15133.
     DOI: 10.1021/acsomega.9b02011
   
   for metadynamics refer to:
   * S. Grimme, J. Chem. Theory Comput., 2019, 155, 2847-2862
     DOI: 10.1021/acs.jctc.9b00143
   
   for SPH calculations refer to:
   * S. Spicher and S. Grimme, J. Chem. Theory Comput., 2021, 17, 1701-1714
     DOI: 10.1021/acs.jctc.0c01306
   
   for ONIOM refer to:
   * C. Plett, A. Katbashev, S. Ehlert, S. Grimme, M. Bursch,
     Phys. Chem. Chem. Phys., 2023, 25, 17860-17868. DOI: 10.1039/D3CP02178E
   
   for DIPRO refer to:
   * J. Kohn, N. Gildemeister, S. Grimme, D. Fazzi, A. Hansen,
     J. Chem. Phys., 2023, just accepted.
   
   for PTB refer to:
   * S. Grimme, M. Mueller, A. Hansen, J. Chem. Phys., 2023, 158, 124111.
     DOI: 10.1063/5.0137838
   
   with help from (in alphabetical order)
   P. Atkinson, C. Bannwarth, F. Bohle, G. Brandenburg, E. Caldeweyher
   M. Checinski, S. Dohm, S. Ehlert, S. Ehrlich, I. Gerasimov, C. Hölzer
   A. Katbashev, J. Kohn, J. Koopman, C. Lavigne, S. Lehtola, F. März, M. Müller,
   F. Musil, H. Neugebauer, J. Pisarek, C. Plett, P. Pracht, F. Pultar,
   J. Seibert, P. Shushkov, S. Spicher, M. Stahn, M. Steiner, T. Strunk,
   J. Stückrath, T. Rose, and J. Unsleber
   
 * started run on 2026/04/09 at 18:40:48.485     
   ID    Z sym.   atoms
    1    7 N      1, 6
    2    6 C      2-5, 7-13
    3    8 O      14, 15
    4    1 H      16-27

           -------------------------------------------------
          |                Calculation Setup                |
           -------------------------------------------------

          program call               : /home/analima/Programs/orca-6.1.0-f.0_linux_x86-64/bin/otool_xtb geo_opt_XTB.xyz --grad -c 0 -u 0 -P 1 --namespace geo_opt --input geo_opt_XTB.input.tmp --alpb WATER --acc 0.200000
          calculation namespace      : geo_opt
          coordinate file            : geo_opt_XTB.xyz
          omp threads                :                     1


           -------------------------------------------------
          |                 G F N 2 - x T B                 |
           -------------------------------------------------

        Reference                      10.1021/acs.jctc.8b01176
      * Hamiltonian:
        H0-scaling (s, p, d)           1.850000    2.230000    2.230000
        zeta-weighting                 0.500000
      * Dispersion:
        s8                             2.700000
        a1                             0.520000
        a2                             5.000000
        s9                             5.000000
      * Repulsion:
        kExp                           1.500000    1.000000
        rExp                           1.000000
      * Coulomb:
        alpha                          2.000000
        third order                    shell-resolved
        anisotropic                    true
        a3                             3.000000
        a5                             4.000000
        cn-shift                       1.200000
        cn-exp                         4.000000
        max-rad                        5.000000

      * Solvation model:               ALPB
        Solvent                        WATER
        Parameter file                 internal GFN2-xTB/ALPB
        Dielectric constant                8.0200E+01
        Reference state                gsolv [1 M gas/solution]
        Free energy shift                  1.0808E-03 Eh       6.7819E-01 kcal/mol
        Temperature                        2.9815E+02 K
        Density                            1.0000E+00 kg/L
        Solvent mass                       1.8000E+01 g/mol
        Interaction kernel             P16
        Born radius scaling (c1)           1.4744E+00
        Born radii integrator          GBOBC
        Born offset                        0.0000E+00 a0       0.0000E+00 AA
        H-bond correction              true
        Ion screening                  false
        Surface tension                    1.0000E-05 Eh       1.5569E+01 dyn/cm
        Grid points                               230 per atom
q/qsh data taken from xtbrestart
CAMM data taken from xtbrestart

          ...................................................
          :                      SETUP                      :
          :.................................................:
          :  # basis functions                  72          :
          :  # atomic orbitals                  72          :
          :  # shells                           42          :
          :  # electrons                        78          :
          :  max. iterations                   250          :
          :  Hamiltonian                  GFN2-xTB          :
          :  restarted?                       true          :
          :  GBSA solvation                   true          :
          :  PC potential                    false          :
          :  electronic temp.          300.0000000     K    :
          :  accuracy                    0.2000000          :
          :  -> integral cutoff          0.3198970E+02      :
          :  -> integral neglect         0.2000000E-08      :
          :  -> SCF convergence          0.2000000E-06 Eh   :
          :  -> wf. convergence          0.2000000E-04 e    :
          :  Broyden damping             0.4000000          :
          :  net charge                          0          :
          :  unpaired electrons                  0          :
          ...................................................

 iter      E             dE          RMSdq      gap      omega  full diag
   1    -44.2913528 -0.442914E+02  0.228E-01    3.50       0.0  T
   2    -44.2914493 -0.965102E-04  0.131E-01    3.50       1.0  T
   3    -44.2914432  0.609583E-05  0.491E-02    3.50       1.0  T
   4    -44.2914593 -0.161459E-04  0.811E-03    3.50       2.4  T
   5    -44.2914600 -0.712733E-06  0.395E-03    3.50       4.9  T
   6    -44.2914602 -0.197286E-06  0.194E-03    3.50       9.9  T
   7    -44.2914602 -0.704224E-08  0.445E-04    3.50      43.3  T
   8    -44.2914602 -0.226197E-08  0.188E-04    3.50     102.4  T
   9    -44.2914602 -0.179845E-09  0.894E-05    3.50     215.2  T

   *** convergence criteria satisfied after 9 iterations ***

         #    Occupation            Energy/Eh            Energy/eV
      -------------------------------------------------------------
         1        2.0000           -0.6900380             -18.7769
       ...           ...                  ...                  ...
        33        2.0000           -0.4183561             -11.3840
        34        2.0000           -0.4178682             -11.3708
        35        2.0000           -0.4074280             -11.0867
        36        2.0000           -0.3922772             -10.6744
        37        2.0000           -0.3837618             -10.4427
        38        2.0000           -0.3752493             -10.2111
        39        2.0000           -0.3618059              -9.8452 (HOMO)
        40                         -0.2330994              -6.3430 (LUMO)
        41                         -0.2000558              -5.4438
        42                         -0.1888185              -5.1380
        43                         -0.1601584              -4.3581
        44                         -0.0758615              -2.0643
       ...                                ...                  ...
        72                          0.7086135              19.2824
      -------------------------------------------------------------
                  HL-Gap            0.1287066 Eh            3.5023 eV
             Fermi-level           -0.2974527 Eh           -8.0941 eV

 SCC (total)                   0 d,  0 h,  0 min,  0.015 sec
 SCC setup                      ...        0 min,  0.000 sec (  2.353%)
 Dispersion                     ...        0 min,  0.000 sec (  0.692%)
 classical contributions        ...        0 min,  0.000 sec (  0.117%)
 integral evaluation            ...        0 min,  0.002 sec (  9.994%)
 iterations                     ...        0 min,  0.008 sec ( 53.527%)
 molecular gradient             ...        0 min,  0.005 sec ( 32.886%)
 printout                       ...        0 min,  0.000 sec (  0.360%)

         :::::::::::::::::::::::::::::::::::::::::::::::::::::
         ::                     SUMMARY                     ::
         :::::::::::::::::::::::::::::::::::::::::::::::::::::
         :: total energy             -43.671780291746 Eh    ::
         :: total w/o Gsasa/hb       -43.663597846971 Eh    ::
         :: gradient norm              0.009155916024 Eh/a0 ::
         :: HOMO-LUMO gap              3.502283771042 eV    ::
         ::.................................................::
         :: SCC energy               -44.291297913893 Eh    ::
         :: -> isotropic ES            0.188019322137 Eh    ::
         :: -> anisotropic ES         -0.005664079738 Eh    ::
         :: -> anisotropic XC          0.016591183620 Eh    ::
         :: -> dispersion             -0.026266082524 Eh    ::
         :: -> Gsolv                  -0.076386918897 Eh    ::
         ::    -> Gelec               -0.068204474123 Eh    ::
         ::    -> Gsasa                0.001929968166 Eh    ::
         ::    -> Ghb                 -0.011193172638 Eh    ::
         ::    -> Gshift               0.001080759698 Eh    ::
         :: repulsion energy           0.619517622147 Eh    ::
         :: add. restraining           0.000000000000 Eh    ::
         :: total charge              -0.000000000000 e     ::
         :::::::::::::::::::::::::::::::::::::::::::::::::::::


Property printout bound to 'properties.out'

           -------------------------------------------------
          | TOTAL ENERGY              -43.671780291746 Eh   |
          | GRADIENT NORM               0.009155916024 Eh/α |
          | HOMO-LUMO GAP               3.502283771042 eV   |
           -------------------------------------------------

------------------------------------------------------------------------
 * finished run on 2026/04/09 at 18:40:48.506     
------------------------------------------------------------------------
 total:
 * wall-time:     0 d,  0 h,  0 min,  0.021 sec
 *  cpu-time:     0 d,  0 h,  0 min,  0.019 sec
 * ratio c/w:     0.918 speedup
 SCF:
 * wall-time:     0 d,  0 h,  0 min,  0.015 sec
 *  cpu-time:     0 d,  0 h,  0 min,  0.014 sec
 * ratio c/w:     0.900 speedup


-------------------------   --------------------
FINAL SINGLE POINT ENERGY       -43.671780291750
-------------------------   --------------------


-------------
DIPOLE MOMENT
-------------
                                X             Y             Z
Total Dipole Moment    :     -5.25300      -2.05600       1.79000
                        -----------------------------------------
Magnitude (a.u.)       :      5.91821
Magnitude (Debye)      :     15.04290


------------------
CARTESIAN GRADIENT
------------------

   1   N   :   -0.001693840    0.000415737   -0.000552688
   2   C   :    0.002817160   -0.003208977    0.001672695
   3   C   :   -0.000906630    0.000550516   -0.001577692
   4   C   :   -0.000311852   -0.002020270   -0.000036811
   5   C   :    0.000380076    0.001067438    0.000121661
   6   N   :    0.000017767    0.000238858   -0.000260159
   7   C   :   -0.000405805   -0.000956216   -0.000172238
   8   C   :   -0.000115070    0.000973525    0.000416730
   9   C   :   -0.000591454   -0.001138814   -0.000278681
  10   C   :    0.001347595   -0.000245781   -0.000505446
  11   C   :   -0.000245888    0.002085787    0.001621517
  12   C   :   -0.000253094    0.000815489    0.000242048
  13   C   :   -0.001176687    0.002506116    0.001420617
  14   O   :    0.001327265   -0.002481635    0.000522818
  15   O   :    0.000502065    0.002294855   -0.002893212
  16   H   :   -0.000265349    0.000758120   -0.000080835
  17   H   :   -0.000526633   -0.000809342    0.000725504
  18   H   :    0.000740907    0.000262805    0.000296273
  19   H   :   -0.000375060    0.000105820   -0.000034431
  20   H   :    0.000189832   -0.000397912   -0.000046338
  21   H   :   -0.000103870    0.000180414    0.000060706
  22   H   :    0.000294549    0.000208720   -0.000100159
  23   H   :   -0.000353237   -0.000915553   -0.000108644
  24   H   :   -0.000063593   -0.000177375   -0.000017857
  25   H   :   -0.000021735   -0.000012818   -0.000090005
  26   H   :   -0.000135335    0.000022677    0.000012942
  27   H   :   -0.000072085   -0.000122185   -0.000358316

Difference to translation invariance:
           :    0.0000000000   -0.0000000000   -0.0000000000

Difference to rotation invariance:
           :    0.0003401749    0.0001809701   -0.0003089488

Norm of the Cartesian gradient     ...    0.0091559160
RMS gradient                       ...    0.0010173240
MAX gradient                       ...    0.0032089773
------------------------------------------------------------------------------
                         ORCA GEOMETRY RELAXATION STEP
------------------------------------------------------------------------------

Reading the OPT-File                    .... done
Getting information on internals        .... done
Copying old internal coords+grads       .... done
Making the new internal coordinates     .... (2022 redundants) done
Validating the new internal coordinates .... (2022 redundants) done
Calculating the B-matrix                .... done
Calculating the G,G- and P matrices     .... done
Transforming gradient to internals      .... done
Projecting the internal gradient        .... done
Number of atoms                         ....  27
Number of internal coordinates          .... 138
Current Energy                          ....   -43.671780292 Eh
Current gradient norm                   ....     0.009155916 Eh/bohr
Maximum allowed component of the step   ....  0.300
Current trust radius                    ....  0.467
Updating the Hessian (BFGS)             .... done
Forming the augmented Hessian           .... done
Diagonalizing the augmented Hessian     .... done
Last element of RFO vector              ....  0.991349883
Lowest eigenvalues of augmented Hessian:
 -0.000419238  0.011924730  0.015567450  0.016601107  0.021418799
Length of the computed step             ....  0.132390803
The final length of the internal step   ....  0.132390803
Converting the step to Cartesian space:
 Initial RMS(Int)=    0.0112698536
Transforming coordinates:
 Iter   0:  RMS(Cart)=    0.0216556691 RMS(Int)=    0.7563856671
done
Storing new coordinates                 .... done
The predicted energy change is          ....    -0.000213293
Previously predicted energy change      ....    -0.004501425
Actually observed energy change         ....    -0.004633752
Ratio of predicted to observed change   ....     1.029396703
New trust radius                        ....     0.700000000

                                .--------------------.
          ----------------------|Geometry convergence|-------------------------
          Item                value                   Tolerance       Converged
          ---------------------------------------------------------------------
          Energy change      -0.0046337517            0.0000050000      NO
          RMS gradient        0.0006436112            0.0001000000      NO
          MAX gradient        0.0036829875            0.0003000000      NO
          RMS step            0.0112698536            0.0020000000      NO
          MAX step            0.0564770093            0.0040000000      NO
          -------------------------------------------------------------------------
          ........................................................
          Max(Bonds)      0.0023      Max(Angles)    0.28
          Max(Dihed)        3.24      Max(Improp)    0.00
          ---------------------------------------------------------------------

The optimization has not yet converged - more geometry cycles are needed


    ---------------------------------------------------------------------------
                         Redundant Internal Coordinates
                            (Angstroem and degrees)

        Definition                    Value    dE/dq     Step     New-Value
    ----------------------------------------------------------------------------
     1. B(C   1,N   0)                1.4923  0.001246 -0.0017    1.4907   
     2. B(C   2,C   1)                1.5310  0.001657 -0.0023    1.5286   
     3. B(C   3,C   2)                1.4954  0.000583 -0.0008    1.4946   
     4. B(C   4,C   3)                1.3654 -0.000978  0.0010    1.3664   
     5. B(N   5,C   4)                1.3655  0.000357 -0.0003    1.3652   
     6. B(C   6,N   5)                1.3626  0.000488 -0.0006    1.3620   
     7. B(C   7,C   6)                1.3906 -0.000031  0.0000    1.3906   
     8. B(C   8,C   7)                1.3766 -0.000716  0.0008    1.3773   
     9. B(C   9,C   8)                1.4002  0.001001 -0.0011    1.3990   
    10. B(C  10,C   9)                1.3751 -0.000572  0.0005    1.3756   
    11. B(C  11,C  10)                1.4007  0.001331 -0.0014    1.3993   
    12. B(C  11,C   6)                1.4202  0.001142 -0.0014    1.4188   
    13. B(C  11,C   3)                1.4327  0.000967 -0.0009    1.4318   
    14. B(C  12,C   1)                1.5932  0.001633 -0.0018    1.5914   
    15. B(O  13,C  12)                1.2444  0.002153 -0.0012    1.2431   
    16. B(O  14,C  12)                1.2388  0.003683 -0.0022    1.2366   
    17. B(H  15,N   0)                1.0322  0.000121 -0.0001    1.0320   
    18. B(H  16,N   0)                1.0267  0.000726 -0.0008    1.0259   
    19. B(H  17,N   0)                1.0264  0.000409 -0.0004    1.0260   
    20. B(H  18,C   1)                1.0914 -0.000160  0.0005    1.0919   
    21. B(H  19,C   2)                1.0903  0.000219 -0.0000    1.0903   
    22. B(H  20,C   2)                1.0910  0.000191 -0.0002    1.0908   
    23. B(H  21,C   4)                1.0727  0.000107 -0.0001    1.0726   
    24. B(H  22,N   5)                1.0068  0.000964 -0.0009    1.0059   
    25. B(H  23,C   7)                1.0796  0.000175 -0.0004    1.0793   
    26. B(H  24,C   8)                1.0796 -0.000019  0.0001    1.0797   
    27. B(H  25,C   9)                1.0801  0.000059  0.0001    1.0802   
    28. B(H  26,C  10)                1.0792 -0.000174  0.0002    1.0795   
    29. A(H  16,N   0,H  17)          108.24 -0.000094    0.09    108.33   
    30. A(H  15,N   0,H  17)          108.88 -0.000070    0.01    108.88   
    31. A(H  15,N   0,H  16)          110.55 -0.000326    0.09    110.64   
    32. A(C   1,N   0,H  15)          109.54  0.000207   -0.13    109.41   
    33. A(C   1,N   0,H  16)          110.20  0.000604   -0.11    110.10   
    34. A(C   1,N   0,H  17)          109.40 -0.000337    0.05    109.45   
    35. A(C   2,C   1,C  12)          112.93 -0.000279    0.09    113.03   
    36. A(C   2,C   1,H  18)          110.24 -0.000491    0.10    110.34   
    37. A(N   0,C   1,C   2)          109.33 -0.001241    0.28    109.60   
    38. A(N   0,C   1,C  12)          108.51  0.001177   -0.27    108.24   
    39. A(N   0,C   1,H  18)          108.60  0.000541   -0.15    108.45   
    40. A(C  12,C   1,H  18)          107.12  0.000388   -0.09    107.03   
    41. A(C   1,C   2,C   3)          111.14 -0.000667    0.12    111.25   
    42. A(H  19,C   2,H  20)          107.14  0.000231   -0.07    107.07   
    43. A(C   3,C   2,H  20)          111.31  0.000062   -0.04    111.28   
    44. A(C   3,C   2,H  19)          110.42  0.000101    0.01    110.43   
    45. A(C   1,C   2,H  20)          109.09  0.000217   -0.06    109.03   
    46. A(C   1,C   2,H  19)          107.59  0.000091    0.02    107.60   
    47. A(C   2,C   3,C   4)          126.53 -0.000995    0.19    126.72   
    48. A(C   2,C   3,C  11)          127.03  0.000434   -0.13    126.90   
    49. A(C   4,C   3,C  11)          106.42  0.000563   -0.07    106.35   
    50. A(N   5,C   4,H  21)          121.25  0.000194   -0.05    121.20   
    51. A(C   3,C   4,H  21)          128.32 -0.000515    0.10    128.42   
    52. A(C   3,C   4,N   5)          110.43  0.000321   -0.04    110.39   
    53. A(C   6,N   5,H  22)          125.63  0.000145   -0.02    125.61   
    54. A(C   4,N   5,H  22)          125.44  0.000120   -0.01    125.42   
    55. A(C   4,N   5,C   6)          108.93 -0.000264    0.03    108.96   
    56. A(C   7,C   6,C  11)          121.59 -0.000293    0.04    121.63   
    57. A(N   5,C   6,C  11)          107.83  0.000229   -0.03    107.80   
    58. A(N   5,C   6,C   7)          130.58  0.000064   -0.01    130.57   
    59. A(C   6,C   7,C   8)          117.76  0.000110   -0.01    117.75   
    60. A(C   8,C   7,H  23)          121.22  0.000007   -0.01    121.21   
    61. A(C   6,C   7,H  23)          121.02 -0.000118    0.02    121.04   
    62. A(C   9,C   8,H  24)          119.05 -0.000036    0.01    119.07   
    63. A(C   7,C   8,H  24)          119.65 -0.000143    0.01    119.66   
    64. A(C   7,C   8,C   9)          121.30  0.000178   -0.03    121.27   
    65. A(C  10,C   9,H  25)          119.75 -0.000145    0.00    119.76   
    66. A(C   8,C   9,H  25)          118.69 -0.000383    0.05    118.75   
    67. A(C   8,C   9,C  10)          121.55  0.000528   -0.06    121.49   
    68. A(C   9,C  10,C  11)          118.47 -0.000858    0.11    118.58   
    69. A(C  11,C  10,H  26)          120.82  0.000215   -0.01    120.82   
    70. A(C   9,C  10,H  26)          120.66  0.000637   -0.10    120.56   
    71. A(C   3,C  11,C   6)          106.39 -0.000850    0.11    106.50   
    72. A(C   6,C  11,C  10)          119.32  0.000334   -0.05    119.27   
    73. A(C   3,C  11,C  10)          134.28  0.000518   -0.06    134.22   
    74. A(O  13,C  12,O  14)          129.01  0.000739    0.04    129.05   
    75. A(C   1,C  12,O  14)          117.37  0.000457   -0.02    117.36   
    76. A(C   1,C  12,O  13)          113.61 -0.001188    0.14    113.76   
    77. D(C   2,C   1,N   0,H  16)    162.04 -0.000506    1.84    163.88   
    78. D(C  12,C   1,N   0,H  16)    -74.40 -0.000881    1.97    -72.43   
    79. D(C   2,C   1,N   0,H  17)    -79.07 -0.000462    1.92    -77.15   
    80. D(C  12,C   1,N   0,H  17)     44.49 -0.000837    2.05     46.54   
    81. D(C  12,C   1,N   0,H  15)    163.76 -0.001001    2.02    165.78   
    82. D(C   2,C   1,N   0,H  15)     40.20 -0.000626    1.89     42.09   
    83. D(H  19,C   2,C   1,H  18)    -63.61 -0.000068    0.23    -63.38   
    84. D(C   3,C   2,C   1,H  18)     57.39 -0.000287    0.34     57.73   
    85. D(H  19,C   2,C   1,C  12)     56.17 -0.000103    0.24     56.40   
    86. D(C   3,C   2,C   1,C  12)    177.17 -0.000322    0.35    177.51   
    87. D(C   3,C   2,C   1,N   0)    -61.92  0.000117    0.29    -61.63   
    88. D(H  19,C   2,C   1,N   0)    177.08  0.000336    0.18    177.26   
    89. D(C   4,C   3,C   2,H  20)    149.00  0.000081    0.36    149.35   
    90. D(C   4,C   3,C   2,H  19)     30.13 -0.000314    0.46     30.59   
    91. D(C   4,C   3,C   2,C   1)    -89.19 -0.000064    0.34    -88.85   
    92. D(C  11,C   3,C   2,H  19)   -151.94 -0.000213    0.31   -151.63   
    93. D(C  11,C   3,C   2,C   1)     88.75  0.000037    0.19     88.94   
    94. D(H  21,C   4,C   3,C  11)    179.05 -0.000057    0.08    179.13   
    95. D(H  21,C   4,C   3,C   2)     -2.67  0.000031   -0.03     -2.70   
    96. D(N   5,C   4,C   3,C  11)     -0.54 -0.000117    0.20     -0.34   
    97. D(N   5,C   4,C   3,C   2)    177.74 -0.000029    0.09    177.83   
    98. D(H  22,N   5,C   4,H  21)     -0.02  0.000081   -0.13     -0.15   
    99. D(H  22,N   5,C   4,C   3)    179.60  0.000133   -0.24    179.36   
   100. D(C   6,N   5,C   4,H  21)   -179.16  0.000012   -0.00   -179.16   
   101. D(C   6,N   5,C   4,C   3)      0.46  0.000063   -0.11      0.35   
   102. D(C  11,C   6,N   5,H  22)   -179.32 -0.000052    0.10   -179.22   
   103. D(C  11,C   6,N   5,C   4)     -0.19  0.000018   -0.02     -0.21   
   104. D(C   7,C   6,N   5,C   4)    179.51 -0.000014    0.06    179.57   
   105. D(C   7,C   6,N   5,H  22)      0.38 -0.000083    0.18      0.56   
   106. D(C   8,C   7,C   6,C  11)      0.44 -0.000005   -0.00      0.44   
   107. D(C   8,C   7,C   6,N   5)   -179.22  0.000029   -0.09   -179.31   
   108. D(H  23,C   7,C   6,C  11)   -180.00 -0.000003   -0.01   -180.00   
   109. D(H  23,C   7,C   6,N   5)      0.34  0.000032   -0.09      0.25   
   110. D(H  24,C   8,C   7,H  23)      0.13 -0.000055    0.11      0.24   
   111. D(H  24,C   8,C   7,C   6)    179.69 -0.000053    0.11    179.80   
   112. D(C   9,C   8,C   7,H  23)   -179.01  0.000001    0.01   -179.00   
   113. D(C   9,C   8,C   7,C   6)      0.55  0.000003    0.00      0.56   
   114. D(H  25,C   9,C   8,H  24)     -0.39 -0.000016    0.02     -0.37   
   115. D(H  25,C   9,C   8,C   7)    178.75 -0.000073    0.12    178.87   
   116. D(C  10,C   9,C   8,H  24)   -179.94  0.000048   -0.09   -180.04   
   117. D(C  10,C   9,C   8,C   7)     -0.80 -0.000009    0.00     -0.80   
   118. D(H  26,C  10,C   9,H  25)     -2.00 -0.000071    0.09     -1.92   
   119. D(H  26,C  10,C   9,C   8)    177.54 -0.000137    0.21    177.75   
   120. D(C  11,C  10,C   9,H  25)   -179.53  0.000071   -0.13   -179.67   
   121. D(C  11,C  10,C   9,C   8)      0.01  0.000006   -0.01     -0.00   
   122. D(C   6,C  11,C  10,H  26)   -176.57  0.000127   -0.19   -176.77   
   123. D(C   6,C  11,C  10,C   9)      0.95 -0.000004    0.02      0.97   
   124. D(C   3,C  11,C  10,C   9)    179.16  0.000045   -0.10    179.06   
   125. D(C  10,C  11,C   6,C   7)     -1.21 -0.000000   -0.01     -1.22   
   126. D(C  10,C  11,C   6,N   5)    178.52 -0.000028    0.06    178.58   
   127. D(C   3,C  11,C   6,C   7)   -179.87 -0.000055    0.08   -179.79   
   128. D(C   3,C  11,C   6,N   5)     -0.14 -0.000082    0.16      0.02   
   129. D(C  10,C  11,C   3,C   4)   -177.96  0.000062   -0.10   -178.06   
   130. D(C   3,C  11,C  10,H  26)      1.63  0.000177   -0.31      1.32   
   131. D(C  10,C  11,C   3,C   2)      3.77  0.000005    0.02      3.79   
   132. D(C   6,C  11,C   3,C   4)      0.41  0.000119   -0.21      0.19   
   133. D(C   6,C  11,C   3,C   2)   -177.86  0.000062   -0.09   -177.95   
   134. D(O  14,C  12,C   1,C   2)     10.50 -0.001054   -1.37      9.13   
   135. D(O  14,C  12,C   1,N   0)   -110.87 -0.000125   -1.60   -112.47   
   136. D(O  13,C  12,C   1,H  18)    -48.13  0.000556   -2.89    -51.02   
   137. D(O  13,C  12,C   1,C   2)   -169.69  0.001078   -3.01   -172.70   
   138. D(O  13,C  12,C   1,N   0)     68.94  0.002007   -3.24     65.70   
    ----------------------------------------------------------------------------

Geometry step timings:
Preparation and reading OPT file:      0.000 s ( 0.522 %)
Internal coordinates            :      0.000 s ( 0.570 %)
B/P matrices and projection     :      0.001 s (42.972 %)
Hessian update/contruction      :      0.000 s ( 8.072 %)
Making the step                 :      0.001 s (33.048 %)
Converting the step to Cartesian:      0.000 s ( 3.704 %)
Storing new data                :      0.000 s ( 0.570 %)
Checking convergence            :      0.000 s ( 0.712 %)
Final printing                  :      0.000 s ( 9.829 %)
Total time                      :      0.002 s

Time for energy+gradient        :      0.024 s
Time for complete geometry iter :      0.027 s

         *************************************************************
         *                GEOMETRY OPTIMIZATION CYCLE   7            *
         *************************************************************
---------------------------------
CARTESIAN COORDINATES (ANGSTROEM)
---------------------------------
  N     1.759568    0.326176    1.382173
  C     2.385993   -0.045862    0.081701
  C     1.463010    0.360524   -1.067064
  C     0.152492   -0.353773   -0.987861
  C    -0.151689   -1.566431   -1.539276
  N    -1.429473   -1.926623   -1.220990
  C    -1.988651   -0.946588   -0.458147
  C    -3.259032   -0.848076    0.098807
  C    -3.555153    0.284696    0.824226
  C    -2.616005    1.308757    0.987170
  C    -1.354979    1.220338    0.444644
  C    -1.018637    0.074088   -0.284048
  C     3.818298    0.643313    0.003125
  O     4.625799    0.214566    0.845446
  O     3.972607    1.535853   -0.838746
  H     0.753790    0.096288    1.356558
  H     2.224108   -0.168594    2.151499
  H     1.865868    1.334945    1.536361
  H     2.549691   -1.125425    0.073264
  H     1.972294    0.119396   -2.000426
  H     1.325882    1.442526   -1.047460
  H     0.467008   -2.195020   -2.149727
  H    -1.887704   -2.771925   -1.516522
  H    -3.989632   -1.630268   -0.039696
  H    -4.533453    0.394775    1.267459
  H    -2.897691    2.187471    1.548663
  H    -0.654308    2.034872    0.548864

----------------------------
CARTESIAN COORDINATES (A.U.)
----------------------------
  NO LB    ZA    FRAG    MASS        X           Y           Z
   0 N   7.0000    0    14.007    3.325102    0.616383    2.611928
   1 C   6.0000    0    12.011    4.508874   -0.086666    0.154392
   2 C   6.0000    0    12.011    2.764688    0.681292   -2.016458
   3 C   6.0000    0    12.011    0.288167   -0.668533   -1.866787
   4 C   6.0000    0    12.011   -0.286651   -2.960126   -2.908810
   5 N   7.0000    0    14.007   -2.701313   -3.640789   -2.307336
   6 C   6.0000    0    12.011   -3.758006   -1.788791   -0.865771
   7 C   6.0000    0    12.011   -6.158677   -1.602632    0.186718
   8 C   6.0000    0    12.011   -6.718266    0.537997    1.557561
   9 C   6.0000    0    12.011   -4.943534    2.473193    1.865482
  10 C   6.0000    0    12.011   -2.560540    2.306105    0.840256
  11 C   6.0000    0    12.011   -1.924945    0.140006   -0.536773
  12 C   6.0000    0    12.011    7.215537    1.215685    0.005906
  13 O   8.0000    0    15.999    8.741494    0.405471    1.597661
  14 O   8.0000    0    15.999    7.507139    2.902341   -1.584999
  15 H   1.0000    0     1.008    1.424456    0.181958    2.563524
  16 H   1.0000    0     1.008    4.202955   -0.318596    4.065744
  17 H   1.0000    0     1.008    3.525979    2.522680    2.903301
  18 H   1.0000    0     1.008    4.818218   -2.126745    0.138449
  19 H   1.0000    0     1.008    3.727096    0.225625   -3.780257
  20 H   1.0000    0     1.008    2.505555    2.725979   -1.979413
  21 H   1.0000    0     1.008    0.882518   -4.147986   -4.062394
  22 H   1.0000    0     1.008   -3.567243   -5.238179   -2.865811
  23 H   1.0000    0     1.008   -7.539311   -3.080760   -0.075015
  24 H   1.0000    0     1.008   -8.566986    0.746017    2.395151
  25 H   1.0000    0     1.008   -5.475843    4.133721    2.926550
  26 H   1.0000    0     1.008   -1.236463    3.845351    1.037202

      -----------------------------------------------------------      
     |                   =====================                   |     
     |                           x T B                           |     
     |                   =====================                   |     
     |                         S. Grimme                         |     
     |          Mulliken Center for Theoretical Chemistry        |     
     |                    University of Bonn                     |     
      -----------------------------------------------------------      

   * xtb version 6.7.1 (edcfbbe) compiled by 'albert@albert-system' on 2024-07-22

   xtb is free software: you can redistribute it and/or modify it under
   the terms of the GNU Lesser General Public License as published by
   the Free Software Foundation, either version 3 of the License, or
   (at your option) any later version.
   
   xtb is distributed in the hope that it will be useful,
   but WITHOUT ANY WARRANTY; without even the implied warranty of
   MERCHANTABILITY or FITNESS FOR A PARTICULAR PURPOSE.  See the
   GNU Lesser General Public License for more details.
   
   Cite this work as:
   * C. Bannwarth, E. Caldeweyher, S. Ehlert, A. Hansen, P. Pracht,
     J. Seibert, S. Spicher, S. Grimme, WIREs Comput. Mol. Sci., 2020, 11,
     e01493. DOI: 10.1002/wcms.1493
   
   for GFN2-xTB:
   * C. Bannwarth, S. Ehlert and S. Grimme., J. Chem. Theory Comput., 2019,
     15, 1652-1671. DOI: 10.1021/acs.jctc.8b01176
   for GFN1-xTB:
   * S. Grimme, C. Bannwarth, P. Shushkov, J. Chem. Theory Comput., 2017,
     13, 1989-2009. DOI: 10.1021/acs.jctc.7b00118
   for GFN0-xTB:
   * P. Pracht, E. Caldeweyher, S. Ehlert, S. Grimme, ChemRxiv, 2019, preprint.
     DOI: 10.26434/chemrxiv.8326202.v1
   for GFN-FF:
   * S. Spicher and S. Grimme, Angew. Chem. Int. Ed., 2020, 59, 15665-15673.
     DOI: 10.1002/anie.202004239
   
   for ALPB and GBSA implicit solvation:
   * S. Ehlert, M. Stahn, S. Spicher, S. Grimme, J. Chem. Theory Comput.,
     2021, 17, 4250-4261. DOI: 10.1021/acs.jctc.1c00471
   
   for ddCOSMO and CPCM-X implicit solvation:
   * M. Stahn, S. Ehlert, S. Grimme, J. Phys. Chem. A,
     2023, XX, XXXX-XXXX. DOI: 10.1021/acs.jpca.3c04382
   
   for DFT-D4:
   * E. Caldeweyher, C. Bannwarth and S. Grimme, J. Chem. Phys., 2017,
     147, 034112. DOI: 10.1063/1.4993215
   * E. Caldeweyher, S. Ehlert, A. Hansen, H. Neugebauer, S. Spicher,
     C. Bannwarth and S. Grimme, J. Chem. Phys., 2019, 150, 154122.
     DOI: 10.1063/1.5090222
   * E. Caldeweyher, J.-M. Mewes, S. Ehlert and S. Grimme, Phys. Chem. Chem. Phys.
     2020, 22, 8499-8512. DOI: 10.1039/D0CP00502A
   
   for sTDA-xTB:
   * S. Grimme and C. Bannwarth, J. Chem. Phys., 2016, 145, 054103.
     DOI: 10.1063/1.4959605
   
   in the mass-spec context:
   * V. Asgeirsson, C. Bauer and S. Grimme, Chem. Sci., 2017, 8, 4879.
     DOI: 10.1039/c7sc00601b
   * J. Koopman and S. Grimme, ACS Omega 2019, 4, 12, 15120-15133.
     DOI: 10.1021/acsomega.9b02011
   
   for metadynamics refer to:
   * S. Grimme, J. Chem. Theory Comput., 2019, 155, 2847-2862
     DOI: 10.1021/acs.jctc.9b00143
   
   for SPH calculations refer to:
   * S. Spicher and S. Grimme, J. Chem. Theory Comput., 2021, 17, 1701-1714
     DOI: 10.1021/acs.jctc.0c01306
   
   for ONIOM refer to:
   * C. Plett, A. Katbashev, S. Ehlert, S. Grimme, M. Bursch,
     Phys. Chem. Chem. Phys., 2023, 25, 17860-17868. DOI: 10.1039/D3CP02178E
   
   for DIPRO refer to:
   * J. Kohn, N. Gildemeister, S. Grimme, D. Fazzi, A. Hansen,
     J. Chem. Phys., 2023, just accepted.
   
   for PTB refer to:
   * S. Grimme, M. Mueller, A. Hansen, J. Chem. Phys., 2023, 158, 124111.
     DOI: 10.1063/5.0137838
   
   with help from (in alphabetical order)
   P. Atkinson, C. Bannwarth, F. Bohle, G. Brandenburg, E. Caldeweyher
   M. Checinski, S. Dohm, S. Ehlert, S. Ehrlich, I. Gerasimov, C. Hölzer
   A. Katbashev, J. Kohn, J. Koopman, C. Lavigne, S. Lehtola, F. März, M. Müller,
   F. Musil, H. Neugebauer, J. Pisarek, C. Plett, P. Pracht, F. Pultar,
   J. Seibert, P. Shushkov, S. Spicher, M. Stahn, M. Steiner, T. Strunk,
   J. Stückrath, T. Rose, and J. Unsleber
   
 * started run on 2026/04/09 at 18:40:48.511     
   ID    Z sym.   atoms
    1    7 N      1, 6
    2    6 C      2-5, 7-13
    3    8 O      14, 15
    4    1 H      16-27

           -------------------------------------------------
          |                Calculation Setup                |
           -------------------------------------------------

          program call               : /home/analima/Programs/orca-6.1.0-f.0_linux_x86-64/bin/otool_xtb geo_opt_XTB.xyz --grad -c 0 -u 0 -P 1 --namespace geo_opt --input geo_opt_XTB.input.tmp --alpb WATER --acc 0.200000
          calculation namespace      : geo_opt
          coordinate file            : geo_opt_XTB.xyz
          omp threads                :                     1


           -------------------------------------------------
          |                 G F N 2 - x T B                 |
           -------------------------------------------------

        Reference                      10.1021/acs.jctc.8b01176
      * Hamiltonian:
        H0-scaling (s, p, d)           1.850000    2.230000    2.230000
        zeta-weighting                 0.500000
      * Dispersion:
        s8                             2.700000
        a1                             0.520000
        a2                             5.000000
        s9                             5.000000
      * Repulsion:
        kExp                           1.500000    1.000000
        rExp                           1.000000
      * Coulomb:
        alpha                          2.000000
        third order                    shell-resolved
        anisotropic                    true
        a3                             3.000000
        a5                             4.000000
        cn-shift                       1.200000
        cn-exp                         4.000000
        max-rad                        5.000000

      * Solvation model:               ALPB
        Solvent                        WATER
        Parameter file                 internal GFN2-xTB/ALPB
        Dielectric constant                8.0200E+01
        Reference state                gsolv [1 M gas/solution]
        Free energy shift                  1.0808E-03 Eh       6.7819E-01 kcal/mol
        Temperature                        2.9815E+02 K
        Density                            1.0000E+00 kg/L
        Solvent mass                       1.8000E+01 g/mol
        Interaction kernel             P16
        Born radius scaling (c1)           1.4744E+00
        Born radii integrator          GBOBC
        Born offset                        0.0000E+00 a0       0.0000E+00 AA
        H-bond correction              true
        Ion screening                  false
        Surface tension                    1.0000E-05 Eh       1.5569E+01 dyn/cm
        Grid points                               230 per atom
q/qsh data taken from xtbrestart
CAMM data taken from xtbrestart

          ...................................................
          :                      SETUP                      :
          :.................................................:
          :  # basis functions                  72          :
          :  # atomic orbitals                  72          :
          :  # shells                           42          :
          :  # electrons                        78          :
          :  max. iterations                   250          :
          :  Hamiltonian                  GFN2-xTB          :
          :  restarted?                       true          :
          :  GBSA solvation                   true          :
          :  PC potential                    false          :
          :  electronic temp.          300.0000000     K    :
          :  accuracy                    0.2000000          :
          :  -> integral cutoff          0.3198970E+02      :
          :  -> integral neglect         0.2000000E-08      :
          :  -> SCF convergence          0.2000000E-06 Eh   :
          :  -> wf. convergence          0.2000000E-04 e    :
          :  Broyden damping             0.4000000          :
          :  net charge                          0          :
          :  unpaired electrons                  0          :
          ...................................................

 iter      E             dE          RMSdq      gap      omega  full diag
   1    -44.2938775 -0.442939E+02  0.784E-02    3.50       0.0  T
   2    -44.2938802 -0.263974E-05  0.458E-02    3.50       1.0  T
   3    -44.2938786  0.155147E-05  0.107E-02    3.50       1.8  T
   4    -44.2938809 -0.228349E-05  0.248E-03    3.50       7.7  T
   5    -44.2938810 -0.577603E-07  0.136E-03    3.50      14.2  T
   6    -44.2938810 -0.642806E-08  0.568E-04    3.50      33.9  T
   7    -44.2938810 -0.788148E-09  0.171E-04    3.50     112.7  T
   8    -44.2938810 -0.445226E-09  0.625E-05    3.50     307.7  T

   *** convergence criteria satisfied after 8 iterations ***

         #    Occupation            Energy/Eh            Energy/eV
      -------------------------------------------------------------
         1        2.0000           -0.6904522             -18.7882
       ...           ...                  ...                  ...
        33        2.0000           -0.4182759             -11.3819
        34        2.0000           -0.4176682             -11.3653
        35        2.0000           -0.4075424             -11.0898
        36        2.0000           -0.3922232             -10.6729
        37        2.0000           -0.3837963             -10.4436
        38        2.0000           -0.3750159             -10.2047
        39        2.0000           -0.3616739              -9.8416 (HOMO)
        40                         -0.2330846              -6.3426 (LUMO)
        41                         -0.1996925              -5.4339
        42                         -0.1875186              -5.1026
        43                         -0.1602147              -4.3597
        44                         -0.0753419              -2.0502
       ...                                ...                  ...
        72                          0.7106284              19.3372
      -------------------------------------------------------------
                  HL-Gap            0.1285893 Eh            3.4991 eV
             Fermi-level           -0.2973792 Eh           -8.0921 eV

 SCC (total)                   0 d,  0 h,  0 min,  0.013 sec
 SCC setup                      ...        0 min,  0.001 sec (  4.034%)
 Dispersion                     ...        0 min,  0.000 sec (  1.150%)
 classical contributions        ...        0 min,  0.000 sec (  0.238%)
 integral evaluation            ...        0 min,  0.002 sec ( 15.156%)
 iterations                     ...        0 min,  0.006 sec ( 44.601%)
 molecular gradient             ...        0 min,  0.004 sec ( 34.362%)
 printout                       ...        0 min,  0.000 sec (  0.377%)

         :::::::::::::::::::::::::::::::::::::::::::::::::::::
         ::                     SUMMARY                     ::
         :::::::::::::::::::::::::::::::::::::::::::::::::::::
         :: total energy             -43.672123294293 Eh    ::
         :: total w/o Gsasa/hb       -43.663948237498 Eh    ::
         :: gradient norm              0.004158858419 Eh/a0 ::
         :: HOMO-LUMO gap              3.499093308138 eV    ::
         ::.................................................::
         :: SCC energy               -44.293718458855 Eh    ::
         :: -> isotropic ES            0.187511604382 Eh    ::
         :: -> anisotropic ES         -0.005634604217 Eh    ::
         :: -> anisotropic XC          0.016491713898 Eh    ::
         :: -> dispersion             -0.026279080913 Eh    ::
         :: -> Gsolv                  -0.075927661485 Eh    ::
         ::    -> Gelec               -0.067752604690 Eh    ::
         ::    -> Gsasa                0.001904499796 Eh    ::
         ::    -> Ghb                 -0.011160316290 Eh    ::
         ::    -> Gshift               0.001080759698 Eh    ::
         :: repulsion energy           0.621595164562 Eh    ::
         :: add. restraining           0.000000000000 Eh    ::
         :: total charge              -0.000000000000 e     ::
         :::::::::::::::::::::::::::::::::::::::::::::::::::::


Property printout bound to 'properties.out'

           -------------------------------------------------
          | TOTAL ENERGY              -43.672123294293 Eh   |
          | GRADIENT NORM               0.004158858419 Eh/α |
          | HOMO-LUMO GAP               3.499093308138 eV   |
           -------------------------------------------------

------------------------------------------------------------------------
 * finished run on 2026/04/09 at 18:40:48.530     
------------------------------------------------------------------------
 total:
 * wall-time:     0 d,  0 h,  0 min,  0.019 sec
 *  cpu-time:     0 d,  0 h,  0 min,  0.017 sec
 * ratio c/w:     0.911 speedup
 SCF:
 * wall-time:     0 d,  0 h,  0 min,  0.013 sec
 *  cpu-time:     0 d,  0 h,  0 min,  0.012 sec
 * ratio c/w:     0.883 speedup


-------------------------   --------------------
FINAL SINGLE POINT ENERGY       -43.672123294290
-------------------------   --------------------


-------------
DIPOLE MOMENT
-------------
                                X             Y             Z
Total Dipole Moment    :     -5.20800      -2.13500       1.75500
                        -----------------------------------------
Magnitude (a.u.)       :      5.89589
Magnitude (Debye)      :     14.98616


------------------
CARTESIAN GRADIENT
------------------

   1   N   :   -0.000378216    0.000380388   -0.000111694
   2   C   :    0.001650756   -0.001075001    0.001484043
   3   C   :   -0.000709790    0.000259360   -0.000890713
   4   C   :   -0.000140730   -0.000682516    0.000096388
   5   C   :   -0.000002678    0.000159199    0.000078525
   6   N   :   -0.000240726    0.000299701   -0.000185880
   7   C   :    0.000467685   -0.000438637   -0.000307412
   8   C   :   -0.000102042    0.000399129    0.000119476
   9   C   :   -0.000207088   -0.000172690    0.000037067
  10   C   :    0.000489733   -0.000562873   -0.000479451
  11   C   :   -0.000029760    0.000809272    0.000739139
  12   C   :   -0.000312925    0.000177254    0.000230733
  13   C   :    0.000688056    0.000466795   -0.001182078
  14   O   :   -0.000018589   -0.000556024   -0.000082303
  15   O   :   -0.000564219    0.000880121    0.000183720
  16   H   :   -0.000354532    0.000469905   -0.000231590
  17   H   :   -0.000894773   -0.000578008    0.000252723
  18   H   :    0.000573351    0.000047585    0.000143382
  19   H   :   -0.000111358    0.000134021    0.000141131
  20   H   :    0.000103954   -0.000334483   -0.000029226
  21   H   :    0.000054364   -0.000020853    0.000110439
  22   H   :    0.000199208    0.000125400   -0.000059744
  23   H   :   -0.000051022   -0.000226702    0.000097945
  24   H   :    0.000060392   -0.000004336   -0.000006215
  25   H   :   -0.000005148    0.000030432    0.000009155
  26   H   :   -0.000148235    0.000053718    0.000104229
  27   H   :   -0.000015670   -0.000040159   -0.000261788

Difference to translation invariance:
           :   -0.0000000000    0.0000000000   -0.0000000000

Difference to rotation invariance:
           :    0.0004764012    0.0000707689   -0.0001588255

Norm of the Cartesian gradient     ...    0.0041588584
RMS gradient                       ...    0.0004620954
MAX gradient                       ...    0.0016507556
------------------------------------------------------------------------------
                         ORCA GEOMETRY RELAXATION STEP
------------------------------------------------------------------------------

Reading the OPT-File                    .... done
Getting information on internals        .... done
Copying old internal coords+grads       .... done
Making the new internal coordinates     .... (2022 redundants) done
Validating the new internal coordinates .... (2022 redundants) done
Calculating the B-matrix                .... done
Calculating the G,G- and P matrices     .... done
Transforming gradient to internals      .... done
Projecting the internal gradient        .... done
Number of atoms                         ....  27
Number of internal coordinates          .... 138
Current Energy                          ....   -43.672123294 Eh
Current gradient norm                   ....     0.004158858 Eh/bohr
Maximum allowed component of the step   ....  0.300
Current trust radius                    ....  0.700
Updating the Hessian (BFGS)             .... done
Forming the augmented Hessian           .... done
Diagonalizing the augmented Hessian     .... done
Last element of RFO vector              ....  0.910560334
Lowest eigenvalues of augmented Hessian:
 -0.000964353  0.004350556  0.015768687  0.016551473  0.018376203
Length of the computed step             ....  0.453980016
The final length of the internal step   ....  0.453980016
Converting the step to Cartesian space:
 Initial RMS(Int)=    0.0386453454
Transforming coordinates:
 Iter   0:  RMS(Cart)=    0.0662322034 RMS(Int)=    0.5220246041
 Iter   5:  RMS(Cart)=    0.0000013867 RMS(Int)=    0.0000010394
done
Storing new coordinates                 .... done
The predicted energy change is          ....    -0.000581552
Previously predicted energy change      ....    -0.000213293
Actually observed energy change         ....    -0.000343003
Ratio of predicted to observed change   ....     1.608127024
New trust radius                        ....     0.466666667

                                .--------------------.
          ----------------------|Geometry convergence|-------------------------
          Item                value                   Tolerance       Converged
          ---------------------------------------------------------------------
          Energy change      -0.0003430025            0.0000050000      NO
          RMS gradient        0.0002925534            0.0001000000      NO
          MAX gradient        0.0012224793            0.0003000000      NO
          RMS step            0.0386453454            0.0020000000      NO
          MAX step            0.1798475251            0.0040000000      NO
          -------------------------------------------------------------------------
          ........................................................
          Max(Bonds)      0.0057      Max(Angles)    0.79
          Max(Dihed)       10.30      Max(Improp)    0.00
          ---------------------------------------------------------------------

The optimization has not yet converged - more geometry cycles are needed


    ---------------------------------------------------------------------------
                         Redundant Internal Coordinates
                            (Angstroem and degrees)

        Definition                    Value    dE/dq     Step     New-Value
    ----------------------------------------------------------------------------
     1. B(C   1,N   0)                1.4907  0.000574 -0.0039    1.4868   
     2. B(C   2,C   1)                1.5286  0.000749 -0.0057    1.5229   
     3. B(C   3,C   2)                1.4946  0.000088 -0.0015    1.4932   
     4. B(C   4,C   3)                1.3664 -0.000294  0.0020    1.3685   
     5. B(N   5,C   4)                1.3652  0.000024 -0.0004    1.3648   
     6. B(C   6,N   5)                1.3620 -0.000110 -0.0009    1.3611   
     7. B(C   7,C   6)                1.3906  0.000075 -0.0001    1.3905   
     8. B(C   8,C   7)                1.3774 -0.000241  0.0017    1.3791   
     9. B(C   9,C   8)                1.3990  0.000043 -0.0023    1.3968   
    10. B(C  10,C   9)                1.3756 -0.000258  0.0013    1.3770   
    11. B(C  11,C  10)                1.3993  0.000388 -0.0032    1.3961   
    12. B(C  11,C   6)                1.4188  0.000105 -0.0028    1.4161   
    13. B(C  11,C   3)                1.4318  0.000194 -0.0018    1.4300   
    14. B(C  12,C   1)                1.5914  0.000492 -0.0028    1.5886   
    15. B(O  13,C  12)                1.2431  0.000123 -0.0017    1.2415   
    16. B(O  14,C  12)                1.2366  0.000441 -0.0024    1.2342   
    17. B(H  15,N   0)                1.0320  0.000246 -0.0008    1.0312   
    18. B(H  16,N   0)                1.0259  0.000060 -0.0007    1.0251   
    19. B(H  17,N   0)                1.0260  0.000133 -0.0006    1.0254   
    20. B(H  18,C   1)                1.0919 -0.000152  0.0014    1.0933   
    21. B(H  19,C   2)                1.0903  0.000149 -0.0000    1.0902   
    22. B(H  20,C   2)                1.0908 -0.000028  0.0000    1.0909   
    23. B(H  21,C   4)                1.0726  0.000076 -0.0002    1.0724   
    24. B(H  22,N   5)                1.0059  0.000187 -0.0011    1.0048   
    25. B(H  23,C   7)                1.0793 -0.000037 -0.0006    1.0786   
    26. B(H  24,C   8)                1.0797  0.000011  0.0001    1.0798   
    27. B(H  25,C   9)                1.0802  0.000136 -0.0000    1.0802   
    28. B(H  26,C  10)                1.0795 -0.000066  0.0005    1.0799   
    29. A(H  16,N   0,H  17)          108.33  0.000004    0.18    108.51   
    30. A(H  15,N   0,H  17)          108.89  0.000054   -0.04    108.85   
    31. A(H  15,N   0,H  16)          110.64 -0.000334    0.33    110.97   
    32. A(C   1,N   0,H  15)          109.41 -0.000181   -0.25    109.16   
    33. A(C   1,N   0,H  16)          110.09  0.000728   -0.46    109.64   
    34. A(C   1,N   0,H  17)          109.45 -0.000278    0.16    109.61   
    35. A(C   2,C   1,C  12)          113.03 -0.000427    0.44    113.47   
    36. A(C   2,C   1,H  18)          110.34  0.000132    0.16    110.50   
    37. A(N   0,C   1,C   2)          109.60 -0.000767    0.79    110.39   
    38. A(N   0,C   1,C  12)          108.25  0.000940   -0.75    107.50   
    39. A(N   0,C   1,H  18)          108.45  0.000036   -0.43    108.02   
    40. A(C  12,C   1,H  18)          107.03  0.000138   -0.31    106.72   
    41. A(C   1,C   2,C   3)          111.26 -0.000340    0.32    111.57   
    42. A(H  19,C   2,H  20)          107.07  0.000129   -0.19    106.88   
    43. A(C   3,C   2,H  20)          111.28  0.000157   -0.15    111.12   
    44. A(C   3,C   2,H  19)          110.44  0.000054    0.03    110.47   
    45. A(C   1,C   2,H  20)          109.03  0.000002   -0.08    108.95   
    46. A(C   1,C   2,H  19)          107.61  0.000011    0.06    107.66   
    47. A(C   2,C   3,C   4)          126.72 -0.000335    0.48    127.20   
    48. A(C   2,C   3,C  11)          126.90  0.000095   -0.31    126.59   
    49. A(C   4,C   3,C  11)          106.35  0.000241   -0.18    106.17   
    50. A(N   5,C   4,H  21)          121.19  0.000224   -0.19    121.01   
    51. A(C   3,C   4,H  21)          128.41 -0.000231    0.25    128.67   
    52. A(C   3,C   4,N   5)          110.39  0.000007   -0.07    110.32   
    53. A(C   6,N   5,H  22)          125.60  0.000035   -0.04    125.57   
    54. A(C   4,N   5,H  22)          125.42  0.000088   -0.05    125.37   
    55. A(C   4,N   5,C   6)          108.97 -0.000121    0.08    109.05   
    56. A(C   7,C   6,C  11)          121.63 -0.000206    0.12    121.75   
    57. A(N   5,C   6,C  11)          107.80  0.000266   -0.10    107.70   
    58. A(N   5,C   6,C   7)          130.57 -0.000060   -0.02    130.55   
    59. A(C   6,C   7,C   8)          117.75  0.000104   -0.05    117.70   
    60. A(C   8,C   7,H  23)          121.21 -0.000006   -0.03    121.17   
    61. A(C   6,C   7,H  23)          121.04 -0.000098    0.08    121.12   
    62. A(C   9,C   8,H  24)          119.07 -0.000004    0.05    119.12   
    63. A(C   7,C   8,H  24)          119.66  0.000057   -0.00    119.66   
    64. A(C   7,C   8,C   9)          121.27 -0.000054   -0.04    121.22   
    65. A(C  10,C   9,H  25)          119.76 -0.000032   -0.01    119.75   
    66. A(C   8,C   9,H  25)          118.75 -0.000294    0.18    118.92   
    67. A(C   8,C   9,C  10)          121.49  0.000326   -0.16    121.33   
    68. A(C   9,C  10,C  11)          118.58 -0.000396    0.26    118.84   
    69. A(C  11,C  10,H  26)          120.82  0.000041    0.03    120.85   
    70. A(C   9,C  10,H  26)          120.56  0.000351   -0.27    120.29   
    71. A(C   3,C  11,C   6)          106.49 -0.000393    0.26    106.76   
    72. A(C   6,C  11,C  10)          119.27  0.000225   -0.14    119.13   
    73. A(C   3,C  11,C  10)          134.22  0.000168   -0.13    134.09   
    74. A(O  13,C  12,O  14)          128.99  0.000549   -0.24    128.75   
    75. A(C   1,C  12,O  14)          117.29 -0.000342   -0.11    117.18   
    76. A(C   1,C  12,O  13)          113.69 -0.000224   -0.00    113.69   
    77. D(C   2,C   1,N   0,H  16)    163.88 -0.000559    6.10    169.98   
    78. D(C  12,C   1,N   0,H  16)    -72.43 -0.000964    6.71    -65.72   
    79. D(C   2,C   1,N   0,H  17)    -77.15 -0.000284    6.18    -70.97   
    80. D(C  12,C   1,N   0,H  17)     46.55 -0.000688    6.79     53.34   
    81. D(C  12,C   1,N   0,H  15)    165.78 -0.000899    6.79    172.57   
    82. D(C   2,C   1,N   0,H  15)     42.09 -0.000494    6.18     48.26   
    83. D(H  19,C   2,C   1,H  18)    -63.38 -0.000019    0.07    -63.31   
    84. D(C   3,C   2,C   1,H  18)     57.72 -0.000151    0.34     58.07   
    85. D(H  19,C   2,C   1,C  12)     56.41 -0.000037    0.08     56.49   
    86. D(C   3,C   2,C   1,C  12)    177.52 -0.000169    0.35    177.87   
    87. D(C   3,C   2,C   1,N   0)    -61.64  0.000203    0.31    -61.33   
    88. D(H  19,C   2,C   1,N   0)    177.26  0.000334    0.04    177.29   
    89. D(C   4,C   3,C   2,H  20)    149.35  0.000109    0.84    150.19   
    90. D(C   4,C   3,C   2,H  19)     30.59 -0.000187    1.15     31.73   
    91. D(C   4,C   3,C   2,C   1)    -88.85 -0.000017    0.85    -88.00   
    92. D(C  11,C   3,C   2,H  19)   -151.63 -0.000149    0.92   -150.71   
    93. D(C  11,C   3,C   2,C   1)     88.94  0.000022    0.62     89.56   
    94. D(H  21,C   4,C   3,C  11)    179.14 -0.000010    0.11    179.24   
    95. D(H  21,C   4,C   3,C   2)     -2.71  0.000022   -0.11     -2.82   
    96. D(N   5,C   4,C   3,C  11)     -0.34 -0.000011    0.27     -0.07   
    97. D(N   5,C   4,C   3,C   2)    177.82  0.000021    0.06    177.88   
    98. D(H  22,N   5,C   4,H  21)     -0.15  0.000075   -0.47     -0.63   
    99. D(H  22,N   5,C   4,C   3)    179.36  0.000073   -0.62    178.74   
   100. D(C   6,N   5,C   4,H  21)   -179.16 -0.000011    0.08   -179.08   
   101. D(C   6,N   5,C   4,C   3)      0.35 -0.000013   -0.06      0.29   
   102. D(C  11,C   6,N   5,H  22)   -179.22 -0.000056    0.38   -178.84   
   103. D(C  11,C   6,N   5,C   4)     -0.22  0.000031   -0.18     -0.39   
   104. D(C   7,C   6,N   5,C   4)    179.56  0.000013    0.02    179.58   
   105. D(C   7,C   6,N   5,H  22)      0.56 -0.000073    0.57      1.13   
   106. D(C   8,C   7,C   6,C  11)      0.44 -0.000010    0.05      0.49   
   107. D(C   8,C   7,C   6,N   5)   -179.31  0.000009   -0.17   -179.48   
   108. D(H  23,C   7,C   6,C  11)    180.00  0.000005   -0.04    179.96   
   109. D(H  23,C   7,C   6,N   5)      0.25  0.000024   -0.26     -0.01   
   110. D(H  24,C   8,C   7,H  23)      0.24 -0.000019    0.24      0.48   
   111. D(H  24,C   8,C   7,C   6)    179.80 -0.000004    0.15    179.95   
   112. D(C   9,C   8,C   7,H  23)   -179.00  0.000012   -0.00   -179.00   
   113. D(C   9,C   8,C   7,C   6)      0.56  0.000026   -0.09      0.47   
   114. D(H  25,C   9,C   8,H  24)     -0.37 -0.000010    0.06     -0.31   
   115. D(H  25,C   9,C   8,C   7)    178.87 -0.000040    0.30    179.18   
   116. D(C  10,C   9,C   8,H  24)    179.96  0.000007   -0.17    179.79   
   117. D(C  10,C   9,C   8,C   7)     -0.80 -0.000022    0.07     -0.72   
   118. D(H  26,C  10,C   9,H  25)     -1.92 -0.000077    0.37     -1.55   
   119. D(H  26,C  10,C   9,C   8)    177.75 -0.000096    0.60    178.35   
   120. D(C  11,C  10,C   9,H  25)   -179.67  0.000015   -0.24   -179.91   
   121. D(C  11,C  10,C   9,C   8)     -0.00 -0.000003   -0.01     -0.01   
   122. D(C   6,C  11,C  10,H  26)   -176.77  0.000109   -0.63   -177.40   
   123. D(C   6,C  11,C  10,C   9)      0.97  0.000024   -0.03      0.94   
   124. D(C   3,C  11,C  10,C   9)    179.06  0.000018   -0.21    178.85   
   125. D(C  10,C  11,C   6,C   7)     -1.22 -0.000018    0.01     -1.22   
   126. D(C  10,C  11,C   6,N   5)    178.58 -0.000034    0.18    178.76   
   127. D(C   3,C  11,C   6,C   7)   -179.79 -0.000021    0.14   -179.65   
   128. D(C   3,C  11,C   6,N   5)      0.01 -0.000036    0.32      0.33   
   129. D(C  10,C  11,C   3,C   4)   -178.06  0.000027   -0.19   -178.25   
   130. D(C   3,C  11,C  10,H  26)      1.32  0.000104   -0.81      0.50   
   131. D(C  10,C  11,C   3,C   2)      3.78  0.000005   -0.02      3.77   
   132. D(C   6,C  11,C   3,C   4)      0.20  0.000029   -0.36     -0.16   
   133. D(C   6,C  11,C   3,C   2)   -177.96  0.000007   -0.18   -178.14   
   134. D(O  14,C  12,C   1,C   2)      9.13  0.000635   -7.70      1.43   
   135. D(O  14,C  12,C   1,N   0)   -112.47  0.001222   -8.50   -120.97   
   136. D(O  13,C  12,C   1,H  18)    -51.02  0.000105   -9.25    -60.27   
   137. D(O  13,C  12,C   1,C   2)   -172.70  0.000110   -9.51   -182.21   
   138. D(O  13,C  12,C   1,N   0)     65.70  0.000698  -10.30     55.39   
    ----------------------------------------------------------------------------

Geometry step timings:
Preparation and reading OPT file:      0.000 s ( 0.521 %)
Internal coordinates            :      0.000 s ( 0.568 %)
B/P matrices and projection     :      0.001 s (42.045 %)
Hessian update/contruction      :      0.000 s ( 8.523 %)
Making the step                 :      0.001 s (32.812 %)
Converting the step to Cartesian:      0.000 s ( 4.167 %)
Storing new data                :      0.000 s ( 0.568 %)
Checking convergence            :      0.000 s ( 0.710 %)
Final printing                  :      0.000 s (10.085 %)
Total time                      :      0.002 s

Time for energy+gradient        :      0.022 s
Time for complete geometry iter :      0.025 s

         *************************************************************
         *                GEOMETRY OPTIMIZATION CYCLE   8            *
         *************************************************************
---------------------------------
CARTESIAN COORDINATES (ANGSTROEM)
---------------------------------
  N     1.780407    0.293491    1.385634
  C     2.385884   -0.045531    0.070718
  C     1.456273    0.364990   -1.063518
  C     0.149838   -0.354349   -0.990277
  C    -0.157528   -1.569622   -1.539171
  N    -1.436781   -1.923349   -1.221436
  C    -1.993825   -0.940590   -0.462153
  C    -3.264688   -0.837523    0.092571
  C    -3.557160    0.297843    0.818736
  C    -2.613927    1.314680    0.983949
  C    -1.352307    1.216122    0.441164
  C    -1.019864    0.072278   -0.286937
  C     3.810968    0.653522    0.005993
  O     4.557816    0.355990    0.952024
  O     4.006356    1.455173   -0.911849
  H     0.805326   -0.041445    1.405955
  H     2.330301   -0.132982    2.138406
  H     1.784676    1.310697    1.514975
  H     2.563577   -1.124065    0.048543
  H     1.962248    0.141942   -2.003133
  H     1.312367    1.445819   -1.030072
  H     0.455902   -2.204034   -2.148524
  H    -1.899695   -2.763018   -1.521824
  H    -3.999008   -1.615001   -0.047906
  H    -4.534911    0.410986    1.262687
  H    -2.887171    2.193945    1.548718
  H    -0.645076    2.024029    0.556728

----------------------------
CARTESIAN COORDINATES (A.U.)
----------------------------
  NO LB    ZA    FRAG    MASS        X           Y           Z
   0 N   7.0000    0    14.007    3.364481    0.554618    2.618469
   1 C   6.0000    0    12.011    4.508667   -0.086041    0.133637
   2 C   6.0000    0    12.011    2.751957    0.689732   -2.009758
   3 C   6.0000    0    12.011    0.283154   -0.669622   -1.871352
   4 C   6.0000    0    12.011   -0.297685   -2.966157   -2.908613
   5 N   7.0000    0    14.007   -2.715124   -3.634603   -2.308179
   6 C   6.0000    0    12.011   -3.767782   -1.777457   -0.873342
   7 C   6.0000    0    12.011   -6.169367   -1.582688    0.174933
   8 C   6.0000    0    12.011   -6.722058    0.562842    1.547187
   9 C   6.0000    0    12.011   -4.939607    2.484385    1.859394
  10 C   6.0000    0    12.011   -2.555489    2.298137    0.833680
  11 C   6.0000    0    12.011   -1.927263    0.136586   -0.542233
  12 C   6.0000    0    12.011    7.201687    1.234977    0.011325
  13 O   8.0000    0    15.999    8.613025    0.672724    1.799064
  14 O   8.0000    0    15.999    7.570916    2.749879   -1.723145
  15 H   1.0000    0     1.008    1.521845   -0.078320    2.656869
  16 H   1.0000    0     1.008    4.403631   -0.251299    4.041002
  17 H   1.0000    0     1.008    3.372549    2.476859    2.862887
  18 H   1.0000    0     1.008    4.844459   -2.124174    0.091733
  19 H   1.0000    0     1.008    3.708112    0.268232   -3.785374
  20 H   1.0000    0     1.008    2.480013    2.732201   -1.946554
  21 H   1.0000    0     1.008    0.861529   -4.165021   -4.060121
  22 H   1.0000    0     1.008   -3.589903   -5.221347   -2.875830
  23 H   1.0000    0     1.008   -7.557029   -3.051909   -0.090529
  24 H   1.0000    0     1.008   -8.569739    0.776652    2.386132
  25 H   1.0000    0     1.008   -5.455962    4.145955    2.926653
  26 H   1.0000    0     1.008   -1.219017    3.824860    1.052063

      -----------------------------------------------------------      
     |                   =====================                   |     
     |                           x T B                           |     
     |                   =====================                   |     
     |                         S. Grimme                         |     
     |          Mulliken Center for Theoretical Chemistry        |     
     |                    University of Bonn                     |     
      -----------------------------------------------------------      

   * xtb version 6.7.1 (edcfbbe) compiled by 'albert@albert-system' on 2024-07-22

   xtb is free software: you can redistribute it and/or modify it under
   the terms of the GNU Lesser General Public License as published by
   the Free Software Foundation, either version 3 of the License, or
   (at your option) any later version.
   
   xtb is distributed in the hope that it will be useful,
   but WITHOUT ANY WARRANTY; without even the implied warranty of
   MERCHANTABILITY or FITNESS FOR A PARTICULAR PURPOSE.  See the
   GNU Lesser General Public License for more details.
   
   Cite this work as:
   * C. Bannwarth, E. Caldeweyher, S. Ehlert, A. Hansen, P. Pracht,
     J. Seibert, S. Spicher, S. Grimme, WIREs Comput. Mol. Sci., 2020, 11,
     e01493. DOI: 10.1002/wcms.1493
   
   for GFN2-xTB:
   * C. Bannwarth, S. Ehlert and S. Grimme., J. Chem. Theory Comput., 2019,
     15, 1652-1671. DOI: 10.1021/acs.jctc.8b01176
   for GFN1-xTB:
   * S. Grimme, C. Bannwarth, P. Shushkov, J. Chem. Theory Comput., 2017,
     13, 1989-2009. DOI: 10.1021/acs.jctc.7b00118
   for GFN0-xTB:
   * P. Pracht, E. Caldeweyher, S. Ehlert, S. Grimme, ChemRxiv, 2019, preprint.
     DOI: 10.26434/chemrxiv.8326202.v1
   for GFN-FF:
   * S. Spicher and S. Grimme, Angew. Chem. Int. Ed., 2020, 59, 15665-15673.
     DOI: 10.1002/anie.202004239
   
   for ALPB and GBSA implicit solvation:
   * S. Ehlert, M. Stahn, S. Spicher, S. Grimme, J. Chem. Theory Comput.,
     2021, 17, 4250-4261. DOI: 10.1021/acs.jctc.1c00471
   
   for ddCOSMO and CPCM-X implicit solvation:
   * M. Stahn, S. Ehlert, S. Grimme, J. Phys. Chem. A,
     2023, XX, XXXX-XXXX. DOI: 10.1021/acs.jpca.3c04382
   
   for DFT-D4:
   * E. Caldeweyher, C. Bannwarth and S. Grimme, J. Chem. Phys., 2017,
     147, 034112. DOI: 10.1063/1.4993215
   * E. Caldeweyher, S. Ehlert, A. Hansen, H. Neugebauer, S. Spicher,
     C. Bannwarth and S. Grimme, J. Chem. Phys., 2019, 150, 154122.
     DOI: 10.1063/1.5090222
   * E. Caldeweyher, J.-M. Mewes, S. Ehlert and S. Grimme, Phys. Chem. Chem. Phys.
     2020, 22, 8499-8512. DOI: 10.1039/D0CP00502A
   
   for sTDA-xTB:
   * S. Grimme and C. Bannwarth, J. Chem. Phys., 2016, 145, 054103.
     DOI: 10.1063/1.4959605
   
   in the mass-spec context:
   * V. Asgeirsson, C. Bauer and S. Grimme, Chem. Sci., 2017, 8, 4879.
     DOI: 10.1039/c7sc00601b
   * J. Koopman and S. Grimme, ACS Omega 2019, 4, 12, 15120-15133.
     DOI: 10.1021/acsomega.9b02011
   
   for metadynamics refer to:
   * S. Grimme, J. Chem. Theory Comput., 2019, 155, 2847-2862
     DOI: 10.1021/acs.jctc.9b00143
   
   for SPH calculations refer to:
   * S. Spicher and S. Grimme, J. Chem. Theory Comput., 2021, 17, 1701-1714
     DOI: 10.1021/acs.jctc.0c01306
   
   for ONIOM refer to:
   * C. Plett, A. Katbashev, S. Ehlert, S. Grimme, M. Bursch,
     Phys. Chem. Chem. Phys., 2023, 25, 17860-17868. DOI: 10.1039/D3CP02178E
   
   for DIPRO refer to:
   * J. Kohn, N. Gildemeister, S. Grimme, D. Fazzi, A. Hansen,
     J. Chem. Phys., 2023, just accepted.
   
   for PTB refer to:
   * S. Grimme, M. Mueller, A. Hansen, J. Chem. Phys., 2023, 158, 124111.
     DOI: 10.1063/5.0137838
   
   with help from (in alphabetical order)
   P. Atkinson, C. Bannwarth, F. Bohle, G. Brandenburg, E. Caldeweyher
   M. Checinski, S. Dohm, S. Ehlert, S. Ehrlich, I. Gerasimov, C. Hölzer
   A. Katbashev, J. Kohn, J. Koopman, C. Lavigne, S. Lehtola, F. März, M. Müller,
   F. Musil, H. Neugebauer, J. Pisarek, C. Plett, P. Pracht, F. Pultar,
   J. Seibert, P. Shushkov, S. Spicher, M. Stahn, M. Steiner, T. Strunk,
   J. Stückrath, T. Rose, and J. Unsleber
   
 * started run on 2026/04/09 at 18:40:48.535     
   ID    Z sym.   atoms
    1    7 N      1, 6
    2    6 C      2-5, 7-13
    3    8 O      14, 15
    4    1 H      16-27

           -------------------------------------------------
          |                Calculation Setup                |
           -------------------------------------------------

          program call               : /home/analima/Programs/orca-6.1.0-f.0_linux_x86-64/bin/otool_xtb geo_opt_XTB.xyz --grad -c 0 -u 0 -P 1 --namespace geo_opt --input geo_opt_XTB.input.tmp --alpb WATER --acc 0.200000
          calculation namespace      : geo_opt
          coordinate file            : geo_opt_XTB.xyz
          omp threads                :                     1


           -------------------------------------------------
          |                 G F N 2 - x T B                 |
           -------------------------------------------------

        Reference                      10.1021/acs.jctc.8b01176
      * Hamiltonian:
        H0-scaling (s, p, d)           1.850000    2.230000    2.230000
        zeta-weighting                 0.500000
      * Dispersion:
        s8                             2.700000
        a1                             0.520000
        a2                             5.000000
        s9                             5.000000
      * Repulsion:
        kExp                           1.500000    1.000000
        rExp                           1.000000
      * Coulomb:
        alpha                          2.000000
        third order                    shell-resolved
        anisotropic                    true
        a3                             3.000000
        a5                             4.000000
        cn-shift                       1.200000
        cn-exp                         4.000000
        max-rad                        5.000000

      * Solvation model:               ALPB
        Solvent                        WATER
        Parameter file                 internal GFN2-xTB/ALPB
        Dielectric constant                8.0200E+01
        Reference state                gsolv [1 M gas/solution]
        Free energy shift                  1.0808E-03 Eh       6.7819E-01 kcal/mol
        Temperature                        2.9815E+02 K
        Density                            1.0000E+00 kg/L
        Solvent mass                       1.8000E+01 g/mol
        Interaction kernel             P16
        Born radius scaling (c1)           1.4744E+00
        Born radii integrator          GBOBC
        Born offset                        0.0000E+00 a0       0.0000E+00 AA
        H-bond correction              true
        Ion screening                  false
        Surface tension                    1.0000E-05 Eh       1.5569E+01 dyn/cm
        Grid points                               230 per atom
q/qsh data taken from xtbrestart
CAMM data taken from xtbrestart

          ...................................................
          :                      SETUP                      :
          :.................................................:
          :  # basis functions                  72          :
          :  # atomic orbitals                  72          :
          :  # shells                           42          :
          :  # electrons                        78          :
          :  max. iterations                   250          :
          :  Hamiltonian                  GFN2-xTB          :
          :  restarted?                       true          :
          :  GBSA solvation                   true          :
          :  PC potential                    false          :
          :  electronic temp.          300.0000000     K    :
          :  accuracy                    0.2000000          :
          :  -> integral cutoff          0.3198970E+02      :
          :  -> integral neglect         0.2000000E-08      :
          :  -> SCF convergence          0.2000000E-06 Eh   :
          :  -> wf. convergence          0.2000000E-04 e    :
          :  Broyden damping             0.4000000          :
          :  net charge                          0          :
          :  unpaired electrons                  0          :
          ...................................................

 iter      E             dE          RMSdq      gap      omega  full diag
   1    -44.2980566 -0.442981E+02  0.276E-01    3.50       0.0  T
   2    -44.2980736 -0.170008E-04  0.161E-01    3.50       1.0  T
   3    -44.2980619  0.117083E-04  0.289E-02    3.50       1.0  T
   4    -44.2980812 -0.193387E-04  0.774E-03    3.50       2.5  T
   5    -44.2980815 -0.287093E-06  0.453E-03    3.50       4.2  T
   6    -44.2980816 -0.666076E-07  0.150E-03    3.50      12.8  T
   7    -44.2980816 -0.130652E-07  0.417E-04    3.50      46.2  T
   8    -44.2980816 -0.249148E-08  0.163E-04    3.50     118.3  T
   9    -44.2980816 -0.686100E-10  0.823E-05    3.50     233.9  T

   *** convergence criteria satisfied after 9 iterations ***

         #    Occupation            Energy/Eh            Energy/eV
      -------------------------------------------------------------
         1        2.0000           -0.6913662             -18.8130
       ...           ...                  ...                  ...
        33        2.0000           -0.4180777             -11.3765
        34        2.0000           -0.4170324             -11.3480
        35        2.0000           -0.4076445             -11.0926
        36        2.0000           -0.3922541             -10.6738
        37        2.0000           -0.3836975             -10.4409
        38        2.0000           -0.3747103             -10.1964
        39        2.0000           -0.3614771              -9.8363 (HOMO)
        40                         -0.2329223              -6.3381 (LUMO)
        41                         -0.1988172              -5.4101
        42                         -0.1850605              -5.0358
        43                         -0.1602357              -4.3602
        44                         -0.0741295              -2.0172
       ...                                ...                  ...
        72                          0.7152206              19.4621
      -------------------------------------------------------------
                  HL-Gap            0.1285548 Eh            3.4982 eV
             Fermi-level           -0.2971997 Eh           -8.0872 eV

 SCC (total)                   0 d,  0 h,  0 min,  0.020 sec
 SCC setup                      ...        0 min,  0.001 sec (  2.925%)
 Dispersion                     ...        0 min,  0.000 sec (  0.848%)
 classical contributions        ...        0 min,  0.000 sec (  0.163%)
 integral evaluation            ...        0 min,  0.003 sec ( 14.911%)
 iterations                     ...        0 min,  0.009 sec ( 46.782%)
 molecular gradient             ...        0 min,  0.007 sec ( 33.963%)
 printout                       ...        0 min,  0.000 sec (  0.333%)

         :::::::::::::::::::::::::::::::::::::::::::::::::::::
         ::                     SUMMARY                     ::
         :::::::::::::::::::::::::::::::::::::::::::::::::::::
         :: total energy             -43.672972415885 Eh    ::
         :: total w/o Gsasa/hb       -43.664836081883 Eh    ::
         :: gradient norm              0.010866081480 Eh/a0 ::
         :: HOMO-LUMO gap              3.498153892419 eV    ::
         ::.................................................::
         :: SCC energy               -44.297919210929 Eh    ::
         :: -> isotropic ES            0.186516117419 Eh    ::
         :: -> anisotropic ES         -0.005660093858 Eh    ::
         :: -> anisotropic XC          0.016368231123 Eh    ::
         :: -> dispersion             -0.026280838601 Eh    ::
         :: -> Gsolv                  -0.075021286787 Eh    ::
         ::    -> Gelec               -0.066884952785 Eh    ::
         ::    -> Gsasa                0.001847617477 Eh    ::
         ::    -> Ghb                 -0.011064711177 Eh    ::
         ::    -> Gshift               0.001080759698 Eh    ::
         :: repulsion energy           0.624946795045 Eh    ::
         :: add. restraining           0.000000000000 Eh    ::
         :: total charge               0.000000000000 e     ::
         :::::::::::::::::::::::::::::::::::::::::::::::::::::


Property printout bound to 'properties.out'

           -------------------------------------------------
          | TOTAL ENERGY              -43.672972415885 Eh   |
          | GRADIENT NORM               0.010866081480 Eh/α |
          | HOMO-LUMO GAP               3.498153892419 eV   |
           -------------------------------------------------

------------------------------------------------------------------------
 * finished run on 2026/04/09 at 18:40:48.561     
------------------------------------------------------------------------
 total:
 * wall-time:     0 d,  0 h,  0 min,  0.026 sec
 *  cpu-time:     0 d,  0 h,  0 min,  0.023 sec
 * ratio c/w:     0.916 speedup
 SCF:
 * wall-time:     0 d,  0 h,  0 min,  0.020 sec
 *  cpu-time:     0 d,  0 h,  0 min,  0.018 sec
 * ratio c/w:     0.899 speedup


-------------------------   --------------------
FINAL SINGLE POINT ENERGY       -43.672972415880
-------------------------   --------------------


-------------
DIPOLE MOMENT
-------------
                                X             Y             Z
Total Dipole Moment    :     -5.11200      -2.27300       1.71500
                        -----------------------------------------
Magnitude (a.u.)       :      5.85152
Magnitude (Debye)      :     14.87338


------------------
CARTESIAN GRADIENT
------------------

   1   N   :    0.003168717    0.000853397    0.000662341
   2   C   :   -0.001713158    0.002595845   -0.000161887
   3   C   :   -0.000194142   -0.000891170    0.000773571
   4   C   :    0.000494667    0.002035851    0.000255078
   5   C   :   -0.000802642   -0.001596663   -0.000144025
   6   N   :   -0.000392987    0.000712754    0.000206419
   7   C   :    0.001933471    0.000770343   -0.000330890
   8   C   :   -0.000011530   -0.000972425   -0.000505322
   9   C   :    0.000587555    0.001806877    0.000674002
  10   C   :   -0.001450979   -0.000860737   -0.000195506
  11   C   :    0.000458726   -0.001927887   -0.001352117
  12   C   :   -0.000397508   -0.001122915    0.000142071
  13   C   :    0.003324542   -0.003511849   -0.002181809
  14   O   :   -0.001512261    0.002116240   -0.002125080
  15   O   :   -0.002197685   -0.000017400    0.004042857
  16   H   :   -0.000547670   -0.000110365   -0.000873558
  17   H   :   -0.001872039   -0.000440846   -0.000425734
  18   H   :    0.000165708   -0.000298229   -0.000159063
  19   H   :    0.000254315    0.000074652    0.000695849
  20   H   :   -0.000204388   -0.000181513   -0.000034400
  21   H   :    0.000419908   -0.000219224    0.000220568
  22   H   :   -0.000127481   -0.000048868    0.000021245
  23   H   :    0.000313370    0.000687896    0.000343152
  24   H   :    0.000231979    0.000308149   -0.000001474
  25   H   :    0.000044210    0.000075707    0.000167105
  26   H   :   -0.000074169    0.000069863    0.000211245
  27   H   :    0.000101470    0.000092517    0.000075360

Difference to translation invariance:
           :    0.0000000000   -0.0000000000   -0.0000000000

Difference to rotation invariance:
           :    0.0003428701    0.0000956165    0.0000046107

Norm of the Cartesian gradient     ...    0.0108660815
RMS gradient                       ...    0.0012073424
MAX gradient                       ...    0.0040428572
------------------------------------------------------------------------------
                         ORCA GEOMETRY RELAXATION STEP
------------------------------------------------------------------------------

Reading the OPT-File                    .... done
Getting information on internals        .... done
Copying old internal coords+grads       .... done
Making the new internal coordinates     .... (2022 redundants) done
Validating the new internal coordinates .... (2022 redundants) done
Calculating the B-matrix                .... done
Calculating the G,G- and P matrices     .... done
Transforming gradient to internals      .... done
Projecting the internal gradient        .... done
Number of atoms                         ....  27
Number of internal coordinates          .... 138
Current Energy                          ....   -43.672972416 Eh
Current gradient norm                   ....     0.010866081 Eh/bohr
Maximum allowed component of the step   ....  0.300
Current trust radius                    ....  0.467
Updating the Hessian (BFGS)             .... done
Forming the augmented Hessian           .... done
Diagonalizing the augmented Hessian     .... done
Last element of RFO vector              ....  0.759118529
Lowest eigenvalues of augmented Hessian:
 -0.001757254  0.002067270  0.015804706  0.016624252  0.018705846
Length of the computed step             ....  0.857510916
Warning: the length of the step is outside the trust region - taking restricted step instead
The input lambda is                     ....    -0.000551
   iter:   5  x=   -0.003533  g=  154.067738 f(x)=     0.059845
The output lambda is                    ....    -0.003610 (9 iterations)
The final length of the internal step   ....  0.466666667
Converting the step to Cartesian space:
 Initial RMS(Int)=    0.0397253048
Transforming coordinates:
 Iter   0:  RMS(Cart)=    0.0669315801 RMS(Int)=    0.5361570571
 Iter   5:  RMS(Cart)=    0.0000016244 RMS(Int)=    0.0000011473
done
Storing new coordinates                 .... done
The predicted energy change is          ....    -0.000901123
Previously predicted energy change      ....    -0.000581552
Actually observed energy change         ....    -0.000849122
Ratio of predicted to observed change   ....     1.460095082
New trust radius                        ....     0.466666667

                                .--------------------.
          ----------------------|Geometry convergence|-------------------------
          Item                value                   Tolerance       Converged
          ---------------------------------------------------------------------
          Energy change      -0.0008491216            0.0000050000      NO
          RMS gradient        0.0007967156            0.0001000000      NO
          MAX gradient        0.0033657391            0.0003000000      NO
          RMS step            0.0397253048            0.0020000000      NO
          MAX step            0.1755628012            0.0040000000      NO
          -------------------------------------------------------------------------
          ........................................................
          Max(Bonds)      0.0047      Max(Angles)    0.84
          Max(Dihed)       10.06      Max(Improp)    0.00
          ---------------------------------------------------------------------

The optimization has not yet converged - more geometry cycles are needed


    ---------------------------------------------------------------------------
                         Redundant Internal Coordinates
                            (Angstroem and degrees)

        Definition                    Value    dE/dq     Step     New-Value
    ----------------------------------------------------------------------------
     1. B(C   1,N   0)                1.4868 -0.001072 -0.0030    1.4838   
     2. B(C   2,C   1)                1.5229 -0.001303 -0.0047    1.5182   
     3. B(C   3,C   2)                1.4932 -0.000828 -0.0009    1.4923   
     4. B(C   4,C   3)                1.3684  0.001181  0.0013    1.3698   
     5. B(N   5,C   4)                1.3648 -0.000596 -0.0002    1.3645   
     6. B(C   6,N   5)                1.3611 -0.001207 -0.0002    1.3609   
     7. B(C   7,C   6)                1.3905  0.000238 -0.0003    1.3902   
     8. B(C   8,C   7)                1.3791  0.000828  0.0012    1.3803   
     9. B(C   9,C   8)                1.3968 -0.001764 -0.0013    1.3955   
    10. B(C  10,C   9)                1.3770  0.000544  0.0010    1.3780   
    11. B(C  11,C  10)                1.3961 -0.001587 -0.0023    1.3938   
    12. B(C  11,C   6)                1.4161 -0.001899 -0.0016    1.4144   
    13. B(C  11,C   3)                1.4300 -0.001222 -0.0013    1.4287   
    14. B(C  12,C   1)                1.5886 -0.000957 -0.0026    1.5860   
    15. B(O  13,C  12)                1.2415 -0.003036 -0.0005    1.2410   
    16. B(O  14,C  12)                1.2342 -0.003366 -0.0013    1.2329   
    17. B(H  15,N   0)                1.0312  0.000536 -0.0014    1.0298   
    18. B(H  16,N   0)                1.0251 -0.001135  0.0003    1.0255   
    19. B(H  17,N   0)                1.0254 -0.000312 -0.0004    1.0250   
    20. B(H  18,C   1)                1.0933 -0.000047  0.0013    1.0946   
    21. B(H  19,C   2)                1.0902 -0.000027 -0.0001    1.0902   
    22. B(H  20,C   2)                1.0909 -0.000268  0.0003    1.0912   
    23. B(H  21,C   4)                1.0724 -0.000056 -0.0002    1.0722   
    24. B(H  22,N   5)                1.0048 -0.000821 -0.0007    1.0040   
    25. B(H  23,C   7)                1.0786 -0.000380 -0.0003    1.0783   
    26. B(H  24,C   8)                1.0798  0.000036  0.0001    1.0799   
    27. B(H  25,C   9)                1.0802  0.000186 -0.0002    1.0799   
    28. B(H  26,C  10)                1.0799  0.000144  0.0003    1.0803   
    29. A(H  16,N   0,H  17)          108.53  0.000234   -0.02    108.51   
    30. A(H  15,N   0,H  17)          108.88  0.000329    0.01    108.90   
    31. A(H  15,N   0,H  16)          110.95 -0.000291    0.35    111.30   
    32. A(C   1,N   0,H  15)          109.17 -0.001533    0.08    109.25   
    33. A(C   1,N   0,H  16)          109.64  0.001345   -0.69    108.95   
    34. A(C   1,N   0,H  17)          109.64 -0.000077    0.20    109.84   
    35. A(C   2,C   1,C  12)          113.49 -0.000323    0.51    114.00   
    36. A(C   2,C   1,H  18)          110.49  0.001047    0.01    110.50   
    37. A(N   0,C   1,C   2)          110.40  0.000164    0.84    111.24   
    38. A(N   0,C   1,C  12)          107.52  0.000044   -0.66    106.86   
    39. A(N   0,C   1,H  18)          108.00 -0.000788   -0.40    107.60   
    40. A(C  12,C   1,H  18)          106.71 -0.000215   -0.42    106.29   
    41. A(C   1,C   2,C   3)          111.57  0.000268    0.31    111.88   
    42. A(H  19,C   2,H  20)          106.88 -0.000091   -0.21    106.67   
    43. A(C   3,C   2,H  20)          111.12  0.000435   -0.21    110.91   
    44. A(C   3,C   2,H  19)          110.47 -0.000156    0.06    110.53   
    45. A(C   1,C   2,H  20)          108.95 -0.000520    0.00    108.95   
    46. A(C   1,C   2,H  19)          107.66  0.000031    0.04    107.70   
    47. A(C   2,C   3,C   4)          127.21  0.001127    0.34    127.55   
    48. A(C   2,C   3,C  11)          126.59 -0.000570   -0.21    126.38   
    49. A(C   4,C   3,C  11)          106.17 -0.000559   -0.14    106.03   
    50. A(N   5,C   4,H  21)          121.01  0.000146   -0.18    120.83   
    51. A(C   3,C   4,H  21)          128.67  0.000407    0.21    128.88   
    52. A(C   3,C   4,N   5)          110.32 -0.000553   -0.03    110.29   
    53. A(C   6,N   5,H  22)          125.56 -0.000203   -0.02    125.54   
    54. A(C   4,N   5,H  22)          125.37 -0.000009   -0.05    125.31   
    55. A(C   4,N   5,C   6)          109.05  0.000214    0.07    109.11   
    56. A(C   7,C   6,C  11)          121.75  0.000109    0.11    121.86   
    57. A(N   5,C   6,C  11)          107.70  0.000214   -0.12    107.58   
    58. A(N   5,C   6,C   7)          130.55 -0.000324    0.01    130.56   
    59. A(C   6,C   7,C   8)          117.70  0.000014   -0.05    117.66   
    60. A(C   8,C   7,H  23)          121.17 -0.000017   -0.02    121.15   
    61. A(C   6,C   7,H  23)          121.12  0.000002    0.07    121.19   
    62. A(C   9,C   8,H  24)          119.12  0.000096    0.03    119.15   
    63. A(C   7,C   8,H  24)          119.66  0.000386   -0.03    119.63   
    64. A(C   7,C   8,C   9)          121.23 -0.000482    0.00    121.23   
    65. A(C  10,C   9,H  25)          119.75  0.000170   -0.01    119.73   
    66. A(C   8,C   9,H  25)          118.92  0.000023    0.18    119.10   
    67. A(C   8,C   9,C  10)          121.33 -0.000193   -0.16    121.17   
    68. A(C   9,C  10,C  11)          118.84  0.000651    0.23    119.07   
    69. A(C  11,C  10,H  26)          120.85 -0.000306    0.03    120.88   
    70. A(C   9,C  10,H  26)          120.29 -0.000343   -0.25    120.04   
    71. A(C   3,C  11,C   6)          106.76  0.000684    0.22    106.98   
    72. A(C   6,C  11,C  10)          119.13 -0.000102   -0.13    119.00   
    73. A(C   3,C  11,C  10)          134.09 -0.000585   -0.09    133.99   
    74. A(O  13,C  12,O  14)          128.84 -0.000325   -0.22    128.62   
    75. A(C   1,C  12,O  14)          117.27 -0.001904    0.14    117.41   
    76. A(C   1,C  12,O  13)          113.77  0.001947   -0.07    113.70   
    77. D(C   2,C   1,N   0,H  16)    169.99 -0.000970    6.32    176.31   
    78. D(C  12,C   1,N   0,H  16)    -65.72 -0.001237    7.08    -58.64   
    79. D(C   2,C   1,N   0,H  17)    -70.95  0.000085    6.04    -64.92   
    80. D(C  12,C   1,N   0,H  17)     53.34 -0.000182    6.80     60.14   
    81. D(C  12,C   1,N   0,H  15)    172.54 -0.000752    7.07    179.62   
    82. D(C   2,C   1,N   0,H  15)     48.25 -0.000485    6.31     54.56   
    83. D(H  19,C   2,C   1,H  18)    -63.31  0.000011   -0.26    -63.57   
    84. D(C   3,C   2,C   1,H  18)     58.07  0.000003    0.02     58.09   
    85. D(H  19,C   2,C   1,C  12)     56.50  0.000264   -0.43     56.07   
    86. D(C   3,C   2,C   1,C  12)    177.87  0.000256   -0.14    177.73   
    87. D(C   3,C   2,C   1,N   0)    -61.34  0.000210   -0.01    -61.35   
    88. D(H  19,C   2,C   1,N   0)    177.28  0.000218   -0.29    176.99   
    89. D(C   4,C   3,C   2,H  20)    150.19  0.000150    0.60    150.79   
    90. D(C   4,C   3,C   2,H  19)     31.73  0.000088    0.96     32.69   
    91. D(C   4,C   3,C   2,C   1)    -88.00 -0.000023    0.67    -87.33   
    92. D(C  11,C   3,C   2,H  19)   -150.71 -0.000002    0.89   -149.82   
    93. D(C  11,C   3,C   2,C   1)     89.56 -0.000113    0.60     90.16   
    94. D(H  21,C   4,C   3,C  11)    179.24  0.000048    0.05    179.29   
    95. D(H  21,C   4,C   3,C   2)     -2.81 -0.000036   -0.02     -2.83   
    96. D(N   5,C   4,C   3,C  11)     -0.07  0.000125    0.12      0.05   
    97. D(N   5,C   4,C   3,C   2)    177.89  0.000040    0.05    177.93   
    98. D(H  22,N   5,C   4,H  21)     -0.62  0.000039   -0.48     -1.10   
    99. D(H  22,N   5,C   4,C   3)    178.75 -0.000028   -0.54    178.21   
   100. D(C   6,N   5,C   4,H  21)   -179.08 -0.000029    0.09   -178.99   
   101. D(C   6,N   5,C   4,C   3)      0.29 -0.000096    0.03      0.32   
   102. D(C  11,C   6,N   5,H  22)   -178.84 -0.000050    0.40   -178.44   
   103. D(C  11,C   6,N   5,C   4)     -0.39  0.000022   -0.17     -0.56   
   104. D(C   7,C   6,N   5,C   4)    179.59  0.000029   -0.02    179.57   
   105. D(C   7,C   6,N   5,H  22)      1.14 -0.000043    0.55      1.69   
   106. D(C   8,C   7,C   6,C  11)      0.49 -0.000004    0.05      0.55   
   107. D(C   8,C   7,C   6,N   5)   -179.48 -0.000011   -0.12   -179.59   
   108. D(H  23,C   7,C   6,C  11)    179.96  0.000003   -0.02    179.94   
   109. D(H  23,C   7,C   6,N   5)     -0.01 -0.000005   -0.20     -0.21   
   110. D(H  24,C   8,C   7,H  23)      0.48  0.000072    0.13      0.61   
   111. D(H  24,C   8,C   7,C   6)    179.95  0.000079    0.05    180.00   
   112. D(C   9,C   8,C   7,H  23)   -179.00  0.000038   -0.05   -179.05   
   113. D(C   9,C   8,C   7,C   6)      0.47  0.000045   -0.13      0.34   
   114. D(H  25,C   9,C   8,H  24)     -0.31  0.000017    0.04     -0.27   
   115. D(H  25,C   9,C   8,C   7)    179.17  0.000053    0.22    179.39   
   116. D(C  10,C   9,C   8,H  24)    179.79 -0.000072   -0.07    179.72   
   117. D(C  10,C   9,C   8,C   7)     -0.72 -0.000037    0.11     -0.62   
   118. D(H  26,C  10,C   9,H  25)     -1.55 -0.000041    0.39     -1.16   
   119. D(H  26,C  10,C   9,C   8)    178.35  0.000049    0.50    178.85   
   120. D(C  11,C  10,C   9,H  25)   -179.91 -0.000094   -0.11   -180.02   
   121. D(C  11,C  10,C   9,C   8)     -0.01 -0.000004   -0.01     -0.02   
   122. D(C   6,C  11,C  10,H  26)   -177.40 -0.000004   -0.57   -177.98   
   123. D(C   6,C  11,C  10,C   9)      0.94  0.000049   -0.06      0.88   
   124. D(C   3,C  11,C  10,C   9)    178.85 -0.000038   -0.13    178.72   
   125. D(C  10,C  11,C   6,C   7)     -1.21 -0.000038    0.04     -1.17   
   126. D(C  10,C  11,C   6,N   5)    178.77 -0.000032    0.18    178.95   
   127. D(C   3,C  11,C   6,C   7)   -179.64  0.000048    0.10   -179.54   
   128. D(C   3,C  11,C   6,N   5)      0.34  0.000054    0.23      0.57   
   129. D(C  10,C  11,C   3,C   4)   -178.25 -0.000019   -0.15   -178.40   
   130. D(C   3,C  11,C  10,H  26)      0.50 -0.000091   -0.64     -0.14   
   131. D(C  10,C  11,C   3,C   2)      3.77  0.000019   -0.11      3.67   
   132. D(C   6,C  11,C   3,C   4)     -0.16 -0.000107   -0.21     -0.38   
   133. D(C   6,C  11,C   3,C   2)   -178.14 -0.000068   -0.18   -178.31   
   134. D(O  14,C  12,C   1,C   2)      1.43  0.003178   -8.91     -7.48   
   135. D(O  14,C  12,C   1,N   0)   -120.97  0.003147   -9.85   -130.82   
   136. D(O  13,C  12,C   1,H  18)    -60.27 -0.000101   -9.06    -69.33   
   137. D(O  13,C  12,C   1,C   2)    177.79 -0.001066   -9.11    168.68   
   138. D(O  13,C  12,C   1,N   0)     55.39 -0.001096  -10.06     45.33   
    ----------------------------------------------------------------------------

Geometry step timings:
Preparation and reading OPT file:      0.000 s ( 0.387 %)
Internal coordinates            :      0.000 s ( 0.422 %)
B/P matrices and projection     :      0.001 s (31.494 %)
Hessian update/contruction      :      0.000 s ( 6.221 %)
Making the step                 :      0.001 s (47.768 %)
Converting the step to Cartesian:      0.000 s ( 4.253 %)
Storing new data                :      0.000 s ( 0.738 %)
Checking convergence            :      0.000 s ( 0.773 %)
Final printing                  :      0.000 s ( 7.944 %)
Total time                      :      0.003 s

Time for energy+gradient        :      0.029 s
Time for complete geometry iter :      0.032 s

         *************************************************************
         *                GEOMETRY OPTIMIZATION CYCLE   9            *
         *************************************************************
---------------------------------
CARTESIAN COORDINATES (ANGSTROEM)
---------------------------------
  N     1.804055    0.270815    1.392454
  C     2.384868   -0.042245    0.063436
  C     1.448787    0.372458   -1.057583
  C     0.145722   -0.351687   -0.990540
  C    -0.162818   -1.567708   -1.540457
  N    -1.443022   -1.918815   -1.224627
  C    -2.000738   -0.935410   -0.467031
  C    -3.272487   -0.830683    0.084689
  C    -3.563639    0.305519    0.812362
  C    -2.618029    1.317534    0.982906
  C    -1.355405    1.212556    0.441117
  C    -1.024225    0.072179   -0.288559
  C     3.808044    0.655442    0.007488
  O     4.485990    0.490874    1.033796
  O     4.068775    1.335880   -0.986990
  H     0.871926   -0.160799    1.466067
  H     2.434635   -0.078087    2.122010
  H     1.710123    1.285689    1.501171
  H     2.570064   -1.120534    0.029069
  H     1.952051    0.167270   -2.002597
  H     1.297236    1.452074   -1.011671
  H     0.447355   -2.205124   -2.149642
  H    -1.908507   -2.753651   -1.532013
  H    -4.009100   -1.604971   -0.059047
  H    -4.541961    0.419826    1.254982
  H    -2.885899    2.196333    1.550518
  H    -0.643802    2.015266    0.568691

----------------------------
CARTESIAN COORDINATES (A.U.)
----------------------------
  NO LB    ZA    FRAG    MASS        X           Y           Z
   0 N   7.0000    0    14.007    3.409171    0.511767    2.631357
   1 C   6.0000    0    12.011    4.506747   -0.079832    0.119877
   2 C   6.0000    0    12.011    2.737810    0.703844   -1.998541
   3 C   6.0000    0    12.011    0.275375   -0.664593   -1.871849
   4 C   6.0000    0    12.011   -0.307681   -2.962539   -2.911041
   5 N   7.0000    0    14.007   -2.726917   -3.626034   -2.314210
   6 C   6.0000    0    12.011   -3.780846   -1.767669   -0.882560
   7 C   6.0000    0    12.011   -6.184105   -1.569764    0.160038
   8 C   6.0000    0    12.011   -6.734302    0.577348    1.535143
   9 C   6.0000    0    12.011   -4.947357    2.489778    1.857424
  10 C   6.0000    0    12.011   -2.561345    2.291398    0.833591
  11 C   6.0000    0    12.011   -1.935505    0.136398   -0.545298
  12 C   6.0000    0    12.011    7.196160    1.238606    0.014150
  13 O   8.0000    0    15.999    8.477293    0.927617    1.953591
  14 O   8.0000    0    15.999    7.688870    2.524447   -1.865142
  15 H   1.0000    0     1.008    1.647702   -0.303867    2.770465
  16 H   1.0000    0     1.008    4.600794   -0.147563    4.010018
  17 H   1.0000    0     1.008    3.231664    2.429599    2.836802
  18 H   1.0000    0     1.008    4.856718   -2.117503    0.054933
  19 H   1.0000    0     1.008    3.688842    0.316095   -3.784360
  20 H   1.0000    0     1.008    2.451420    2.744022   -1.911782
  21 H   1.0000    0     1.008    0.845378   -4.167080   -4.062235
  22 H   1.0000    0     1.008   -3.606556   -5.203647   -2.895086
  23 H   1.0000    0     1.008   -7.576101   -3.032956   -0.111582
  24 H   1.0000    0     1.008   -8.583061    0.793356    2.371572
  25 H   1.0000    0     1.008   -5.453558    4.150468    2.930054
  26 H   1.0000    0     1.008   -1.216609    3.808301    1.074671

      -----------------------------------------------------------      
     |                   =====================                   |     
     |                           x T B                           |     
     |                   =====================                   |     
     |                         S. Grimme                         |     
     |          Mulliken Center for Theoretical Chemistry        |     
     |                    University of Bonn                     |     
      -----------------------------------------------------------      

   * xtb version 6.7.1 (edcfbbe) compiled by 'albert@albert-system' on 2024-07-22

   xtb is free software: you can redistribute it and/or modify it under
   the terms of the GNU Lesser General Public License as published by
   the Free Software Foundation, either version 3 of the License, or
   (at your option) any later version.
   
   xtb is distributed in the hope that it will be useful,
   but WITHOUT ANY WARRANTY; without even the implied warranty of
   MERCHANTABILITY or FITNESS FOR A PARTICULAR PURPOSE.  See the
   GNU Lesser General Public License for more details.
   
   Cite this work as:
   * C. Bannwarth, E. Caldeweyher, S. Ehlert, A. Hansen, P. Pracht,
     J. Seibert, S. Spicher, S. Grimme, WIREs Comput. Mol. Sci., 2020, 11,
     e01493. DOI: 10.1002/wcms.1493
   
   for GFN2-xTB:
   * C. Bannwarth, S. Ehlert and S. Grimme., J. Chem. Theory Comput., 2019,
     15, 1652-1671. DOI: 10.1021/acs.jctc.8b01176
   for GFN1-xTB:
   * S. Grimme, C. Bannwarth, P. Shushkov, J. Chem. Theory Comput., 2017,
     13, 1989-2009. DOI: 10.1021/acs.jctc.7b00118
   for GFN0-xTB:
   * P. Pracht, E. Caldeweyher, S. Ehlert, S. Grimme, ChemRxiv, 2019, preprint.
     DOI: 10.26434/chemrxiv.8326202.v1
   for GFN-FF:
   * S. Spicher and S. Grimme, Angew. Chem. Int. Ed., 2020, 59, 15665-15673.
     DOI: 10.1002/anie.202004239
   
   for ALPB and GBSA implicit solvation:
   * S. Ehlert, M. Stahn, S. Spicher, S. Grimme, J. Chem. Theory Comput.,
     2021, 17, 4250-4261. DOI: 10.1021/acs.jctc.1c00471
   
   for ddCOSMO and CPCM-X implicit solvation:
   * M. Stahn, S. Ehlert, S. Grimme, J. Phys. Chem. A,
     2023, XX, XXXX-XXXX. DOI: 10.1021/acs.jpca.3c04382
   
   for DFT-D4:
   * E. Caldeweyher, C. Bannwarth and S. Grimme, J. Chem. Phys., 2017,
     147, 034112. DOI: 10.1063/1.4993215
   * E. Caldeweyher, S. Ehlert, A. Hansen, H. Neugebauer, S. Spicher,
     C. Bannwarth and S. Grimme, J. Chem. Phys., 2019, 150, 154122.
     DOI: 10.1063/1.5090222
   * E. Caldeweyher, J.-M. Mewes, S. Ehlert and S. Grimme, Phys. Chem. Chem. Phys.
     2020, 22, 8499-8512. DOI: 10.1039/D0CP00502A
   
   for sTDA-xTB:
   * S. Grimme and C. Bannwarth, J. Chem. Phys., 2016, 145, 054103.
     DOI: 10.1063/1.4959605
   
   in the mass-spec context:
   * V. Asgeirsson, C. Bauer and S. Grimme, Chem. Sci., 2017, 8, 4879.
     DOI: 10.1039/c7sc00601b
   * J. Koopman and S. Grimme, ACS Omega 2019, 4, 12, 15120-15133.
     DOI: 10.1021/acsomega.9b02011
   
   for metadynamics refer to:
   * S. Grimme, J. Chem. Theory Comput., 2019, 155, 2847-2862
     DOI: 10.1021/acs.jctc.9b00143
   
   for SPH calculations refer to:
   * S. Spicher and S. Grimme, J. Chem. Theory Comput., 2021, 17, 1701-1714
     DOI: 10.1021/acs.jctc.0c01306
   
   for ONIOM refer to:
   * C. Plett, A. Katbashev, S. Ehlert, S. Grimme, M. Bursch,
     Phys. Chem. Chem. Phys., 2023, 25, 17860-17868. DOI: 10.1039/D3CP02178E
   
   for DIPRO refer to:
   * J. Kohn, N. Gildemeister, S. Grimme, D. Fazzi, A. Hansen,
     J. Chem. Phys., 2023, just accepted.
   
   for PTB refer to:
   * S. Grimme, M. Mueller, A. Hansen, J. Chem. Phys., 2023, 158, 124111.
     DOI: 10.1063/5.0137838
   
   with help from (in alphabetical order)
   P. Atkinson, C. Bannwarth, F. Bohle, G. Brandenburg, E. Caldeweyher
   M. Checinski, S. Dohm, S. Ehlert, S. Ehrlich, I. Gerasimov, C. Hölzer
   A. Katbashev, J. Kohn, J. Koopman, C. Lavigne, S. Lehtola, F. März, M. Müller,
   F. Musil, H. Neugebauer, J. Pisarek, C. Plett, P. Pracht, F. Pultar,
   J. Seibert, P. Shushkov, S. Spicher, M. Stahn, M. Steiner, T. Strunk,
   J. Stückrath, T. Rose, and J. Unsleber
   
 * started run on 2026/04/09 at 18:40:48.568     
   ID    Z sym.   atoms
    1    7 N      1, 6
    2    6 C      2-5, 7-13
    3    8 O      14, 15
    4    1 H      16-27

           -------------------------------------------------
          |                Calculation Setup                |
           -------------------------------------------------

          program call               : /home/analima/Programs/orca-6.1.0-f.0_linux_x86-64/bin/otool_xtb geo_opt_XTB.xyz --grad -c 0 -u 0 -P 1 --namespace geo_opt --input geo_opt_XTB.input.tmp --alpb WATER --acc 0.200000
          calculation namespace      : geo_opt
          coordinate file            : geo_opt_XTB.xyz
          omp threads                :                     1


           -------------------------------------------------
          |                 G F N 2 - x T B                 |
           -------------------------------------------------

        Reference                      10.1021/acs.jctc.8b01176
      * Hamiltonian:
        H0-scaling (s, p, d)           1.850000    2.230000    2.230000
        zeta-weighting                 0.500000
      * Dispersion:
        s8                             2.700000
        a1                             0.520000
        a2                             5.000000
        s9                             5.000000
      * Repulsion:
        kExp                           1.500000    1.000000
        rExp                           1.000000
      * Coulomb:
        alpha                          2.000000
        third order                    shell-resolved
        anisotropic                    true
        a3                             3.000000
        a5                             4.000000
        cn-shift                       1.200000
        cn-exp                         4.000000
        max-rad                        5.000000

      * Solvation model:               ALPB
        Solvent                        WATER
        Parameter file                 internal GFN2-xTB/ALPB
        Dielectric constant                8.0200E+01
        Reference state                gsolv [1 M gas/solution]
        Free energy shift                  1.0808E-03 Eh       6.7819E-01 kcal/mol
        Temperature                        2.9815E+02 K
        Density                            1.0000E+00 kg/L
        Solvent mass                       1.8000E+01 g/mol
        Interaction kernel             P16
        Born radius scaling (c1)           1.4744E+00
        Born radii integrator          GBOBC
        Born offset                        0.0000E+00 a0       0.0000E+00 AA
        H-bond correction              true
        Ion screening                  false
        Surface tension                    1.0000E-05 Eh       1.5569E+01 dyn/cm
        Grid points                               230 per atom
q/qsh data taken from xtbrestart
CAMM data taken from xtbrestart

          ...................................................
          :                      SETUP                      :
          :.................................................:
          :  # basis functions                  72          :
          :  # atomic orbitals                  72          :
          :  # shells                           42          :
          :  # electrons                        78          :
          :  max. iterations                   250          :
          :  Hamiltonian                  GFN2-xTB          :
          :  restarted?                       true          :
          :  GBSA solvation                   true          :
          :  PC potential                    false          :
          :  electronic temp.          300.0000000     K    :
          :  accuracy                    0.2000000          :
          :  -> integral cutoff          0.3198970E+02      :
          :  -> integral neglect         0.2000000E-08      :
          :  -> SCF convergence          0.2000000E-06 Eh   :
          :  -> wf. convergence          0.2000000E-04 e    :
          :  Broyden damping             0.4000000          :
          :  net charge                          0          :
          :  unpaired electrons                  0          :
          ...................................................

 iter      E             dE          RMSdq      gap      omega  full diag
   1    -44.3011719 -0.443012E+02  0.278E-01    3.50       0.0  T
   2    -44.3011868 -0.149112E-04  0.162E-01    3.50       1.0  T
   3    -44.3011762  0.106353E-04  0.277E-02    3.50       1.0  T
   4    -44.3011949 -0.187529E-04  0.772E-03    3.50       2.5  T
   5    -44.3011951 -0.178123E-06  0.453E-03    3.50       4.3  T
   6    -44.3011952 -0.685988E-07  0.107E-03    3.50      18.0  T
   7    -44.3011952 -0.137238E-07  0.298E-04    3.50      64.5  T
   8    -44.3011952 -0.615948E-09  0.142E-04    3.50     135.3  T
   9    -44.3011952 -0.556284E-10  0.632E-05    3.50     304.4  T

   *** convergence criteria satisfied after 9 iterations ***

         #    Occupation            Energy/Eh            Energy/eV
      -------------------------------------------------------------
         1        2.0000           -0.6920872             -18.8327
       ...           ...                  ...                  ...
        33        2.0000           -0.4179084             -11.3719
        34        2.0000           -0.4164543             -11.3323
        35        2.0000           -0.4078415             -11.0979
        36        2.0000           -0.3926180             -10.6837
        37        2.0000           -0.3834613             -10.4345
        38        2.0000           -0.3747796             -10.1983
        39        2.0000           -0.3613898              -9.8339 (HOMO)
        40                         -0.2326728              -6.3314 (LUMO)
        41                         -0.1981682              -5.3924
        42                         -0.1831510              -4.9838
        43                         -0.1600433              -4.3550
        44                         -0.0731960              -1.9918
       ...                                ...                  ...
        72                          0.7186520              19.5555
      -------------------------------------------------------------
                  HL-Gap            0.1287169 Eh            3.5026 eV
             Fermi-level           -0.2970313 Eh           -8.0826 eV

 SCC (total)                   0 d,  0 h,  0 min,  0.015 sec
 SCC setup                      ...        0 min,  0.000 sec (  2.208%)
 Dispersion                     ...        0 min,  0.000 sec (  0.650%)
 classical contributions        ...        0 min,  0.000 sec (  0.119%)
 integral evaluation            ...        0 min,  0.002 sec ( 10.201%)
 iterations                     ...        0 min,  0.008 sec ( 54.627%)
 molecular gradient             ...        0 min,  0.005 sec ( 31.658%)
 printout                       ...        0 min,  0.000 sec (  0.473%)

         :::::::::::::::::::::::::::::::::::::::::::::::::::::
         ::                     SUMMARY                     ::
         :::::::::::::::::::::::::::::::::::::::::::::::::::::
         :: total energy             -43.674024180843 Eh    ::
         :: total w/o Gsasa/hb       -43.665861178325 Eh    ::
         :: gradient norm              0.018103094018 Eh/a0 ::
         :: HOMO-LUMO gap              3.502565981503 eV    ::
         ::.................................................::
         :: SCC energy               -44.301033493586 Eh    ::
         :: -> isotropic ES            0.185484947116 Eh    ::
         :: -> anisotropic ES         -0.005909820564 Eh    ::
         :: -> anisotropic XC          0.016295277128 Eh    ::
         :: -> dispersion             -0.026256829640 Eh    ::
         :: -> Gsolv                  -0.074276498744 Eh    ::
         ::    -> Gelec               -0.066113496226 Eh    ::
         ::    -> Gsasa                0.001783179165 Eh    ::
         ::    -> Ghb                 -0.011026941381 Eh    ::
         ::    -> Gshift               0.001080759698 Eh    ::
         :: repulsion energy           0.627009312743 Eh    ::
         :: add. restraining           0.000000000000 Eh    ::
         :: total charge               0.000000000000 e     ::
         :::::::::::::::::::::::::::::::::::::::::::::::::::::


Property printout bound to 'properties.out'

           -------------------------------------------------
          | TOTAL ENERGY              -43.674024180843 Eh   |
          | GRADIENT NORM               0.018103094018 Eh/α |
          | HOMO-LUMO GAP               3.502565981503 eV   |
           -------------------------------------------------

------------------------------------------------------------------------
 * finished run on 2026/04/09 at 18:40:48.588     
------------------------------------------------------------------------
 total:
 * wall-time:     0 d,  0 h,  0 min,  0.020 sec
 *  cpu-time:     0 d,  0 h,  0 min,  0.019 sec
 * ratio c/w:     0.920 speedup
 SCF:
 * wall-time:     0 d,  0 h,  0 min,  0.015 sec
 *  cpu-time:     0 d,  0 h,  0 min,  0.014 sec
 * ratio c/w:     0.901 speedup


-------------------------   --------------------
FINAL SINGLE POINT ENERGY       -43.674024180840
-------------------------   --------------------


-------------
DIPOLE MOMENT
-------------
                                X             Y             Z
Total Dipole Moment    :     -5.03500      -2.34200       1.71500
                        -----------------------------------------
Magnitude (a.u.)       :      5.81183
Magnitude (Debye)      :     14.77251


------------------
CARTESIAN GRADIENT
------------------

   1   N   :    0.006211670    0.001683631    0.000953895
   2   C   :   -0.004195974    0.005009133   -0.002201818
   3   C   :    0.000322327   -0.002361861    0.002079613
   4   C   :    0.001036344    0.003998856    0.000364942
   5   C   :   -0.001284507   -0.002697764   -0.000329021
   6   N   :   -0.000319563    0.000828970    0.000407746
   7   C   :    0.002388595    0.001685708   -0.000079607
   8   C   :    0.000069501   -0.001944033   -0.000926438
   9   C   :    0.001127548    0.002918907    0.000993259
  10   C   :   -0.002747746   -0.000592980    0.000269438
  11   C   :    0.000690869   -0.003812953   -0.002986006
  12   C   :   -0.000239775   -0.002026612    0.000026546
  13   C   :    0.004023798   -0.005567142   -0.000885234
  14   O   :   -0.001914247    0.002964293   -0.004185458
  15   O   :   -0.002965773    0.000162179    0.005994999
  16   H   :   -0.000576874   -0.000589524   -0.001426350
  17   H   :   -0.002884867   -0.000588998   -0.000715241
  18   H   :   -0.000034040   -0.000563667   -0.000164731
  19   H   :    0.000438459   -0.000082087    0.001256300
  20   H   :   -0.000535239    0.000108568    0.000020267
  21   H   :    0.000692452   -0.000320762    0.000155777
  22   H   :   -0.000427325   -0.000180453    0.000080594
  23   H   :    0.000553127    0.001278046    0.000482167
  24   H   :    0.000286629    0.000459888    0.000001292
  25   H   :    0.000076806    0.000088482    0.000238922
  26   H   :    0.000056133    0.000033697    0.000188891
  27   H   :    0.000151671    0.000108476    0.000385257

Difference to translation invariance:
           :   -0.0000000000   -0.0000000000   -0.0000000000

Difference to rotation invariance:
           :   -0.0000866774   -0.0002178628   -0.0001525177

Norm of the Cartesian gradient     ...    0.0181030940
RMS gradient                       ...    0.0020114549
MAX gradient                       ...    0.0062116699
------------------------------------------------------------------------------
                         ORCA GEOMETRY RELAXATION STEP
------------------------------------------------------------------------------

Reading the OPT-File                    .... done
Getting information on internals        .... done
Copying old internal coords+grads       .... done
Making the new internal coordinates     .... (2022 redundants) done
Validating the new internal coordinates .... (2022 redundants) done
Calculating the B-matrix                .... done
Calculating the G,G- and P matrices     .... done
Transforming gradient to internals      .... done
Projecting the internal gradient        .... done
Number of atoms                         ....  27
Number of internal coordinates          .... 138
Current Energy                          ....   -43.674024181 Eh
Current gradient norm                   ....     0.018103094 Eh/bohr
Maximum allowed component of the step   ....  0.300
Current trust radius                    ....  0.467
Updating the Hessian (BFGS)             .... done
Forming the augmented Hessian           .... done
Diagonalizing the augmented Hessian     .... done
Last element of RFO vector              ....  0.771650578
Lowest eigenvalues of augmented Hessian:
 -0.001785641  0.001962970  0.015804791  0.016624583  0.018705299
Length of the computed step             ....  0.824267748
Warning: the length of the step is outside the trust region - taking restricted step instead
The input lambda is                     ....    -0.000551
   iter:   5  x=   -0.003440  g=  153.095084 f(x)=     0.053881
The output lambda is                    ....    -0.003503 (9 iterations)
The final length of the internal step   ....  0.466666667
Converting the step to Cartesian space:
 Initial RMS(Int)=    0.0397253048
Transforming coordinates:
 Iter   0:  RMS(Cart)=    0.0667556389 RMS(Int)=    0.9157825129
 Iter   5:  RMS(Cart)=    0.0000017540 RMS(Int)=    0.0000012332
done
Storing new coordinates                 .... done
The predicted energy change is          ....    -0.000944043
Previously predicted energy change      ....    -0.000901123
Actually observed energy change         ....    -0.001051765
Ratio of predicted to observed change   ....     1.167171625
New trust radius                        ....     0.700000000

                                .--------------------.
          ----------------------|Geometry convergence|-------------------------
          Item                value                   Tolerance       Converged
          ---------------------------------------------------------------------
          Energy change      -0.0010517650            0.0000050000      NO
          RMS gradient        0.0012645670            0.0001000000      NO
          MAX gradient        0.0053710727            0.0003000000      NO
          RMS step            0.0397253048            0.0020000000      NO
          MAX step            0.1734536321            0.0040000000      NO
          -------------------------------------------------------------------------
          ........................................................
          Max(Bonds)      0.0034      Max(Angles)    0.75
          Max(Dihed)        9.94      Max(Improp)    0.00
          ---------------------------------------------------------------------

The optimization has not yet converged - more geometry cycles are needed


    ---------------------------------------------------------------------------
                         Redundant Internal Coordinates
                            (Angstroem and degrees)

        Definition                    Value    dE/dq     Step     New-Value
    ----------------------------------------------------------------------------
     1. B(C   1,N   0)                1.4838 -0.002292 -0.0020    1.4818   
     2. B(C   2,C   1)                1.5182 -0.002857 -0.0034    1.5148   
     3. B(C   3,C   2)                1.4923 -0.001344 -0.0006    1.4917   
     4. B(C   4,C   3)                1.3698  0.002198  0.0006    1.3704   
     5. B(N   5,C   4)                1.3645 -0.000961 -0.0000    1.3645   
     6. B(C   6,N   5)                1.3609 -0.001724 -0.0001    1.3609   
     7. B(C   7,C   6)                1.3902  0.000281 -0.0002    1.3900   
     8. B(C   8,C   7)                1.3803  0.001545  0.0009    1.3812   
     9. B(C   9,C   8)                1.3955 -0.002700 -0.0010    1.3945   
    10. B(C  10,C   9)                1.3780  0.001132  0.0007    1.3787   
    11. B(C  11,C  10)                1.3938 -0.002907 -0.0017    1.3921   
    12. B(C  11,C   6)                1.4144 -0.003016 -0.0011    1.4133   
    13. B(C  11,C   3)                1.4287 -0.002037 -0.0008    1.4279   
    14. B(C  12,C   1)                1.5860 -0.001873 -0.0016    1.5844   
    15. B(O  13,C  12)                1.2410 -0.004902 -0.0001    1.2408   
    16. B(O  14,C  12)                1.2329 -0.005371 -0.0012    1.2316   
    17. B(H  15,N   0)                1.0298  0.000667 -0.0013    1.0285   
    18. B(H  16,N   0)                1.0255 -0.002083  0.0011    1.0266   
    19. B(H  17,N   0)                1.0250 -0.000573 -0.0003    1.0247   
    20. B(H  18,C   1)                1.0946  0.000115  0.0009    1.0955   
    21. B(H  19,C   2)                1.0902 -0.000285  0.0002    1.0904   
    22. B(H  20,C   2)                1.0912 -0.000406  0.0003    1.0914   
    23. B(H  21,C   4)                1.0722 -0.000182 -0.0000    1.0722   
    24. B(H  22,N   5)                1.0040 -0.001467 -0.0003    1.0037   
    25. B(H  23,C   7)                1.0783 -0.000526 -0.0003    1.0781   
    26. B(H  24,C   8)                1.0799  0.000038  0.0001    1.0799   
    27. B(H  25,C   9)                1.0799  0.000113 -0.0001    1.0799   
    28. B(H  26,C  10)                1.0803  0.000225  0.0003    1.0805   
    29. A(H  16,N   0,H  17)          108.53  0.000259   -0.03    108.49   
    30. A(H  15,N   0,H  17)          108.93  0.000552   -0.02    108.91   
    31. A(H  15,N   0,H  16)          111.29 -0.000353    0.39    111.69   
    32. A(C   1,N   0,H  15)          109.26 -0.002783    0.17    109.43   
    33. A(C   1,N   0,H  16)          108.95  0.002076   -0.75    108.20   
    34. A(C   1,N   0,H  17)          109.86  0.000277    0.13    109.99   
    35. A(C   2,C   1,C  12)          114.02  0.000191    0.35    114.37   
    36. A(C   2,C   1,H  18)          110.50  0.001460    0.03    110.53   
    37. A(N   0,C   1,C   2)          111.25  0.000996    0.66    111.91   
    38. A(N   0,C   1,C  12)          106.86 -0.001050   -0.52    106.34   
    39. A(N   0,C   1,H  18)          107.59 -0.001349   -0.28    107.31   
    40. A(C  12,C   1,H  18)          106.29 -0.000477   -0.34    105.94   
    41. A(C   1,C   2,C   3)          111.88  0.000672    0.24    112.13   
    42. A(H  19,C   2,H  20)          106.67 -0.000373   -0.11    106.56   
    43. A(C   3,C   2,H  20)          110.91  0.000653   -0.21    110.70   
    44. A(C   3,C   2,H  19)          110.53 -0.000340    0.06    110.59   
    45. A(C   1,C   2,H  20)          108.96 -0.000818    0.03    108.99   
    46. A(C   1,C   2,H  19)          107.70  0.000133   -0.03    107.67   
    47. A(C   2,C   3,C   4)          127.55  0.002016    0.31    127.86   
    48. A(C   2,C   3,C  11)          126.38 -0.000818   -0.24    126.14   
    49. A(C   4,C   3,C  11)          106.03 -0.001202   -0.08    105.96   
    50. A(N   5,C   4,H  21)          120.83 -0.000027   -0.15    120.67   
    51. A(C   3,C   4,H  21)          128.88  0.000851    0.17    129.05   
    52. A(C   3,C   4,N   5)          110.29 -0.000825   -0.02    110.27   
    53. A(C   6,N   5,H  22)          125.54 -0.000371   -0.01    125.53   
    54. A(C   4,N   5,H  22)          125.31 -0.000114   -0.04    125.27   
    55. A(C   4,N   5,C   6)          109.11  0.000487    0.04    109.15   
    56. A(C   7,C   6,C  11)          121.86  0.000439    0.07    121.93   
    57. A(N   5,C   6,C  11)          107.58 -0.000008   -0.07    107.51   
    58. A(N   5,C   6,C   7)          130.56 -0.000432   -0.00    130.56   
    59. A(C   6,C   7,C   8)          117.66 -0.000117   -0.04    117.62   
    60. A(C   8,C   7,H  23)          121.15  0.000004   -0.03    121.12   
    61. A(C   6,C   7,H  23)          121.19  0.000113    0.06    121.26   
    62. A(C   9,C   8,H  24)          119.15  0.000148    0.05    119.19   
    63. A(C   7,C   8,H  24)          119.62  0.000530   -0.04    119.59   
    64. A(C   7,C   8,C   9)          121.23 -0.000678   -0.00    121.22   
    65. A(C  10,C   9,H  25)          119.73  0.000307   -0.03    119.70   
    66. A(C   8,C   9,H  25)          119.10  0.000376    0.13    119.23   
    67. A(C   8,C   9,C  10)          121.17 -0.000683   -0.09    121.08   
    68. A(C   9,C  10,C  11)          119.07  0.001484    0.14    119.21   
    69. A(C  11,C  10,H  26)          120.88 -0.000577    0.07    120.95   
    70. A(C   9,C  10,H  26)          120.04 -0.000904   -0.19    119.84   
    71. A(C   3,C  11,C   6)          106.98  0.001547    0.13    107.11   
    72. A(C   6,C  11,C  10)          119.00 -0.000447   -0.08    118.93   
    73. A(C   3,C  11,C  10)          133.99 -0.001105   -0.06    133.94   
    74. A(O  13,C  12,O  14)          128.66 -0.001312   -0.08    128.58   
    75. A(C   1,C  12,O  14)          117.45 -0.002162    0.08    117.53   
    76. A(C   1,C  12,O  13)          113.75  0.003071   -0.16    113.58   
    77. D(C   2,C   1,N   0,H  16)    176.33 -0.001575    6.46    182.79   
    78. D(C  12,C   1,N   0,H  16)    -58.63 -0.001418    6.99    -51.64   
    79. D(C   2,C   1,N   0,H  17)    -64.90  0.000150    6.12    -58.78   
    80. D(C  12,C   1,N   0,H  17)     60.14  0.000307    6.66     66.79   
    81. D(C  12,C   1,N   0,H  15)    179.59 -0.000553    6.92    186.51   
    82. D(C   2,C   1,N   0,H  15)     54.55 -0.000710    6.39     60.94   
    83. D(H  19,C   2,C   1,H  18)    -63.57 -0.000042   -0.23    -63.80   
    84. D(C   3,C   2,C   1,H  18)     58.09  0.000043   -0.03     58.06   
    85. D(H  19,C   2,C   1,C  12)     56.06  0.000533   -0.37     55.69   
    86. D(C   3,C   2,C   1,C  12)    177.72  0.000618   -0.17    177.55   
    87. D(C   3,C   2,C   1,N   0)    -61.35  0.000129   -0.13    -61.47   
    88. D(H  19,C   2,C   1,N   0)    176.99  0.000044   -0.32    176.67   
    89. D(C   4,C   3,C   2,H  20)    150.79  0.000076    0.57    151.36   
    90. D(C   4,C   3,C   2,H  19)     32.69  0.000345    0.80     33.49   
    91. D(C   4,C   3,C   2,C   1)    -87.33 -0.000040    0.64    -86.69   
    92. D(C  11,C   3,C   2,H  19)   -149.82  0.000159    0.79   -149.03   
    93. D(C  11,C   3,C   2,C   1)     90.16 -0.000226    0.63     90.79   
    94. D(H  21,C   4,C   3,C  11)    179.29  0.000070    0.05    179.34   
    95. D(H  21,C   4,C   3,C   2)     -2.82 -0.000095    0.02     -2.80   
    96. D(N   5,C   4,C   3,C  11)      0.04  0.000189    0.09      0.13   
    97. D(N   5,C   4,C   3,C   2)    177.94  0.000024    0.06    178.00   
    98. D(H  22,N   5,C   4,H  21)     -1.10  0.000002   -0.44     -1.54   
    99. D(H  22,N   5,C   4,C   3)    178.21 -0.000097   -0.47    177.74   
   100. D(C   6,N   5,C   4,H  21)   -178.99 -0.000030    0.06   -178.93   
   101. D(C   6,N   5,C   4,C   3)      0.32 -0.000129    0.03      0.36   
   102. D(C  11,C   6,N   5,H  22)   -178.44 -0.000032    0.36   -178.08   
   103. D(C  11,C   6,N   5,C   4)     -0.56  0.000007   -0.14     -0.70   
   104. D(C   7,C   6,N   5,C   4)    179.57  0.000031   -0.01    179.57   
   105. D(C   7,C   6,N   5,H  22)      1.69 -0.000008    0.50      2.19   
   106. D(C   8,C   7,C   6,C  11)      0.55  0.000015    0.03      0.58   
   107. D(C   8,C   7,C   6,N   5)   -179.60 -0.000012   -0.12   -179.72   
   108. D(H  23,C   7,C   6,C  11)    179.94  0.000005   -0.02    179.92   
   109. D(H  23,C   7,C   6,N   5)     -0.21 -0.000022   -0.18     -0.38   
   110. D(H  24,C   8,C   7,H  23)      0.61  0.000131    0.08      0.69   
   111. D(H  24,C   8,C   7,C   6)    180.00  0.000122    0.02    180.02   
   112. D(C   9,C   8,C   7,H  23)   -179.05  0.000054   -0.05   -179.10   
   113. D(C   9,C   8,C   7,C   6)      0.34  0.000045   -0.10      0.24   
   114. D(H  25,C   9,C   8,H  24)     -0.27  0.000038    0.02     -0.25   
   115. D(H  25,C   9,C   8,C   7)    179.39  0.000116    0.15    179.53   
   116. D(C  10,C   9,C   8,H  24)    179.73 -0.000118   -0.04    179.69   
   117. D(C  10,C   9,C   8,C   7)     -0.62 -0.000040    0.09     -0.52   
   118. D(H  26,C  10,C   9,H  25)     -1.16  0.000024    0.28     -0.88   
   119. D(H  26,C  10,C   9,C   8)    178.85  0.000181    0.33    179.18   
   120. D(C  11,C  10,C   9,H  25)    179.98 -0.000164   -0.06    179.92   
   121. D(C  11,C  10,C   9,C   8)     -0.02 -0.000007   -0.01     -0.03   
   122. D(C   6,C  11,C  10,H  26)   -177.98 -0.000122   -0.40   -178.38   
   123. D(C   6,C  11,C  10,C   9)      0.88  0.000064   -0.06      0.82   
   124. D(C   3,C  11,C  10,C   9)    178.72 -0.000077   -0.08    178.63   
   125. D(C  10,C  11,C   6,C   7)     -1.17 -0.000059    0.05     -1.12   
   126. D(C  10,C  11,C   6,N   5)    178.95 -0.000037    0.17    179.12   
   127. D(C   3,C  11,C   6,C   7)   -179.54  0.000091    0.06   -179.48   
   128. D(C   3,C  11,C   6,N   5)      0.57  0.000114    0.19      0.76   
   129. D(C  10,C  11,C   3,C   4)   -178.40 -0.000028   -0.15   -178.55   
   130. D(C   3,C  11,C  10,H  26)     -0.14 -0.000264   -0.42     -0.56   
   131. D(C  10,C  11,C   3,C   2)      3.67  0.000057   -0.16      3.51   
   132. D(C   6,C  11,C   3,C   4)     -0.38 -0.000182   -0.17     -0.55   
   133. D(C   6,C  11,C   3,C   2)   -178.30 -0.000097   -0.18   -178.48   
   134. D(O  14,C  12,C   1,C   2)     -7.48  0.004372   -9.08    -16.56   
   135. D(O  14,C  12,C   1,N   0)   -130.82  0.003746   -9.78   -140.60   
   136. D(O  13,C  12,C   1,H  18)    -69.34  0.000194   -9.18    -78.52   
   137. D(O  13,C  12,C   1,C   2)    168.68 -0.001427   -9.24    159.44   
   138. D(O  13,C  12,C   1,N   0)     45.34 -0.002054   -9.94     35.40   
    ----------------------------------------------------------------------------

Geometry step timings:
Preparation and reading OPT file:      0.000 s ( 0.509 %)
Internal coordinates            :      0.000 s ( 0.543 %)
B/P matrices and projection     :      0.001 s (34.465 %)
Hessian update/contruction      :      0.000 s ( 6.180 %)
Making the step                 :      0.001 s (47.063 %)
Converting the step to Cartesian:      0.000 s ( 2.988 %)
Storing new data                :      0.000 s ( 0.475 %)
Checking convergence            :      0.000 s ( 0.543 %)
Final printing                  :      0.000 s ( 7.233 %)
Total time                      :      0.003 s

Time for energy+gradient        :      0.024 s
Time for complete geometry iter :      0.027 s

         *************************************************************
         *                GEOMETRY OPTIMIZATION CYCLE  10            *
         *************************************************************
---------------------------------
CARTESIAN COORDINATES (ANGSTROEM)
---------------------------------
  N     1.824833    0.249390    1.398879
  C     2.384308   -0.041309    0.057885
  C     1.442143    0.379622   -1.051058
  C     0.141965   -0.349068   -0.990399
  C    -0.167573   -1.564586   -1.542412
  N    -1.448913   -1.913570   -1.229052
  C    -2.006991   -0.929962   -0.472094
  C    -3.279564   -0.824033    0.076859
  C    -3.569435    0.311912    0.807081
  C    -2.621476    1.319318    0.983538
  C    -1.357833    1.210094    0.443123
  C    -1.028205    0.073089   -0.289326
  C     3.806300    0.655621    0.008033
  O     4.409258    0.633881    1.092316
  O     4.136438    1.203264   -1.044577
  H     0.947019   -0.271821    1.523969
  H     2.525024   -0.012986    2.102263
  H     1.632470    1.251824    1.489097
  H     2.575475   -1.119037    0.011358
  H     1.943474    0.190870   -2.000789
  H     1.283350    1.457818   -0.991981
  H     0.440057   -2.204191   -2.151774
  H    -1.916868   -2.743896   -1.543701
  H    -4.018350   -1.595197   -0.070572
  H    -4.548500    0.426854    1.248093
  H    -2.885182    2.197322    1.554218
  H    -0.643224    2.008776    0.581022

----------------------------
CARTESIAN COORDINATES (A.U.)
----------------------------
  NO LB    ZA    FRAG    MASS        X           Y           Z
   0 N   7.0000    0    14.007    3.448435    0.471279    2.643499
   1 C   6.0000    0    12.011    4.505689   -0.078063    0.109386
   2 C   6.0000    0    12.011    2.725255    0.717381   -1.986213
   3 C   6.0000    0    12.011    0.268276   -0.659643   -1.871583
   4 C   6.0000    0    12.011   -0.316667   -2.956639   -2.914737
   5 N   7.0000    0    14.007   -2.738048   -3.616123   -2.322572
   6 C   6.0000    0    12.011   -3.792663   -1.757374   -0.892128
   7 C   6.0000    0    12.011   -6.197478   -1.557196    0.145242
   8 C   6.0000    0    12.011   -6.745255    0.589428    1.525163
   9 C   6.0000    0    12.011   -4.953872    2.493150    1.858618
  10 C   6.0000    0    12.011   -2.565932    2.286746    0.837382
  11 C   6.0000    0    12.011   -1.943025    0.138118   -0.546746
  12 C   6.0000    0    12.011    7.192865    1.238944    0.015181
  13 O   8.0000    0    15.999    8.332289    1.197861    2.064177
  14 O   8.0000    0    15.999    7.816735    2.273839   -1.973965
  15 H   1.0000    0     1.008    1.789607   -0.513668    2.879884
  16 H   1.0000    0     1.008    4.771604   -0.024539    3.972702
  17 H   1.0000    0     1.008    3.084921    2.365604    2.813986
  18 H   1.0000    0     1.008    4.866943   -2.114673    0.021464
  19 H   1.0000    0     1.008    3.672633    0.360692   -3.780944
  20 H   1.0000    0     1.008    2.425179    2.754877   -1.874572
  21 H   1.0000    0     1.008    0.831587   -4.165316   -4.066263
  22 H   1.0000    0     1.008   -3.622356   -5.185211   -2.917173
  23 H   1.0000    0     1.008   -7.593582   -3.014485   -0.133362
  24 H   1.0000    0     1.008   -8.595420    0.806637    2.358553
  25 H   1.0000    0     1.008   -5.452204    4.152337    2.937047
  26 H   1.0000    0     1.008   -1.215517    3.796037    1.097973

      -----------------------------------------------------------      
     |                   =====================                   |     
     |                           x T B                           |     
     |                   =====================                   |     
     |                         S. Grimme                         |     
     |          Mulliken Center for Theoretical Chemistry        |     
     |                    University of Bonn                     |     
      -----------------------------------------------------------      

   * xtb version 6.7.1 (edcfbbe) compiled by 'albert@albert-system' on 2024-07-22

   xtb is free software: you can redistribute it and/or modify it under
   the terms of the GNU Lesser General Public License as published by
   the Free Software Foundation, either version 3 of the License, or
   (at your option) any later version.
   
   xtb is distributed in the hope that it will be useful,
   but WITHOUT ANY WARRANTY; without even the implied warranty of
   MERCHANTABILITY or FITNESS FOR A PARTICULAR PURPOSE.  See the
   GNU Lesser General Public License for more details.
   
   Cite this work as:
   * C. Bannwarth, E. Caldeweyher, S. Ehlert, A. Hansen, P. Pracht,
     J. Seibert, S. Spicher, S. Grimme, WIREs Comput. Mol. Sci., 2020, 11,
     e01493. DOI: 10.1002/wcms.1493
   
   for GFN2-xTB:
   * C. Bannwarth, S. Ehlert and S. Grimme., J. Chem. Theory Comput., 2019,
     15, 1652-1671. DOI: 10.1021/acs.jctc.8b01176
   for GFN1-xTB:
   * S. Grimme, C. Bannwarth, P. Shushkov, J. Chem. Theory Comput., 2017,
     13, 1989-2009. DOI: 10.1021/acs.jctc.7b00118
   for GFN0-xTB:
   * P. Pracht, E. Caldeweyher, S. Ehlert, S. Grimme, ChemRxiv, 2019, preprint.
     DOI: 10.26434/chemrxiv.8326202.v1
   for GFN-FF:
   * S. Spicher and S. Grimme, Angew. Chem. Int. Ed., 2020, 59, 15665-15673.
     DOI: 10.1002/anie.202004239
   
   for ALPB and GBSA implicit solvation:
   * S. Ehlert, M. Stahn, S. Spicher, S. Grimme, J. Chem. Theory Comput.,
     2021, 17, 4250-4261. DOI: 10.1021/acs.jctc.1c00471
   
   for ddCOSMO and CPCM-X implicit solvation:
   * M. Stahn, S. Ehlert, S. Grimme, J. Phys. Chem. A,
     2023, XX, XXXX-XXXX. DOI: 10.1021/acs.jpca.3c04382
   
   for DFT-D4:
   * E. Caldeweyher, C. Bannwarth and S. Grimme, J. Chem. Phys., 2017,
     147, 034112. DOI: 10.1063/1.4993215
   * E. Caldeweyher, S. Ehlert, A. Hansen, H. Neugebauer, S. Spicher,
     C. Bannwarth and S. Grimme, J. Chem. Phys., 2019, 150, 154122.
     DOI: 10.1063/1.5090222
   * E. Caldeweyher, J.-M. Mewes, S. Ehlert and S. Grimme, Phys. Chem. Chem. Phys.
     2020, 22, 8499-8512. DOI: 10.1039/D0CP00502A
   
   for sTDA-xTB:
   * S. Grimme and C. Bannwarth, J. Chem. Phys., 2016, 145, 054103.
     DOI: 10.1063/1.4959605
   
   in the mass-spec context:
   * V. Asgeirsson, C. Bauer and S. Grimme, Chem. Sci., 2017, 8, 4879.
     DOI: 10.1039/c7sc00601b
   * J. Koopman and S. Grimme, ACS Omega 2019, 4, 12, 15120-15133.
     DOI: 10.1021/acsomega.9b02011
   
   for metadynamics refer to:
   * S. Grimme, J. Chem. Theory Comput., 2019, 155, 2847-2862
     DOI: 10.1021/acs.jctc.9b00143
   
   for SPH calculations refer to:
   * S. Spicher and S. Grimme, J. Chem. Theory Comput., 2021, 17, 1701-1714
     DOI: 10.1021/acs.jctc.0c01306
   
   for ONIOM refer to:
   * C. Plett, A. Katbashev, S. Ehlert, S. Grimme, M. Bursch,
     Phys. Chem. Chem. Phys., 2023, 25, 17860-17868. DOI: 10.1039/D3CP02178E
   
   for DIPRO refer to:
   * J. Kohn, N. Gildemeister, S. Grimme, D. Fazzi, A. Hansen,
     J. Chem. Phys., 2023, just accepted.
   
   for PTB refer to:
   * S. Grimme, M. Mueller, A. Hansen, J. Chem. Phys., 2023, 158, 124111.
     DOI: 10.1063/5.0137838
   
   with help from (in alphabetical order)
   P. Atkinson, C. Bannwarth, F. Bohle, G. Brandenburg, E. Caldeweyher
   M. Checinski, S. Dohm, S. Ehlert, S. Ehrlich, I. Gerasimov, C. Hölzer
   A. Katbashev, J. Kohn, J. Koopman, C. Lavigne, S. Lehtola, F. März, M. Müller,
   F. Musil, H. Neugebauer, J. Pisarek, C. Plett, P. Pracht, F. Pultar,
   J. Seibert, P. Shushkov, S. Spicher, M. Stahn, M. Steiner, T. Strunk,
   J. Stückrath, T. Rose, and J. Unsleber
   
 * started run on 2026/04/09 at 18:40:48.595     
   ID    Z sym.   atoms
    1    7 N      1, 6
    2    6 C      2-5, 7-13
    3    8 O      14, 15
    4    1 H      16-27

           -------------------------------------------------
          |                Calculation Setup                |
           -------------------------------------------------

          program call               : /home/analima/Programs/orca-6.1.0-f.0_linux_x86-64/bin/otool_xtb geo_opt_XTB.xyz --grad -c 0 -u 0 -P 1 --namespace geo_opt --input geo_opt_XTB.input.tmp --alpb WATER --acc 0.200000
          calculation namespace      : geo_opt
          coordinate file            : geo_opt_XTB.xyz
          omp threads                :                     1


           -------------------------------------------------
          |                 G F N 2 - x T B                 |
           -------------------------------------------------

        Reference                      10.1021/acs.jctc.8b01176
      * Hamiltonian:
        H0-scaling (s, p, d)           1.850000    2.230000    2.230000
        zeta-weighting                 0.500000
      * Dispersion:
        s8                             2.700000
        a1                             0.520000
        a2                             5.000000
        s9                             5.000000
      * Repulsion:
        kExp                           1.500000    1.000000
        rExp                           1.000000
      * Coulomb:
        alpha                          2.000000
        third order                    shell-resolved
        anisotropic                    true
        a3                             3.000000
        a5                             4.000000
        cn-shift                       1.200000
        cn-exp                         4.000000
        max-rad                        5.000000

      * Solvation model:               ALPB
        Solvent                        WATER
        Parameter file                 internal GFN2-xTB/ALPB
        Dielectric constant                8.0200E+01
        Reference state                gsolv [1 M gas/solution]
        Free energy shift                  1.0808E-03 Eh       6.7819E-01 kcal/mol
        Temperature                        2.9815E+02 K
        Density                            1.0000E+00 kg/L
        Solvent mass                       1.8000E+01 g/mol
        Interaction kernel             P16
        Born radius scaling (c1)           1.4744E+00
        Born radii integrator          GBOBC
        Born offset                        0.0000E+00 a0       0.0000E+00 AA
        H-bond correction              true
        Ion screening                  false
        Surface tension                    1.0000E-05 Eh       1.5569E+01 dyn/cm
        Grid points                               230 per atom
q/qsh data taken from xtbrestart
CAMM data taken from xtbrestart

          ...................................................
          :                      SETUP                      :
          :.................................................:
          :  # basis functions                  72          :
          :  # atomic orbitals                  72          :
          :  # shells                           42          :
          :  # electrons                        78          :
          :  max. iterations                   250          :
          :  Hamiltonian                  GFN2-xTB          :
          :  restarted?                       true          :
          :  GBSA solvation                   true          :
          :  PC potential                    false          :
          :  electronic temp.          300.0000000     K    :
          :  accuracy                    0.2000000          :
          :  -> integral cutoff          0.3198970E+02      :
          :  -> integral neglect         0.2000000E-08      :
          :  -> SCF convergence          0.2000000E-06 Eh   :
          :  -> wf. convergence          0.2000000E-04 e    :
          :  Broyden damping             0.4000000          :
          :  net charge                          0          :
          :  unpaired electrons                  0          :
          ...................................................

 iter      E             dE          RMSdq      gap      omega  full diag
   1    -44.3036284 -0.443036E+02  0.262E-01    3.51       0.0  T
   2    -44.3036412 -0.128273E-04  0.152E-01    3.51       1.0  T
   3    -44.3036357  0.555155E-05  0.235E-02    3.51       1.0  T
   4    -44.3036486 -0.129253E-04  0.751E-03    3.51       2.6  T
   5    -44.3036488 -0.144263E-06  0.425E-03    3.51       4.5  T
   6    -44.3036488 -0.669763E-07  0.887E-04    3.51      21.7  T
   7    -44.3036488 -0.107753E-07  0.260E-04    3.51      73.9  T
   8    -44.3036488 -0.314401E-09  0.132E-04    3.51     145.8  T
   9    -44.3036488 -0.595435E-10  0.472E-05    3.51     408.0  T

   *** convergence criteria satisfied after 9 iterations ***

         #    Occupation            Energy/Eh            Energy/eV
      -------------------------------------------------------------
         1        2.0000           -0.6926486             -18.8479
       ...           ...                  ...                  ...
        33        2.0000           -0.4178232             -11.3695
        34        2.0000           -0.4160430             -11.3211
        35        2.0000           -0.4084116             -11.1134
        36        2.0000           -0.3935313             -10.7085
        37        2.0000           -0.3832536             -10.4289
        38        2.0000           -0.3750638             -10.2060
        39        2.0000           -0.3613737              -9.8335 (HOMO)
        40                         -0.2324707              -6.3259 (LUMO)
        41                         -0.1976919              -5.3795
        42                         -0.1817114              -4.9446
        43                         -0.1597094              -4.3459
        44                         -0.0725036              -1.9729
       ...                                ...                  ...
        72                          0.7212269              19.6256
      -------------------------------------------------------------
                  HL-Gap            0.1289030 Eh            3.5076 eV
             Fermi-level           -0.2969222 Eh           -8.0797 eV

 SCC (total)                   0 d,  0 h,  0 min,  0.014 sec
 SCC setup                      ...        0 min,  0.000 sec (  2.411%)
 Dispersion                     ...        0 min,  0.000 sec (  0.702%)
 classical contributions        ...        0 min,  0.000 sec (  0.128%)
 integral evaluation            ...        0 min,  0.002 sec ( 10.933%)
 iterations                     ...        0 min,  0.007 sec ( 50.445%)
 molecular gradient             ...        0 min,  0.005 sec ( 34.951%)
 printout                       ...        0 min,  0.000 sec (  0.369%)

         :::::::::::::::::::::::::::::::::::::::::::::::::::::
         ::                     SUMMARY                     ::
         :::::::::::::::::::::::::::::::::::::::::::::::::::::
         :: total energy             -43.675113881023 Eh    ::
         :: total w/o Gsasa/hb       -43.666940123232 Eh    ::
         :: gradient norm              0.024125765561 Eh/a0 ::
         :: HOMO-LUMO gap              3.507629160076 eV    ::
         ::.................................................::
         :: SCC energy               -44.303487795343 Eh    ::
         :: -> isotropic ES            0.183800872007 Eh    ::
         :: -> anisotropic ES         -0.006327115854 Eh    ::
         :: -> anisotropic XC          0.016232574815 Eh    ::
         :: -> dispersion             -0.026235794769 Eh    ::
         :: -> Gsolv                  -0.073251910300 Eh    ::
         ::    -> Gelec               -0.065078152509 Eh    ::
         ::    -> Gsasa                0.001746576733 Eh    ::
         ::    -> Ghb                 -0.011001094222 Eh    ::
         ::    -> Gshift               0.001080759698 Eh    ::
         :: repulsion energy           0.628373914319 Eh    ::
         :: add. restraining           0.000000000000 Eh    ::
         :: total charge              -0.000000000000 e     ::
         :::::::::::::::::::::::::::::::::::::::::::::::::::::


Property printout bound to 'properties.out'

           -------------------------------------------------
          | TOTAL ENERGY              -43.675113881023 Eh   |
          | GRADIENT NORM               0.024125765561 Eh/α |
          | HOMO-LUMO GAP               3.507629160076 eV   |
           -------------------------------------------------

------------------------------------------------------------------------
 * finished run on 2026/04/09 at 18:40:48.616     
------------------------------------------------------------------------
 total:
 * wall-time:     0 d,  0 h,  0 min,  0.020 sec
 *  cpu-time:     0 d,  0 h,  0 min,  0.018 sec
 * ratio c/w:     0.896 speedup
 SCF:
 * wall-time:     0 d,  0 h,  0 min,  0.014 sec
 *  cpu-time:     0 d,  0 h,  0 min,  0.012 sec
 * ratio c/w:     0.863 speedup


-------------------------   --------------------
FINAL SINGLE POINT ENERGY       -43.675113881020
-------------------------   --------------------


-------------
DIPOLE MOMENT
-------------
                                X             Y             Z
Total Dipole Moment    :     -4.96200      -2.39900       1.71600
                        -----------------------------------------
Magnitude (a.u.)       :      5.77246
Magnitude (Debye)      :     14.67243


------------------
CARTESIAN GRADIENT
------------------

   1   N   :    0.008985991    0.002863238    0.001280107
   2   C   :   -0.005873547    0.006642637   -0.004191197
   3   C   :    0.000508559   -0.003290586    0.003288619
   4   C   :    0.001400400    0.005045465    0.000294565
   5   C   :   -0.001552266   -0.003241219   -0.000336366
   6   N   :   -0.000228516    0.000919570    0.000584354
   7   C   :    0.002683792    0.002378533    0.000044973
   8   C   :    0.000138919   -0.002639248   -0.001237149
   9   C   :    0.001544383    0.003748673    0.001242152
  10   C   :   -0.003617809   -0.000601968    0.000527338
  11   C   :    0.000933465   -0.005032758   -0.004097769
  12   C   :   -0.000215608   -0.002514106    0.000072942
  13   C   :    0.005168234   -0.007228918    0.000061184
  14   O   :   -0.002669804    0.003215045   -0.005607494
  15   O   :   -0.003899792    0.000854987    0.007279057
  16   H   :   -0.000617587   -0.000993814   -0.001895141
  17   H   :   -0.003874732   -0.001128646   -0.000757026
  18   H   :   -0.000245642   -0.000760856   -0.000151735
  19   H   :    0.000559300   -0.000206253    0.001805895
  20   H   :   -0.000715833    0.000292974   -0.000001972
  21   H   :    0.000849166   -0.000390951    0.000061289
  22   H   :   -0.000644393   -0.000324641    0.000096566
  23   H   :    0.000660880    0.001574714    0.000522548
  24   H   :    0.000330830    0.000596832    0.000020639
  25   H   :    0.000072724    0.000062175    0.000274997
  26   H   :    0.000154126    0.000063269    0.000181596
  27   H   :    0.000164758    0.000095855    0.000637027

Difference to translation invariance:
           :    0.0000000000   -0.0000000000   -0.0000000000

Difference to rotation invariance:
           :   -0.0003873768   -0.0002576130   -0.0001497526

Norm of the Cartesian gradient     ...    0.0241257656
RMS gradient                       ...    0.0026806406
MAX gradient                       ...    0.0089859905
------------------------------------------------------------------------------
                         ORCA GEOMETRY RELAXATION STEP
------------------------------------------------------------------------------

Reading the OPT-File                    .... done
Getting information on internals        .... done
Copying old internal coords+grads       .... done
Making the new internal coordinates     .... (2022 redundants) done
Validating the new internal coordinates .... (2022 redundants) done
Calculating the B-matrix                .... done
Calculating the G,G- and P matrices     .... done
Transforming gradient to internals      .... done
Projecting the internal gradient        .... done
Number of atoms                         ....  27
Number of internal coordinates          .... 138
Current Energy                          ....   -43.675113881 Eh
Current gradient norm                   ....     0.024125766 Eh/bohr
Maximum allowed component of the step   ....  0.300
Current trust radius                    ....  0.700
Updating the Hessian (BFGS)             .... done
Forming the augmented Hessian           .... done
Diagonalizing the augmented Hessian     .... done
Last element of RFO vector              ....  0.776320149
Lowest eigenvalues of augmented Hessian:
 -0.002992362  0.002337498  0.015575768  0.016606779  0.019783383
Length of the computed step             ....  0.811957309
Warning: the length of the step is outside the trust region - taking restricted step instead
The input lambda is                     ....    -0.000762
   iter:   5  x=   -0.003472  g=  340.077532 f(x)=     0.097230
The output lambda is                    ....    -0.003514 (9 iterations)
The final length of the internal step   ....  0.700000000
Converting the step to Cartesian space:
 Initial RMS(Int)=    0.0595879572
Transforming coordinates:
 Iter   0:  RMS(Cart)=    0.1040830760 RMS(Int)=    0.7582120806
 Iter   5:  RMS(Cart)=    0.0000307709 RMS(Int)=    0.0000199354
 Iter  10:  RMS(Cart)=    0.0000000292 RMS(Int)=    0.0000000228
done
Storing new coordinates                 .... done
The predicted energy change is          ....    -0.002208886
Previously predicted energy change      ....    -0.000944043
Actually observed energy change         ....    -0.001089700
Ratio of predicted to observed change   ....     1.154291403
New trust radius                        ....     0.700000000

                                .--------------------.
          ----------------------|Geometry convergence|-------------------------
          Item                value                   Tolerance       Converged
          ---------------------------------------------------------------------
          Energy change      -0.0010897002            0.0000050000      NO
          RMS gradient        0.0016266258            0.0001000000      NO
          MAX gradient        0.0068843467            0.0003000000      NO
          RMS step            0.0595879572            0.0020000000      NO
          MAX step            0.2818260178            0.0040000000      NO
          -------------------------------------------------------------------------
          ........................................................
          Max(Bonds)      0.0062      Max(Angles)    2.01
          Max(Dihed)       16.15      Max(Improp)    0.00
          ---------------------------------------------------------------------

The optimization has not yet converged - more geometry cycles are needed


    ---------------------------------------------------------------------------
                         Redundant Internal Coordinates
                            (Angstroem and degrees)

        Definition                    Value    dE/dq     Step     New-Value
    ----------------------------------------------------------------------------
     1. B(C   1,N   0)                1.4818 -0.002994  0.0006    1.4824   
     2. B(C   2,C   1)                1.5148 -0.004038 -0.0005    1.5143   
     3. B(C   3,C   2)                1.4917 -0.001700  0.0009    1.4926   
     4. B(C   4,C   3)                1.3704  0.002749 -0.0018    1.3686   
     5. B(N   5,C   4)                1.3645 -0.001191  0.0007    1.3652   
     6. B(C   6,N   5)                1.3609 -0.002037  0.0018    1.3627   
     7. B(C   7,C   6)                1.3900  0.000266 -0.0007    1.3893   
     8. B(C   8,C   7)                1.3812  0.002010 -0.0006    1.3806   
     9. B(C   9,C   8)                1.3945 -0.003386  0.0013    1.3958   
    10. B(C  10,C   9)                1.3787  0.001494 -0.0002    1.3785   
    11. B(C  11,C  10)                1.3921 -0.003854  0.0008    1.3929   
    12. B(C  11,C   6)                1.4133 -0.003782  0.0019    1.4153   
    13. B(C  11,C   3)                1.4279 -0.002554  0.0006    1.4286   
    14. B(C  12,C   1)                1.5844 -0.002700 -0.0010    1.5834   
    15. B(O  13,C  12)                1.2408 -0.006255  0.0033    1.2442   
    16. B(O  14,C  12)                1.2316 -0.006884  0.0007    1.2323   
    17. B(H  15,N   0)                1.0285  0.000801 -0.0034    1.0251   
    18. B(H  16,N   0)                1.0266 -0.002872  0.0062    1.0327   
    19. B(H  17,N   0)                1.0247 -0.000715  0.0001    1.0248   
    20. B(H  18,C   1)                1.0955  0.000223  0.0007    1.0962   
    21. B(H  19,C   2)                1.0904 -0.000379  0.0009    1.0913   
    22. B(H  20,C   2)                1.0914 -0.000503  0.0011    1.0925   
    23. B(H  21,C   4)                1.0722 -0.000227  0.0003    1.0725   
    24. B(H  22,N   5)                1.0037 -0.001776  0.0012    1.0049   
    25. B(H  23,C   7)                1.0781 -0.000656  0.0005    1.0785   
    26. B(H  24,C   8)                1.0799  0.000054  0.0001    1.0800   
    27. B(H  25,C   9)                1.0799  0.000110 -0.0003    1.0796   
    28. B(H  26,C  10)                1.0805  0.000260  0.0002    1.0808   
    29. A(H  16,N   0,H  17)          108.53  0.000338   -0.56    107.97   
    30. A(H  15,N   0,H  17)          108.95  0.000681    0.13    109.08   
    31. A(H  15,N   0,H  16)          111.67 -0.000512    0.77    112.44   
    32. A(C   1,N   0,H  15)          109.44 -0.003921    1.43    110.87   
    33. A(C   1,N   0,H  16)          108.20  0.002867   -2.01    106.19   
    34. A(C   1,N   0,H  17)          110.03  0.000607    0.21    110.23   
    35. A(C   2,C   1,C  12)          114.39  0.000806    0.35    114.74   
    36. A(C   2,C   1,H  18)          110.54  0.001973   -0.27    110.27   
    37. A(N   0,C   1,C   2)          111.91  0.001670    0.85    112.76   
    38. A(N   0,C   1,C  12)          106.32 -0.002159   -0.43    105.90   
    39. A(N   0,C   1,H  18)          107.30 -0.001964   -0.06    107.24   
    40. A(C  12,C   1,H  18)          105.95 -0.000751   -0.62    105.33   
    41. A(C   1,C   2,C   3)          112.12  0.000963    0.27    112.39   
    42. A(H  19,C   2,H  20)          106.56 -0.000571   -0.04    106.53   
    43. A(C   3,C   2,H  20)          110.71  0.000757   -0.50    110.21   
    44. A(C   3,C   2,H  19)          110.59 -0.000479    0.16    110.75   
    45. A(C   1,C   2,H  20)          108.99 -0.000995    0.28    109.27   
    46. A(C   1,C   2,H  19)          107.67  0.000222   -0.21    107.46   
    47. A(C   2,C   3,C   4)          127.86  0.002737    0.08    127.94   
    48. A(C   2,C   3,C  11)          126.14 -0.001163   -0.16    125.99   
    49. A(C   4,C   3,C  11)          105.96 -0.001580    0.09    106.05   
    50. A(N   5,C   4,H  21)          120.67 -0.000198   -0.16    120.51   
    51. A(C   3,C   4,H  21)          129.05  0.001197    0.10    129.16   
    52. A(C   3,C   4,N   5)          110.27 -0.001001    0.06    110.33   
    53. A(C   6,N   5,H  22)          125.53 -0.000461    0.05    125.58   
    54. A(C   4,N   5,H  22)          125.27 -0.000181   -0.06    125.21   
    55. A(C   4,N   5,C   6)          109.15  0.000643   -0.04    109.11   
    56. A(C   7,C   6,C  11)          121.93  0.000649    0.01    121.94   
    57. A(N   5,C   6,C  11)          107.51 -0.000142   -0.06    107.45   
    58. A(N   5,C   6,C   7)          130.56 -0.000507    0.05    130.61   
    59. A(C   6,C   7,C   8)          117.62 -0.000220   -0.04    117.59   
    60. A(C   8,C   7,H  23)          121.12  0.000001   -0.03    121.08   
    61. A(C   6,C   7,H  23)          121.26  0.000219    0.07    121.33   
    62. A(C   9,C   8,H  24)          119.19  0.000230    0.03    119.22   
    63. A(C   7,C   8,H  24)          119.58  0.000588   -0.13    119.45   
    64. A(C   7,C   8,C   9)          121.22 -0.000818    0.10    121.32   
    65. A(C  10,C   9,H  25)          119.70  0.000343   -0.08    119.61   
    66. A(C   8,C   9,H  25)          119.22  0.000617    0.12    119.34   
    67. A(C   8,C   9,C  10)          121.08 -0.000960   -0.04    121.04   
    68. A(C   9,C  10,C  11)          119.21  0.001981   -0.03    119.18   
    69. A(C  11,C  10,H  26)          120.95 -0.000703    0.15    121.10   
    70. A(C   9,C  10,H  26)          119.84 -0.001274   -0.15    119.69   
    71. A(C   3,C  11,C   6)          107.11  0.002079   -0.05    107.06   
    72. A(C   6,C  11,C  10)          118.93 -0.000633   -0.00    118.92   
    73. A(C   3,C  11,C  10)          133.93 -0.001452    0.07    134.00   
    74. A(O  13,C  12,O  14)          128.63 -0.001492    0.17    128.81   
    75. A(C   1,C  12,O  14)          117.58 -0.001918    0.55    118.13   
    76. A(C   1,C  12,O  13)          113.64  0.002871   -0.48    113.16   
    77. D(C   2,C   1,N   0,H  16)   -177.19 -0.002247   10.79   -166.40   
    78. D(C  12,C   1,N   0,H  16)    -51.62 -0.001673   11.44    -40.19   
    79. D(C   2,C   1,N   0,H  17)    -58.77  0.000205    9.04    -49.73   
    80. D(C  12,C   1,N   0,H  17)     66.79  0.000780    9.68     76.47   
    81. D(C  12,C   1,N   0,H  15)   -173.52 -0.000445   10.85   -162.66   
    82. D(C   2,C   1,N   0,H  15)     60.92 -0.001020   10.21     71.13   
    83. D(H  19,C   2,C   1,H  18)    -63.80 -0.000188   -0.84    -64.63   
    84. D(C   3,C   2,C   1,H  18)     58.07 -0.000031   -0.58     57.48   
    85. D(H  19,C   2,C   1,C  12)     55.68  0.000838   -1.59     54.09   
    86. D(C   3,C   2,C   1,C  12)    177.54  0.000995   -1.33    176.21   
    87. D(C   3,C   2,C   1,N   0)    -61.46  0.000019   -0.92    -62.38   
    88. D(H  19,C   2,C   1,N   0)    176.68 -0.000138   -1.17    175.50   
    89. D(C   4,C   3,C   2,H  20)    151.36 -0.000039    0.22    151.58   
    90. D(C   4,C   3,C   2,H  19)     33.49  0.000494    0.46     33.96   
    91. D(C   4,C   3,C   2,C   1)    -86.69 -0.000104    0.41    -86.28   
    92. D(C  11,C   3,C   2,H  19)   -149.03  0.000240    0.86   -148.17   
    93. D(C  11,C   3,C   2,C   1)     90.79 -0.000359    0.81     91.60   
    94. D(H  21,C   4,C   3,C  11)    179.33  0.000095   -0.01    179.32   
    95. D(H  21,C   4,C   3,C   2)     -2.79 -0.000134    0.33     -2.46   
    96. D(N   5,C   4,C   3,C  11)      0.13  0.000277   -0.20     -0.07   
    97. D(N   5,C   4,C   3,C   2)    178.01  0.000048    0.14    178.15   
    98. D(H  22,N   5,C   4,H  21)     -1.54 -0.000021   -0.62     -2.16   
    99. D(H  22,N   5,C   4,C   3)    177.74 -0.000172   -0.44    177.30   
   100. D(C   6,N   5,C   4,H  21)   -178.92 -0.000026    0.06   -178.87   
   101. D(C   6,N   5,C   4,C   3)      0.36 -0.000177    0.23      0.59   
   102. D(C  11,C   6,N   5,H  22)   -178.07 -0.000023    0.51   -177.56   
   103. D(C  11,C   6,N   5,C   4)     -0.70 -0.000009   -0.16     -0.86   
   104. D(C   7,C   6,N   5,C   4)    179.57  0.000042   -0.07    179.50   
   105. D(C   7,C   6,N   5,H  22)      2.19  0.000028    0.61      2.80   
   106. D(C   8,C   7,C   6,C  11)      0.58  0.000018   -0.01      0.57   
   107. D(C   8,C   7,C   6,N   5)   -179.72 -0.000042   -0.12   -179.84   
   108. D(H  23,C   7,C   6,C  11)    179.92  0.000003   -0.02    179.90   
   109. D(H  23,C   7,C   6,N   5)     -0.38 -0.000057   -0.12     -0.51   
   110. D(H  24,C   8,C   7,H  23)      0.69  0.000164   -0.20      0.49   
   111. D(H  24,C   8,C   7,C   6)   -179.98  0.000150   -0.21   -180.18   
   112. D(C   9,C   8,C   7,H  23)   -179.10  0.000050   -0.21   -179.30   
   113. D(C   9,C   8,C   7,C   6)      0.24  0.000036   -0.21      0.03   
   114. D(H  25,C   9,C   8,H  24)     -0.25  0.000046   -0.06     -0.31   
   115. D(H  25,C   9,C   8,C   7)    179.53  0.000160   -0.06    179.48   
   116. D(C  10,C   9,C   8,H  24)    179.69 -0.000141    0.21    179.90   
   117. D(C  10,C   9,C   8,C   7)     -0.52 -0.000027    0.21     -0.31   
   118. D(H  26,C  10,C   9,H  25)     -0.88  0.000084    0.28     -0.60   
   119. D(H  26,C  10,C   9,C   8)    179.18  0.000271    0.00    179.18   
   120. D(C  11,C  10,C   9,H  25)    179.92 -0.000202    0.28    180.20   
   121. D(C  11,C  10,C   9,C   8)     -0.02 -0.000014    0.01     -0.01   
   122. D(C   6,C  11,C  10,H  26)   -178.38 -0.000222   -0.23   -178.61   
   123. D(C   6,C  11,C  10,C   9)      0.81  0.000063   -0.22      0.59   
   124. D(C   3,C  11,C  10,C   9)    178.63 -0.000120    0.12    178.75   
   125. D(C  10,C  11,C   6,C   7)     -1.12 -0.000055    0.22     -0.89   
   126. D(C  10,C  11,C   6,N   5)    179.12 -0.000005    0.31    179.43   
   127. D(C   3,C  11,C   6,C   7)   -179.47  0.000142   -0.03   -179.50   
   128. D(C   3,C  11,C   6,N   5)      0.77  0.000191    0.05      0.82   
   129. D(C  10,C  11,C   3,C   4)   -178.55 -0.000080   -0.22   -178.77   
   130. D(C   3,C  11,C  10,H  26)     -0.56 -0.000405    0.11     -0.45   
   131. D(C  10,C  11,C   3,C   2)      3.52  0.000035   -0.56      2.97   
   132. D(C   6,C  11,C   3,C   4)     -0.55 -0.000283    0.08     -0.46   
   133. D(C   6,C  11,C   3,C   2)   -178.47 -0.000167   -0.25   -178.72   
   134. D(O  14,C  12,C   1,C   2)    -16.56  0.005260  -15.18    -31.74   
   135. D(O  14,C  12,C   1,N   0)   -140.60  0.004198  -16.15   -156.75   
   136. D(O  13,C  12,C   1,H  18)    -78.54  0.000222  -12.30    -90.84   
   137. D(O  13,C  12,C   1,C   2)    159.45 -0.002231  -11.73    147.72   
   138. D(O  13,C  12,C   1,N   0)     35.41 -0.003293  -12.70     22.71   
    ----------------------------------------------------------------------------

Geometry step timings:
Preparation and reading OPT file:      0.000 s ( 0.359 %)
Internal coordinates            :      0.000 s ( 0.467 %)
B/P matrices and projection     :      0.001 s (32.161 %)
Hessian update/contruction      :      0.000 s ( 6.281 %)
Making the step                 :      0.001 s (48.744 %)
Converting the step to Cartesian:      0.000 s ( 3.482 %)
Storing new data                :      0.000 s ( 0.467 %)
Checking convergence            :      0.000 s ( 0.538 %)
Final printing                  :      0.000 s ( 7.502 %)
Total time                      :      0.003 s

Time for energy+gradient        :      0.024 s
Time for complete geometry iter :      0.027 s

         *************************************************************
         *                GEOMETRY OPTIMIZATION CYCLE  11            *
         *************************************************************
---------------------------------
CARTESIAN COORDINATES (ANGSTROEM)
---------------------------------
  N     1.856637    0.241680    1.415646
  C     2.382390   -0.037639    0.057999
  C     1.431576    0.394539   -1.038539
  C     0.132786   -0.339146   -0.986942
  C    -0.173758   -1.547912   -1.550776
  N    -1.456079   -1.902504   -1.244689
  C    -2.019987   -0.923414   -0.482924
  C    -3.294391   -0.821876    0.060867
  C    -3.586594    0.307928    0.798529
  C    -2.638080    1.313463    0.992041
  C    -1.372078    1.208932    0.456768
  C    -1.040541    0.079331   -0.287642
  C     3.812881    0.638525   -0.001656
  O     4.319959    0.809159    1.121626
  O     4.270462    0.932033   -1.107609
  H     1.079102   -0.386606    1.642683
  H     2.654656    0.131395    2.061837
  H     1.532140    1.211813    1.477162
  H     2.568334   -1.116207   -0.003557
  H     1.933492    0.225748   -1.992755
  H     1.260194    1.470907   -0.963665
  H     0.435678   -2.183721   -2.162802
  H    -1.923432   -2.728465   -1.575026
  H    -4.033740   -1.591351   -0.095607
  H    -4.569259    0.419393    1.232567
  H    -2.903544    2.187469    1.567438
  H    -0.658803    2.006525    0.609027

----------------------------
CARTESIAN COORDINATES (A.U.)
----------------------------
  NO LB    ZA    FRAG    MASS        X           Y           Z
   0 N   7.0000    0    14.007    3.508536    0.456709    2.675183
   1 C   6.0000    0    12.011    4.502064   -0.071127    0.109603
   2 C   6.0000    0    12.011    2.705287    0.745570   -1.962555
   3 C   6.0000    0    12.011    0.250929   -0.640892   -1.865051
   4 C   6.0000    0    12.011   -0.328355   -2.925130   -2.930542
   5 N   7.0000    0    14.007   -2.751591   -3.595212   -2.352122
   6 C   6.0000    0    12.011   -3.817223   -1.744999   -0.912595
   7 C   6.0000    0    12.011   -6.225496   -1.553121    0.115022
   8 C   6.0000    0    12.011   -6.777680    0.581899    1.509001
   9 C   6.0000    0    12.011   -4.985248    2.482086    1.874686
  10 C   6.0000    0    12.011   -2.592852    2.284551    0.863166
  11 C   6.0000    0    12.011   -1.966338    0.149914   -0.543564
  12 C   6.0000    0    12.011    7.205301    1.206637   -0.003130
  13 O   8.0000    0    15.999    8.163540    1.529088    2.119566
  14 O   8.0000    0    15.999    8.070004    1.761288   -2.093078
  15 H   1.0000    0     1.008    2.039207   -0.730579    3.104221
  16 H   1.0000    0     1.008    5.016572    0.248300    3.896308
  17 H   1.0000    0     1.008    2.895324    2.289995    2.791432
  18 H   1.0000    0     1.008    4.853447   -2.109326   -0.006721
  19 H   1.0000    0     1.008    3.653770    0.426602   -3.765761
  20 H   1.0000    0     1.008    2.381422    2.779612   -1.821063
  21 H   1.0000    0     1.008    0.823312   -4.126635   -4.087103
  22 H   1.0000    0     1.008   -3.634761   -5.156051   -2.976368
  23 H   1.0000    0     1.008   -7.622664   -3.007218   -0.180670
  24 H   1.0000    0     1.008   -8.634648    0.792537    2.329214
  25 H   1.0000    0     1.008   -5.486902    4.133718    2.962028
  26 H   1.0000    0     1.008   -1.244958    3.791783    1.150893

      -----------------------------------------------------------      
     |                   =====================                   |     
     |                           x T B                           |     
     |                   =====================                   |     
     |                         S. Grimme                         |     
     |          Mulliken Center for Theoretical Chemistry        |     
     |                    University of Bonn                     |     
      -----------------------------------------------------------      

   * xtb version 6.7.1 (edcfbbe) compiled by 'albert@albert-system' on 2024-07-22

   xtb is free software: you can redistribute it and/or modify it under
   the terms of the GNU Lesser General Public License as published by
   the Free Software Foundation, either version 3 of the License, or
   (at your option) any later version.
   
   xtb is distributed in the hope that it will be useful,
   but WITHOUT ANY WARRANTY; without even the implied warranty of
   MERCHANTABILITY or FITNESS FOR A PARTICULAR PURPOSE.  See the
   GNU Lesser General Public License for more details.
   
   Cite this work as:
   * C. Bannwarth, E. Caldeweyher, S. Ehlert, A. Hansen, P. Pracht,
     J. Seibert, S. Spicher, S. Grimme, WIREs Comput. Mol. Sci., 2020, 11,
     e01493. DOI: 10.1002/wcms.1493
   
   for GFN2-xTB:
   * C. Bannwarth, S. Ehlert and S. Grimme., J. Chem. Theory Comput., 2019,
     15, 1652-1671. DOI: 10.1021/acs.jctc.8b01176
   for GFN1-xTB:
   * S. Grimme, C. Bannwarth, P. Shushkov, J. Chem. Theory Comput., 2017,
     13, 1989-2009. DOI: 10.1021/acs.jctc.7b00118
   for GFN0-xTB:
   * P. Pracht, E. Caldeweyher, S. Ehlert, S. Grimme, ChemRxiv, 2019, preprint.
     DOI: 10.26434/chemrxiv.8326202.v1
   for GFN-FF:
   * S. Spicher and S. Grimme, Angew. Chem. Int. Ed., 2020, 59, 15665-15673.
     DOI: 10.1002/anie.202004239
   
   for ALPB and GBSA implicit solvation:
   * S. Ehlert, M. Stahn, S. Spicher, S. Grimme, J. Chem. Theory Comput.,
     2021, 17, 4250-4261. DOI: 10.1021/acs.jctc.1c00471
   
   for ddCOSMO and CPCM-X implicit solvation:
   * M. Stahn, S. Ehlert, S. Grimme, J. Phys. Chem. A,
     2023, XX, XXXX-XXXX. DOI: 10.1021/acs.jpca.3c04382
   
   for DFT-D4:
   * E. Caldeweyher, C. Bannwarth and S. Grimme, J. Chem. Phys., 2017,
     147, 034112. DOI: 10.1063/1.4993215
   * E. Caldeweyher, S. Ehlert, A. Hansen, H. Neugebauer, S. Spicher,
     C. Bannwarth and S. Grimme, J. Chem. Phys., 2019, 150, 154122.
     DOI: 10.1063/1.5090222
   * E. Caldeweyher, J.-M. Mewes, S. Ehlert and S. Grimme, Phys. Chem. Chem. Phys.
     2020, 22, 8499-8512. DOI: 10.1039/D0CP00502A
   
   for sTDA-xTB:
   * S. Grimme and C. Bannwarth, J. Chem. Phys., 2016, 145, 054103.
     DOI: 10.1063/1.4959605
   
   in the mass-spec context:
   * V. Asgeirsson, C. Bauer and S. Grimme, Chem. Sci., 2017, 8, 4879.
     DOI: 10.1039/c7sc00601b
   * J. Koopman and S. Grimme, ACS Omega 2019, 4, 12, 15120-15133.
     DOI: 10.1021/acsomega.9b02011
   
   for metadynamics refer to:
   * S. Grimme, J. Chem. Theory Comput., 2019, 155, 2847-2862
     DOI: 10.1021/acs.jctc.9b00143
   
   for SPH calculations refer to:
   * S. Spicher and S. Grimme, J. Chem. Theory Comput., 2021, 17, 1701-1714
     DOI: 10.1021/acs.jctc.0c01306
   
   for ONIOM refer to:
   * C. Plett, A. Katbashev, S. Ehlert, S. Grimme, M. Bursch,
     Phys. Chem. Chem. Phys., 2023, 25, 17860-17868. DOI: 10.1039/D3CP02178E
   
   for DIPRO refer to:
   * J. Kohn, N. Gildemeister, S. Grimme, D. Fazzi, A. Hansen,
     J. Chem. Phys., 2023, just accepted.
   
   for PTB refer to:
   * S. Grimme, M. Mueller, A. Hansen, J. Chem. Phys., 2023, 158, 124111.
     DOI: 10.1063/5.0137838
   
   with help from (in alphabetical order)
   P. Atkinson, C. Bannwarth, F. Bohle, G. Brandenburg, E. Caldeweyher
   M. Checinski, S. Dohm, S. Ehlert, S. Ehrlich, I. Gerasimov, C. Hölzer
   A. Katbashev, J. Kohn, J. Koopman, C. Lavigne, S. Lehtola, F. März, M. Müller,
   F. Musil, H. Neugebauer, J. Pisarek, C. Plett, P. Pracht, F. Pultar,
   J. Seibert, P. Shushkov, S. Spicher, M. Stahn, M. Steiner, T. Strunk,
   J. Stückrath, T. Rose, and J. Unsleber
   
 * started run on 2026/04/09 at 18:40:48.622     
   ID    Z sym.   atoms
    1    7 N      1, 6
    2    6 C      2-5, 7-13
    3    8 O      14, 15
    4    1 H      16-27

           -------------------------------------------------
          |                Calculation Setup                |
           -------------------------------------------------

          program call               : /home/analima/Programs/orca-6.1.0-f.0_linux_x86-64/bin/otool_xtb geo_opt_XTB.xyz --grad -c 0 -u 0 -P 1 --namespace geo_opt --input geo_opt_XTB.input.tmp --alpb WATER --acc 0.200000
          calculation namespace      : geo_opt
          coordinate file            : geo_opt_XTB.xyz
          omp threads                :                     1


           -------------------------------------------------
          |                 G F N 2 - x T B                 |
           -------------------------------------------------

        Reference                      10.1021/acs.jctc.8b01176
      * Hamiltonian:
        H0-scaling (s, p, d)           1.850000    2.230000    2.230000
        zeta-weighting                 0.500000
      * Dispersion:
        s8                             2.700000
        a1                             0.520000
        a2                             5.000000
        s9                             5.000000
      * Repulsion:
        kExp                           1.500000    1.000000
        rExp                           1.000000
      * Coulomb:
        alpha                          2.000000
        third order                    shell-resolved
        anisotropic                    true
        a3                             3.000000
        a5                             4.000000
        cn-shift                       1.200000
        cn-exp                         4.000000
        max-rad                        5.000000

      * Solvation model:               ALPB
        Solvent                        WATER
        Parameter file                 internal GFN2-xTB/ALPB
        Dielectric constant                8.0200E+01
        Reference state                gsolv [1 M gas/solution]
        Free energy shift                  1.0808E-03 Eh       6.7819E-01 kcal/mol
        Temperature                        2.9815E+02 K
        Density                            1.0000E+00 kg/L
        Solvent mass                       1.8000E+01 g/mol
        Interaction kernel             P16
        Born radius scaling (c1)           1.4744E+00
        Born radii integrator          GBOBC
        Born offset                        0.0000E+00 a0       0.0000E+00 AA
        H-bond correction              true
        Ion screening                  false
        Surface tension                    1.0000E-05 Eh       1.5569E+01 dyn/cm
        Grid points                               230 per atom
q/qsh data taken from xtbrestart
CAMM data taken from xtbrestart

          ...................................................
          :                      SETUP                      :
          :.................................................:
          :  # basis functions                  72          :
          :  # atomic orbitals                  72          :
          :  # shells                           42          :
          :  # electrons                        78          :
          :  max. iterations                   250          :
          :  Hamiltonian                  GFN2-xTB          :
          :  restarted?                       true          :
          :  GBSA solvation                   true          :
          :  PC potential                    false          :
          :  electronic temp.          300.0000000     K    :
          :  accuracy                    0.2000000          :
          :  -> integral cutoff          0.3198970E+02      :
          :  -> integral neglect         0.2000000E-08      :
          :  -> SCF convergence          0.2000000E-06 Eh   :
          :  -> wf. convergence          0.2000000E-04 e    :
          :  Broyden damping             0.4000000          :
          :  net charge                          0          :
          :  unpaired electrons                  0          :
          ...................................................

 iter      E             dE          RMSdq      gap      omega  full diag
   1    -44.3034367 -0.443034E+02  0.378E-01    3.53       0.0  T
   2    -44.3034695 -0.327180E-04  0.221E-01    3.53       1.0  T
   3    -44.3034649  0.458076E-05  0.305E-02    3.53       1.0  T
   4    -44.3034847 -0.198158E-04  0.116E-02    3.53       1.7  T
   5    -44.3034854 -0.743197E-06  0.615E-03    3.53       3.1  T
   6    -44.3034855 -0.909747E-07  0.235E-03    3.53       8.2  T
   7    -44.3034856 -0.462032E-07  0.477E-04    3.53      40.3  T
   8    -44.3034856 -0.212111E-08  0.199E-04    3.53      96.5  T
   9    -44.3034856 -0.903739E-10  0.948E-05    3.53     203.0  T

   *** convergence criteria satisfied after 9 iterations ***

         #    Occupation            Energy/Eh            Energy/eV
      -------------------------------------------------------------
         1        2.0000           -0.6930587             -18.8591
       ...           ...                  ...                  ...
        33        2.0000           -0.4176373             -11.3645
        34        2.0000           -0.4157112             -11.3121
        35        2.0000           -0.4100819             -11.1589
        36        2.0000           -0.3960893             -10.7781
        37        2.0000           -0.3826243             -10.4117
        38        2.0000           -0.3765627             -10.2468
        39        2.0000           -0.3615982              -9.8396 (HOMO)
        40                         -0.2319107              -6.3106 (LUMO)
        41                         -0.1976253              -5.3777
        42                         -0.1821209              -4.9558
        43                         -0.1587825              -4.3207
        44                         -0.0724100              -1.9704
       ...                                ...                  ...
        72                          0.7207109              19.6115
      -------------------------------------------------------------
                  HL-Gap            0.1296876 Eh            3.5290 eV
             Fermi-level           -0.2967544 Eh           -8.0751 eV

 SCC (total)                   0 d,  0 h,  0 min,  0.015 sec
 SCC setup                      ...        0 min,  0.000 sec (  2.127%)
 Dispersion                     ...        0 min,  0.000 sec (  0.640%)
 classical contributions        ...        0 min,  0.000 sec (  0.109%)
 integral evaluation            ...        0 min,  0.002 sec (  9.951%)
 iterations                     ...        0 min,  0.009 sec ( 57.601%)
 molecular gradient             ...        0 min,  0.004 sec ( 29.065%)
 printout                       ...        0 min,  0.000 sec (  0.433%)

         :::::::::::::::::::::::::::::::::::::::::::::::::::::
         ::                     SUMMARY                     ::
         :::::::::::::::::::::::::::::::::::::::::::::::::::::
         :: total energy             -43.677454293554 Eh    ::
         :: total w/o Gsasa/hb       -43.669246370964 Eh    ::
         :: gradient norm              0.019048503349 Eh/a0 ::
         :: HOMO-LUMO gap              3.528978133791 eV    ::
         ::.................................................::
         :: SCC energy               -44.303326927432 Eh    ::
         :: -> isotropic ES            0.180508816465 Eh    ::
         :: -> anisotropic ES         -0.007170141320 Eh    ::
         :: -> anisotropic XC          0.016257108660 Eh    ::
         :: -> dispersion             -0.026154014537 Eh    ::
         :: -> Gsolv                  -0.071619439881 Eh    ::
         ::    -> Gelec               -0.063411517291 Eh    ::
         ::    -> Gsasa                0.001726737906 Eh    ::
         ::    -> Ghb                 -0.011015420194 Eh    ::
         ::    -> Gshift               0.001080759698 Eh    ::
         :: repulsion energy           0.625872633878 Eh    ::
         :: add. restraining           0.000000000000 Eh    ::
         :: total charge              -0.000000000000 e     ::
         :::::::::::::::::::::::::::::::::::::::::::::::::::::


Property printout bound to 'properties.out'

           -------------------------------------------------
          | TOTAL ENERGY              -43.677454293554 Eh   |
          | GRADIENT NORM               0.019048503349 Eh/α |
          | HOMO-LUMO GAP               3.528978133791 eV   |
           -------------------------------------------------

------------------------------------------------------------------------
 * finished run on 2026/04/09 at 18:40:48.644     
------------------------------------------------------------------------
 total:
 * wall-time:     0 d,  0 h,  0 min,  0.021 sec
 *  cpu-time:     0 d,  0 h,  0 min,  0.019 sec
 * ratio c/w:     0.905 speedup
 SCF:
 * wall-time:     0 d,  0 h,  0 min,  0.016 sec
 *  cpu-time:     0 d,  0 h,  0 min,  0.014 sec
 * ratio c/w:     0.875 speedup


-------------------------   --------------------
FINAL SINGLE POINT ENERGY       -43.677454293550
-------------------------   --------------------


-------------
DIPOLE MOMENT
-------------
                                X             Y             Z
Total Dipole Moment    :     -4.90100      -2.28400       1.75800
                        -----------------------------------------
Magnitude (a.u.)       :      5.68569
Magnitude (Debye)      :     14.45186


------------------
CARTESIAN GRADIENT
------------------

   1   N   :    0.008166514    0.002869244    0.001777087
   2   C   :   -0.004505272    0.006171172   -0.005428953
   3   C   :    0.000637814   -0.004495136    0.003703554
   4   C   :    0.001145721    0.003476550   -0.000405637
   5   C   :   -0.000808717   -0.001591018   -0.000056658
   6   N   :    0.000468406    0.000319405    0.000385049
   7   C   :    0.000412055    0.002290188    0.000704713
   8   C   :    0.000283395   -0.002294330   -0.001071185
   9   C   :    0.001315796    0.002546358    0.000688345
  10   C   :   -0.002823522    0.000274644    0.001140939
  11   C   :    0.000726739   -0.004041278   -0.003437341
  12   C   :    0.000394272   -0.001781849   -0.000038896
  13   C   :    0.001851619   -0.003441865    0.000584120
  14   O   :   -0.002174642    0.000746456   -0.003526746
  15   O   :   -0.001530966    0.001185968    0.003889426
  16   H   :   -0.000311547   -0.000483549   -0.001556947
  17   H   :   -0.003827237   -0.002097781   -0.000113062
  18   H   :    0.000115446   -0.000590761    0.000282254
  19   H   :    0.000438006   -0.000593783    0.002060840
  20   H   :   -0.000549944    0.000661186   -0.000226849
  21   H   :    0.000521023   -0.000025074   -0.000318275
  22   H   :   -0.000728912   -0.000502977    0.000004131
  23   H   :    0.000253546    0.000732008    0.000085826
  24   H   :    0.000106900    0.000415862    0.000059493
  25   H   :   -0.000016903   -0.000094792    0.000090982
  26   H   :    0.000385166    0.000100267   -0.000082695
  27   H   :    0.000055245    0.000244885    0.000806485

Difference to translation invariance:
           :    0.0000000000   -0.0000000000    0.0000000000

Difference to rotation invariance:
           :   -0.0000438314    0.0000339399   -0.0000635608

Norm of the Cartesian gradient     ...    0.0190485033
RMS gradient                       ...    0.0021165004
MAX gradient                       ...    0.0081665136
------------------------------------------------------------------------------
                         ORCA GEOMETRY RELAXATION STEP
------------------------------------------------------------------------------

Reading the OPT-File                    .... done
Getting information on internals        .... done
Copying old internal coords+grads       .... done
Making the new internal coordinates     .... (2022 redundants) done
Validating the new internal coordinates .... (2022 redundants) done
Calculating the B-matrix                .... done
Calculating the G,G- and P matrices     .... done
Transforming gradient to internals      .... done
Projecting the internal gradient        .... done
Number of atoms                         ....  27
Number of internal coordinates          .... 138
Current Energy                          ....   -43.677454294 Eh
Current gradient norm                   ....     0.019048503 Eh/bohr
Maximum allowed component of the step   ....  0.300
Current trust radius                    ....  0.700
Updating the Hessian (BFGS)             .... done
Forming the augmented Hessian           .... done
Diagonalizing the augmented Hessian     .... done
Last element of RFO vector              ....  0.876986850
Lowest eigenvalues of augmented Hessian:
 -0.002771173  0.001529729  0.014563930  0.016517859  0.020324222
Length of the computed step             ....  0.547915144
The final length of the internal step   ....  0.547915144
Converting the step to Cartesian space:
 Initial RMS(Int)=    0.0466416345
Transforming coordinates:
 Iter   0:  RMS(Cart)=    0.0930616754 RMS(Int)=    0.5362859584
 Iter   5:  RMS(Cart)=    0.0000081702 RMS(Int)=    0.0000056608
done
Storing new coordinates                 .... done
The predicted energy change is          ....    -0.001801555
Previously predicted energy change      ....    -0.002208886
Actually observed energy change         ....    -0.002340413
Ratio of predicted to observed change   ....     1.059544088
New trust radius                        ....     0.700000000

                                .--------------------.
          ----------------------|Geometry convergence|-------------------------
          Item                value                   Tolerance       Converged
          ---------------------------------------------------------------------
          Energy change      -0.0023404125            0.0000050000      NO
          RMS gradient        0.0012100370            0.0001000000      NO
          MAX gradient        0.0039675729            0.0003000000      NO
          RMS step            0.0466416345            0.0020000000      NO
          MAX step            0.1991610547            0.0040000000      NO
          -------------------------------------------------------------------------
          ........................................................
          Max(Bonds)      0.0133      Max(Angles)    2.92
          Max(Dihed)       11.41      Max(Improp)    0.00
          ---------------------------------------------------------------------

The optimization has not yet converged - more geometry cycles are needed


    ---------------------------------------------------------------------------
                         Redundant Internal Coordinates
                            (Angstroem and degrees)

        Definition                    Value    dE/dq     Step     New-Value
    ----------------------------------------------------------------------------
     1. B(C   1,N   0)                1.4824 -0.001169  0.0042    1.4866   
     2. B(C   2,C   1)                1.5143 -0.003662  0.0081    1.5224   
     3. B(C   3,C   2)                1.4926 -0.001102  0.0035    1.4960   
     4. B(C   4,C   3)                1.3686  0.001782 -0.0058    1.3628   
     5. B(N   5,C   4)                1.3652 -0.000625  0.0016    1.3668   
     6. B(C   6,N   5)                1.3627 -0.000706  0.0034    1.3661   
     7. B(C   7,C   6)                1.3893 -0.000129 -0.0006    1.3887   
     8. B(C   8,C   7)                1.3806  0.001570 -0.0035    1.3771   
     9. B(C   9,C   8)                1.3958 -0.001973  0.0047    1.4005   
    10. B(C  10,C   9)                1.3785  0.001210 -0.0023    1.3762   
    11. B(C  11,C  10)                1.3929 -0.002699  0.0055    1.3983   
    12. B(C  11,C   6)                1.4153 -0.002237  0.0065    1.4217   
    13. B(C  11,C   3)                1.4286 -0.001622  0.0035    1.4321   
    14. B(C  12,C   1)                1.5834 -0.002355  0.0033    1.5866   
    15. B(O  13,C  12)                1.2442 -0.003968  0.0076    1.2518   
    16. B(O  14,C  12)                1.2323 -0.003777  0.0037    1.2360   
    17. B(H  15,N   0)                1.0251  0.000188 -0.0037    1.0214   
    18. B(H  16,N   0)                1.0327 -0.002804  0.0133    1.0461   
    19. B(H  17,N   0)                1.0248 -0.000579  0.0014    1.0262   
    20. B(H  18,C   1)                1.0962  0.000542 -0.0016    1.0946   
    21. B(H  19,C   2)                1.0913 -0.000157  0.0012    1.0925   
    22. B(H  20,C   2)                1.0925 -0.000128  0.0011    1.0936   
    23. B(H  21,C   4)                1.0725 -0.000118  0.0007    1.0732   
    24. B(H  22,N   5)                1.0049 -0.000748  0.0028    1.0077   
    25. B(H  23,C   7)                1.0785 -0.000378  0.0015    1.0800   
    26. B(H  24,C   8)                1.0800  0.000042 -0.0000    1.0800   
    27. B(H  25,C   9)                1.0796 -0.000058 -0.0002    1.0794   
    28. B(H  26,C  10)                1.0808  0.000330 -0.0008    1.0800   
    29. A(H  16,N   0,H  17)          107.95  0.000173   -1.22    106.74   
    30. A(H  15,N   0,H  17)          109.07  0.000401    0.15    109.22   
    31. A(H  15,N   0,H  16)          112.46 -0.000954    1.21    113.68   
    32. A(C   1,N   0,H  15)          110.88 -0.003304    2.67    113.54   
    33. A(C   1,N   0,H  16)          106.19  0.002918   -2.92    103.28   
    34. A(C   1,N   0,H  17)          110.22  0.000920   -0.08    110.14   
    35. A(C   2,C   1,C  12)          114.71  0.001336   -0.30    114.41   
    36. A(C   2,C   1,H  18)          110.28  0.001478   -0.61    109.67   
    37. A(N   0,C   1,C   2)          112.75  0.002555   -0.19    112.56   
    38. A(N   0,C   1,C  12)          105.93 -0.003184    0.50    106.43   
    39. A(N   0,C   1,H  18)          107.28 -0.002043    1.02    108.29   
    40. A(C  12,C   1,H  18)          105.36 -0.000689   -0.31    105.05   
    41. A(C   1,C   2,C   3)          112.40  0.001321   -0.20    112.20   
    42. A(H  19,C   2,H  20)          106.53 -0.000757    0.46    106.98   
    43. A(C   3,C   2,H  20)          110.21  0.000328   -0.52    109.68   
    44. A(C   3,C   2,H  19)          110.76 -0.000502    0.22    110.98   
    45. A(C   1,C   2,H  20)          109.27 -0.000686    0.59    109.86   
    46. A(C   1,C   2,H  19)          107.47  0.000174   -0.47    107.01   
    47. A(C   2,C   3,C   4)          127.94  0.002426   -0.59    127.35   
    48. A(C   2,C   3,C  11)          125.99 -0.001201    0.18    126.17   
    49. A(C   4,C   3,C  11)          106.05 -0.001230    0.43    106.48   
    50. A(N   5,C   4,H  21)          120.51 -0.000639    0.07    120.58   
    51. A(C   3,C   4,H  21)          129.16  0.001138   -0.23    128.93   
    52. A(C   3,C   4,N   5)          110.33 -0.000500    0.16    110.49   
    53. A(C   6,N   5,H  22)          125.58 -0.000286    0.15    125.73   
    54. A(C   4,N   5,H  22)          125.21 -0.000229    0.01    125.22   
    55. A(C   4,N   5,C   6)          109.11  0.000511   -0.18    108.93   
    56. A(C   7,C   6,C  11)          121.94  0.000733   -0.18    121.76   
    57. A(N   5,C   6,C  11)          107.45 -0.000591    0.12    107.56   
    58. A(N   5,C   6,C   7)          130.61 -0.000143    0.07    130.68   
    59. A(C   6,C   7,C   8)          117.59 -0.000345    0.03    117.62   
    60. A(C   8,C   7,H  23)          121.08 -0.000009   -0.01    121.07   
    61. A(C   6,C   7,H  23)          121.33  0.000354   -0.02    121.31   
    62. A(C   9,C   8,H  24)          119.22  0.000221   -0.00    119.22   
    63. A(C   7,C   8,H  24)          119.46  0.000111   -0.16    119.30   
    64. A(C   7,C   8,C   9)          121.32 -0.000331    0.16    121.48   
    65. A(C  10,C   9,H  25)          119.62  0.000101   -0.10    119.52   
    66. A(C   8,C   9,H  25)          119.34  0.000921   -0.14    119.20   
    67. A(C   8,C   9,C  10)          121.04 -0.001022    0.23    121.27   
    68. A(C   9,C  10,C  11)          119.19  0.001646   -0.46    118.72   
    69. A(C  11,C  10,H  26)          121.11 -0.000293    0.21    121.32   
    70. A(C   9,C  10,H  26)          119.70 -0.001350    0.25    119.95   
    71. A(C   3,C  11,C   6)          107.06  0.001808   -0.53    106.53   
    72. A(C   6,C  11,C  10)          118.92 -0.000681    0.23    119.15   
    73. A(C   3,C  11,C  10)          134.00 -0.001130    0.32    134.32   
    74. A(O  13,C  12,O  14)          128.77 -0.000717    0.48    129.25   
    75. A(C   1,C  12,O  14)          118.10  0.001278    0.41    118.51   
    76. A(C   1,C  12,O  13)          113.13 -0.000602   -0.62    112.51   
    77. D(C   2,C   1,N   0,H  16)   -166.43 -0.002765   11.32   -155.11   
    78. D(C  12,C   1,N   0,H  16)    -40.19 -0.001700   11.11    -29.08   
    79. D(C   2,C   1,N   0,H  17)    -49.75 -0.000463    8.25    -41.50   
    80. D(C  12,C   1,N   0,H  17)     76.49  0.000602    8.04     84.53   
    81. D(C  12,C   1,N   0,H  15)   -162.64 -0.000455    9.92   -152.71   
    82. D(C   2,C   1,N   0,H  15)     71.13 -0.001520   10.13     81.26   
    83. D(H  19,C   2,C   1,H  18)    -64.63 -0.000326   -1.03    -65.65   
    84. D(C   3,C   2,C   1,H  18)     57.48 -0.000004   -1.23     56.25   
    85. D(H  19,C   2,C   1,C  12)     54.11  0.000760   -2.04     52.07   
    86. D(C   3,C   2,C   1,C  12)    176.22  0.001083   -2.25    173.97   
    87. D(C   3,C   2,C   1,N   0)    -62.40 -0.000136   -2.00    -64.40   
    88. D(H  19,C   2,C   1,N   0)    175.49 -0.000459   -1.79    173.70   
    89. D(C   4,C   3,C   2,H  20)    151.58 -0.000458   -0.42    151.16   
    90. D(C   4,C   3,C   2,H  19)     33.95  0.000580   -0.79     33.17   
    91. D(C   4,C   3,C   2,C   1)    -86.27 -0.000188   -0.18    -86.45   
    92. D(C  11,C   3,C   2,H  19)   -148.17  0.000336    0.09   -148.08   
    93. D(C  11,C   3,C   2,C   1)     91.60 -0.000432    0.70     92.30   
    94. D(H  21,C   4,C   3,C  11)    179.33  0.000089   -0.16    179.17   
    95. D(H  21,C   4,C   3,C   2)     -2.46 -0.000133    0.58     -1.88   
    96. D(N   5,C   4,C   3,C  11)     -0.06  0.000253   -0.67     -0.73   
    97. D(N   5,C   4,C   3,C   2)    178.15  0.000031    0.06    178.22   
    98. D(H  22,N   5,C   4,H  21)     -2.16 -0.000056   -0.31     -2.46   
    99. D(H  22,N   5,C   4,C   3)    177.30 -0.000191    0.15    177.45   
   100. D(C   6,N   5,C   4,H  21)   -178.86  0.000011   -0.05   -178.92   
   101. D(C   6,N   5,C   4,C   3)      0.59 -0.000124    0.41      1.00   
   102. D(C  11,C   6,N   5,H  22)   -177.56  0.000004    0.30   -177.26   
   103. D(C  11,C   6,N   5,C   4)     -0.87 -0.000061    0.04     -0.83   
   104. D(C   7,C   6,N   5,C   4)    179.49  0.000007   -0.08    179.42   
   105. D(C   7,C   6,N   5,H  22)      2.80  0.000072    0.19      2.99   
   106. D(C   8,C   7,C   6,C  11)      0.57  0.000028   -0.13      0.45   
   107. D(C   8,C   7,C   6,N   5)   -179.83 -0.000053    0.00   -179.83   
   108. D(H  23,C   7,C   6,C  11)    179.90 -0.000013    0.05    179.95   
   109. D(H  23,C   7,C   6,N   5)     -0.51 -0.000094    0.18     -0.33   
   110. D(H  24,C   8,C   7,H  23)      0.49  0.000095   -0.54     -0.05   
   111. D(H  24,C   8,C   7,C   6)    179.82  0.000056   -0.36    179.46   
   112. D(C   9,C   8,C   7,H  23)   -179.30 -0.000006   -0.23   -179.54   
   113. D(C   9,C   8,C   7,C   6)      0.03 -0.000044   -0.05     -0.03   
   114. D(H  25,C   9,C   8,H  24)     -0.31  0.000002   -0.07     -0.39   
   115. D(H  25,C   9,C   8,C   7)    179.48  0.000103   -0.38    179.10   
   116. D(C  10,C   9,C   8,H  24)    179.90 -0.000053    0.40    180.30   
   117. D(C  10,C   9,C   8,C   7)     -0.31  0.000047    0.10     -0.21   
   118. D(H  26,C  10,C   9,H  25)     -0.60  0.000168   -0.21     -0.81   
   119. D(H  26,C  10,C   9,C   8)    179.19  0.000225   -0.68    178.51   
   120. D(C  11,C  10,C   9,H  25)   -179.80 -0.000074    0.51   -179.29   
   121. D(C  11,C  10,C   9,C   8)     -0.02 -0.000017    0.04      0.03   
   122. D(C   6,C  11,C  10,H  26)   -178.60 -0.000245    0.51   -178.09   
   123. D(C   6,C  11,C  10,C   9)      0.59 -0.000008   -0.22      0.37   
   124. D(C   3,C  11,C  10,C   9)    178.75 -0.000158    0.59    179.34   
   125. D(C  10,C  11,C   6,C   7)     -0.89  0.000005    0.27     -0.62   
   126. D(C  10,C  11,C   6,N   5)    179.43  0.000069    0.16    179.60   
   127. D(C   3,C  11,C   6,C   7)   -179.51  0.000158   -0.36   -179.86   
   128. D(C   3,C  11,C   6,N   5)      0.82  0.000222   -0.46      0.36   
   129. D(C  10,C  11,C   3,C   4)   -178.78 -0.000125   -0.07   -178.85   
   130. D(C   3,C  11,C  10,H  26)     -0.44 -0.000395    1.32      0.88   
   131. D(C  10,C  11,C   3,C   2)      2.96  0.000007   -0.77      2.19   
   132. D(C   6,C  11,C   3,C   4)     -0.46 -0.000290    0.68      0.22   
   133. D(C   6,C  11,C   3,C   2)   -178.72 -0.000158   -0.02   -178.74   
   134. D(O  14,C  12,C   1,C   2)    -31.73  0.002903  -11.41    -43.14   
   135. D(O  14,C  12,C   1,N   0)   -156.76  0.001139  -11.31   -168.07   
   136. D(O  13,C  12,C   1,H  18)    -90.81  0.001026   -6.08    -96.89   
   137. D(O  13,C  12,C   1,C   2)    147.72 -0.001148   -4.92    142.80   
   138. D(O  13,C  12,C   1,N   0)     22.69 -0.002912   -4.82     17.86   
    ----------------------------------------------------------------------------

Geometry step timings:
Preparation and reading OPT file:      0.000 s ( 0.375 %)
Internal coordinates            :      0.000 s ( 0.492 %)
B/P matrices and projection     :      0.002 s (44.890 %)
Hessian update/contruction      :      0.000 s ( 7.361 %)
Making the step                 :      0.001 s (33.521 %)
Converting the step to Cartesian:      0.000 s ( 4.712 %)
Storing new data                :      0.000 s ( 0.469 %)
Checking convergence            :      0.000 s ( 0.586 %)
Final printing                  :      0.000 s ( 7.595 %)
Total time                      :      0.004 s

Time for energy+gradient        :      0.026 s
Time for complete geometry iter :      0.030 s

         *************************************************************
         *                GEOMETRY OPTIMIZATION CYCLE  12            *
         *************************************************************
---------------------------------
CARTESIAN COORDINATES (ANGSTROEM)
---------------------------------
  N     1.873319    0.265878    1.431504
  C     2.381250   -0.041784    0.068656
  C     1.426443    0.412375   -1.026694
  C     0.123296   -0.320968   -0.980199
  C    -0.174221   -1.515848   -1.564057
  N    -1.455768   -1.887272   -1.267606
  C    -2.030176   -0.918792   -0.494083
  C    -3.306177   -0.830765    0.046715
  C    -3.606796    0.285468    0.794983
  C    -2.664007    1.299085    1.007417
  C    -1.395859    1.217436    0.479214
  C    -1.056291    0.095211   -0.282759
  C     3.832635    0.592679   -0.022932
  O     4.312079    0.847229    1.105018
  O     4.372288    0.663840   -1.132614
  H     1.193940   -0.414123    1.776785
  H     2.745439    0.318145    2.006745
  H     1.452345    1.201640    1.448306
  H     2.538158   -1.122601   -0.003970
  H     1.933391    0.248307   -1.980487
  H     1.247265    1.487804   -0.940963
  H     0.445608   -2.137818   -2.181029
  H    -1.916298   -2.713888   -1.614086
  H    -4.040644   -1.605029   -0.119120
  H    -4.594084    0.385997    1.221018
  H    -2.943577    2.165047    1.587889
  H    -0.693558    2.022746    0.636349

----------------------------
CARTESIAN COORDINATES (A.U.)
----------------------------
  NO LB    ZA    FRAG    MASS        X           Y           Z
   0 N   7.0000    0    14.007    3.540060    0.502437    2.705150
   1 C   6.0000    0    12.011    4.499910   -0.078960    0.129741
   2 C   6.0000    0    12.011    2.695588    0.779276   -1.940171
   3 C   6.0000    0    12.011    0.232996   -0.606542   -1.852308
   4 C   6.0000    0    12.011   -0.329231   -2.864537   -2.955640
   5 N   7.0000    0    14.007   -2.751002   -3.566428   -2.395427
   6 C   6.0000    0    12.011   -3.836477   -1.736266   -0.933681
   7 C   6.0000    0    12.011   -6.247769   -1.569917    0.088279
   8 C   6.0000    0    12.011   -6.815856    0.539456    1.502300
   9 C   6.0000    0    12.011   -5.034244    2.454915    1.903741
  10 C   6.0000    0    12.011   -2.637792    2.300621    0.905583
  11 C   6.0000    0    12.011   -1.996101    0.179923   -0.534338
  12 C   6.0000    0    12.011    7.242630    1.120000   -0.043334
  13 O   8.0000    0    15.999    8.148649    1.601031    2.088182
  14 O   8.0000    0    15.999    8.262427    1.254476   -2.140330
  15 H   1.0000    0     1.008    2.256220   -0.782579    3.357636
  16 H   1.0000    0     1.008    5.188127    0.601206    3.792199
  17 H   1.0000    0     1.008    2.744535    2.270771    2.736902
  18 H   1.0000    0     1.008    4.796424   -2.121408   -0.007502
  19 H   1.0000    0     1.008    3.653579    0.469232   -3.742577
  20 H   1.0000    0     1.008    2.356989    2.811543   -1.778162
  21 H   1.0000    0     1.008    0.842078   -4.039890   -4.121548
  22 H   1.0000    0     1.008   -3.621279   -5.128505   -3.050181
  23 H   1.0000    0     1.008   -7.635711   -3.033065   -0.225104
  24 H   1.0000    0     1.008   -8.681561    0.729429    2.307390
  25 H   1.0000    0     1.008   -5.562555    4.091346    3.000675
  26 H   1.0000    0     1.008   -1.310636    3.822435    1.202524

      -----------------------------------------------------------      
     |                   =====================                   |     
     |                           x T B                           |     
     |                   =====================                   |     
     |                         S. Grimme                         |     
     |          Mulliken Center for Theoretical Chemistry        |     
     |                    University of Bonn                     |     
      -----------------------------------------------------------      

   * xtb version 6.7.1 (edcfbbe) compiled by 'albert@albert-system' on 2024-07-22

   xtb is free software: you can redistribute it and/or modify it under
   the terms of the GNU Lesser General Public License as published by
   the Free Software Foundation, either version 3 of the License, or
   (at your option) any later version.
   
   xtb is distributed in the hope that it will be useful,
   but WITHOUT ANY WARRANTY; without even the implied warranty of
   MERCHANTABILITY or FITNESS FOR A PARTICULAR PURPOSE.  See the
   GNU Lesser General Public License for more details.
   
   Cite this work as:
   * C. Bannwarth, E. Caldeweyher, S. Ehlert, A. Hansen, P. Pracht,
     J. Seibert, S. Spicher, S. Grimme, WIREs Comput. Mol. Sci., 2020, 11,
     e01493. DOI: 10.1002/wcms.1493
   
   for GFN2-xTB:
   * C. Bannwarth, S. Ehlert and S. Grimme., J. Chem. Theory Comput., 2019,
     15, 1652-1671. DOI: 10.1021/acs.jctc.8b01176
   for GFN1-xTB:
   * S. Grimme, C. Bannwarth, P. Shushkov, J. Chem. Theory Comput., 2017,
     13, 1989-2009. DOI: 10.1021/acs.jctc.7b00118
   for GFN0-xTB:
   * P. Pracht, E. Caldeweyher, S. Ehlert, S. Grimme, ChemRxiv, 2019, preprint.
     DOI: 10.26434/chemrxiv.8326202.v1
   for GFN-FF:
   * S. Spicher and S. Grimme, Angew. Chem. Int. Ed., 2020, 59, 15665-15673.
     DOI: 10.1002/anie.202004239
   
   for ALPB and GBSA implicit solvation:
   * S. Ehlert, M. Stahn, S. Spicher, S. Grimme, J. Chem. Theory Comput.,
     2021, 17, 4250-4261. DOI: 10.1021/acs.jctc.1c00471
   
   for ddCOSMO and CPCM-X implicit solvation:
   * M. Stahn, S. Ehlert, S. Grimme, J. Phys. Chem. A,
     2023, XX, XXXX-XXXX. DOI: 10.1021/acs.jpca.3c04382
   
   for DFT-D4:
   * E. Caldeweyher, C. Bannwarth and S. Grimme, J. Chem. Phys., 2017,
     147, 034112. DOI: 10.1063/1.4993215
   * E. Caldeweyher, S. Ehlert, A. Hansen, H. Neugebauer, S. Spicher,
     C. Bannwarth and S. Grimme, J. Chem. Phys., 2019, 150, 154122.
     DOI: 10.1063/1.5090222
   * E. Caldeweyher, J.-M. Mewes, S. Ehlert and S. Grimme, Phys. Chem. Chem. Phys.
     2020, 22, 8499-8512. DOI: 10.1039/D0CP00502A
   
   for sTDA-xTB:
   * S. Grimme and C. Bannwarth, J. Chem. Phys., 2016, 145, 054103.
     DOI: 10.1063/1.4959605
   
   in the mass-spec context:
   * V. Asgeirsson, C. Bauer and S. Grimme, Chem. Sci., 2017, 8, 4879.
     DOI: 10.1039/c7sc00601b
   * J. Koopman and S. Grimme, ACS Omega 2019, 4, 12, 15120-15133.
     DOI: 10.1021/acsomega.9b02011
   
   for metadynamics refer to:
   * S. Grimme, J. Chem. Theory Comput., 2019, 155, 2847-2862
     DOI: 10.1021/acs.jctc.9b00143
   
   for SPH calculations refer to:
   * S. Spicher and S. Grimme, J. Chem. Theory Comput., 2021, 17, 1701-1714
     DOI: 10.1021/acs.jctc.0c01306
   
   for ONIOM refer to:
   * C. Plett, A. Katbashev, S. Ehlert, S. Grimme, M. Bursch,
     Phys. Chem. Chem. Phys., 2023, 25, 17860-17868. DOI: 10.1039/D3CP02178E
   
   for DIPRO refer to:
   * J. Kohn, N. Gildemeister, S. Grimme, D. Fazzi, A. Hansen,
     J. Chem. Phys., 2023, just accepted.
   
   for PTB refer to:
   * S. Grimme, M. Mueller, A. Hansen, J. Chem. Phys., 2023, 158, 124111.
     DOI: 10.1063/5.0137838
   
   with help from (in alphabetical order)
   P. Atkinson, C. Bannwarth, F. Bohle, G. Brandenburg, E. Caldeweyher
   M. Checinski, S. Dohm, S. Ehlert, S. Ehrlich, I. Gerasimov, C. Hölzer
   A. Katbashev, J. Kohn, J. Koopman, C. Lavigne, S. Lehtola, F. März, M. Müller,
   F. Musil, H. Neugebauer, J. Pisarek, C. Plett, P. Pracht, F. Pultar,
   J. Seibert, P. Shushkov, S. Spicher, M. Stahn, M. Steiner, T. Strunk,
   J. Stückrath, T. Rose, and J. Unsleber
   
 * started run on 2026/04/09 at 18:40:48.653     
   ID    Z sym.   atoms
    1    7 N      1, 6
    2    6 C      2-5, 7-13
    3    8 O      14, 15
    4    1 H      16-27

           -------------------------------------------------
          |                Calculation Setup                |
           -------------------------------------------------

          program call               : /home/analima/Programs/orca-6.1.0-f.0_linux_x86-64/bin/otool_xtb geo_opt_XTB.xyz --grad -c 0 -u 0 -P 1 --namespace geo_opt --input geo_opt_XTB.input.tmp --alpb WATER --acc 0.200000
          calculation namespace      : geo_opt
          coordinate file            : geo_opt_XTB.xyz
          omp threads                :                     1


           -------------------------------------------------
          |                 G F N 2 - x T B                 |
           -------------------------------------------------

        Reference                      10.1021/acs.jctc.8b01176
      * Hamiltonian:
        H0-scaling (s, p, d)           1.850000    2.230000    2.230000
        zeta-weighting                 0.500000
      * Dispersion:
        s8                             2.700000
        a1                             0.520000
        a2                             5.000000
        s9                             5.000000
      * Repulsion:
        kExp                           1.500000    1.000000
        rExp                           1.000000
      * Coulomb:
        alpha                          2.000000
        third order                    shell-resolved
        anisotropic                    true
        a3                             3.000000
        a5                             4.000000
        cn-shift                       1.200000
        cn-exp                         4.000000
        max-rad                        5.000000

      * Solvation model:               ALPB
        Solvent                        WATER
        Parameter file                 internal GFN2-xTB/ALPB
        Dielectric constant                8.0200E+01
        Reference state                gsolv [1 M gas/solution]
        Free energy shift                  1.0808E-03 Eh       6.7819E-01 kcal/mol
        Temperature                        2.9815E+02 K
        Density                            1.0000E+00 kg/L
        Solvent mass                       1.8000E+01 g/mol
        Interaction kernel             P16
        Born radius scaling (c1)           1.4744E+00
        Born radii integrator          GBOBC
        Born offset                        0.0000E+00 a0       0.0000E+00 AA
        H-bond correction              true
        Ion screening                  false
        Surface tension                    1.0000E-05 Eh       1.5569E+01 dyn/cm
        Grid points                               230 per atom
q/qsh data taken from xtbrestart
CAMM data taken from xtbrestart

          ...................................................
          :                      SETUP                      :
          :.................................................:
          :  # basis functions                  72          :
          :  # atomic orbitals                  72          :
          :  # shells                           42          :
          :  # electrons                        78          :
          :  max. iterations                   250          :
          :  Hamiltonian                  GFN2-xTB          :
          :  restarted?                       true          :
          :  GBSA solvation                   true          :
          :  PC potential                    false          :
          :  electronic temp.          300.0000000     K    :
          :  accuracy                    0.2000000          :
          :  -> integral cutoff          0.3198970E+02      :
          :  -> integral neglect         0.2000000E-08      :
          :  -> SCF convergence          0.2000000E-06 Eh   :
          :  -> wf. convergence          0.2000000E-04 e    :
          :  Broyden damping             0.4000000          :
          :  net charge                          0          :
          :  unpaired electrons                  0          :
          ...................................................

 iter      E             dE          RMSdq      gap      omega  full diag
   1    -44.2969236 -0.442969E+02  0.303E-01    3.56       0.0  T
   2    -44.2969700 -0.464092E-04  0.177E-01    3.56       1.0  T
   3    -44.2969674  0.261036E-05  0.292E-02    3.56       1.0  T
   4    -44.2969797 -0.122904E-04  0.974E-03    3.56       2.0  T
   5    -44.2969803 -0.696004E-06  0.497E-03    3.56       3.9  T
   6    -44.2969805 -0.112889E-06  0.247E-03    3.56       7.8  T
   7    -44.2969805 -0.260478E-07  0.558E-04    3.56      34.5  T
   8    -44.2969805 -0.298220E-08  0.266E-04    3.56      72.4  T
   9    -44.2969805 -0.278341E-09  0.123E-04    3.56     156.9  T
  10    -44.2969805 -0.764402E-10  0.391E-05    3.56     491.9  T

   *** convergence criteria satisfied after 10 iterations ***

         #    Occupation            Energy/Eh            Energy/eV
      -------------------------------------------------------------
         1        2.0000           -0.6929510             -18.8562
       ...           ...                  ...                  ...
        33        2.0000           -0.4174301             -11.3589
        34        2.0000           -0.4157249             -11.3125
        35        2.0000           -0.4127197             -11.2307
        36        2.0000           -0.3997779             -10.8785
        37        2.0000           -0.3816260             -10.3846
        38        2.0000           -0.3790352             -10.3141
        39        2.0000           -0.3620506              -9.8519 (HOMO)
        40                         -0.2310614              -6.2875 (LUMO)
        41                         -0.1983049              -5.3962
        42                         -0.1869808              -5.0880
        43                         -0.1577528              -4.2927
        44                         -0.0736221              -2.0034
       ...                                ...                  ...
        72                          0.7141339              19.4326
      -------------------------------------------------------------
                  HL-Gap            0.1309892 Eh            3.5644 eV
             Fermi-level           -0.2965560 Eh           -8.0697 eV

 SCC (total)                   0 d,  0 h,  0 min,  0.014 sec
 SCC setup                      ...        0 min,  0.001 sec (  3.705%)
 Dispersion                     ...        0 min,  0.000 sec (  1.164%)
 classical contributions        ...        0 min,  0.000 sec (  0.223%)
 integral evaluation            ...        0 min,  0.002 sec ( 15.217%)
 iterations                     ...        0 min,  0.007 sec ( 47.200%)
 molecular gradient             ...        0 min,  0.004 sec ( 32.053%)
 printout                       ...        0 min,  0.000 sec (  0.366%)

         :::::::::::::::::::::::::::::::::::::::::::::::::::::
         ::                     SUMMARY                     ::
         :::::::::::::::::::::::::::::::::::::::::::::::::::::
         :: total energy             -43.678912468814 Eh    ::
         :: total w/o Gsasa/hb       -43.670702297596 Eh    ::
         :: gradient norm              0.016761523727 Eh/a0 ::
         :: HOMO-LUMO gap              3.564397731431 eV    ::
         ::.................................................::
         :: SCC energy               -44.296825150483 Eh    ::
         :: -> isotropic ES            0.176149891230 Eh    ::
         :: -> anisotropic ES         -0.007994227360 Eh    ::
         :: -> anisotropic XC          0.016449977620 Eh    ::
         :: -> dispersion             -0.026053284997 Eh    ::
         :: -> Gsolv                  -0.069698961431 Eh    ::
         ::    -> Gelec               -0.061488790213 Eh    ::
         ::    -> Gsasa                0.001737609482 Eh    ::
         ::    -> Ghb                 -0.011028540398 Eh    ::
         ::    -> Gshift               0.001080759698 Eh    ::
         :: repulsion energy           0.617912681668 Eh    ::
         :: add. restraining           0.000000000000 Eh    ::
         :: total charge               0.000000000000 e     ::
         :::::::::::::::::::::::::::::::::::::::::::::::::::::


Property printout bound to 'properties.out'

           -------------------------------------------------
          | TOTAL ENERGY              -43.678912468814 Eh   |
          | GRADIENT NORM               0.016761523727 Eh/α |
          | HOMO-LUMO GAP               3.564397731431 eV   |
           -------------------------------------------------

------------------------------------------------------------------------
 * finished run on 2026/04/09 at 18:40:48.673     
------------------------------------------------------------------------
 total:
 * wall-time:     0 d,  0 h,  0 min,  0.020 sec
 *  cpu-time:     0 d,  0 h,  0 min,  0.018 sec
 * ratio c/w:     0.921 speedup
 SCF:
 * wall-time:     0 d,  0 h,  0 min,  0.014 sec
 *  cpu-time:     0 d,  0 h,  0 min,  0.012 sec
 * ratio c/w:     0.892 speedup


-------------------------   --------------------
FINAL SINGLE POINT ENERGY       -43.678912468810
-------------------------   --------------------


-------------
DIPOLE MOMENT
-------------
                                X             Y             Z
Total Dipole Moment    :     -4.88800      -1.92800       1.77700
                        -----------------------------------------
Magnitude (a.u.)       :      5.54684
Magnitude (Debye)      :     14.09895


------------------
CARTESIAN GRADIENT
------------------

   1   N   :   -0.000634748   -0.002078848    0.002909340
   2   C   :    0.002397294    0.000535040   -0.002159124
   3   C   :    0.000115588   -0.003099135    0.001593520
   4   C   :   -0.000209441   -0.003298974   -0.002020307
   5   C   :    0.001391646    0.003413396    0.001010640
   6   N   :    0.001400698   -0.001087113   -0.000336247
   7   C   :   -0.004214856    0.000060721    0.001380919
   8   C   :    0.000356046    0.000320610    0.000172044
   9   C   :   -0.000044930   -0.001770165   -0.001047571
  10   C   :    0.000767380    0.001530795    0.001209936
  11   C   :   -0.000086064    0.001534908    0.000735928
  12   C   :    0.001094555    0.001332297   -0.000053199
  13   C   :   -0.004597689    0.008064694   -0.003783560
  14   O   :    0.000807322   -0.002720639    0.003986742
  15   O   :    0.004131796   -0.002652327   -0.003493412
  16   H   :   -0.000677928    0.001164168   -0.000496988
  17   H   :   -0.001325906   -0.000892634    0.000932194
  18   H   :    0.000941212    0.000993617    0.000916845
  19   H   :    0.000017665   -0.000578073    0.000913573
  20   H   :    0.000475519    0.000481294   -0.000525011
  21   H   :   -0.000752275    0.000775229   -0.000574302
  22   H   :   -0.000352901   -0.000475012   -0.000211079
  23   H   :   -0.000658640   -0.001408989   -0.000885678
  24   H   :   -0.000426463   -0.000220072    0.000100535
  25   H   :   -0.000184699   -0.000403060   -0.000348680
  26   H   :    0.000593428    0.000120519   -0.000452812
  27   H   :   -0.000323607    0.000357754    0.000525755

Difference to translation invariance:
           :    0.0000000000    0.0000000000   -0.0000000000

Difference to rotation invariance:
           :   -0.0000577169   -0.0001387505    0.0000451931

Norm of the Cartesian gradient     ...    0.0167615237
RMS gradient                       ...    0.0018623915
MAX gradient                       ...    0.0080646944
------------------------------------------------------------------------------
                         ORCA GEOMETRY RELAXATION STEP
------------------------------------------------------------------------------

Reading the OPT-File                    .... done
Getting information on internals        .... done
Copying old internal coords+grads       .... done
Making the new internal coordinates     .... (2022 redundants) done
Validating the new internal coordinates .... (2022 redundants) done
Calculating the B-matrix                .... done
Calculating the G,G- and P matrices     .... done
Transforming gradient to internals      .... done
Projecting the internal gradient        .... done
Number of atoms                         ....  27
Number of internal coordinates          .... 138
Current Energy                          ....   -43.678912469 Eh
Current gradient norm                   ....     0.016761524 Eh/bohr
Maximum allowed component of the step   ....  0.300
Current trust radius                    ....  0.700
Updating the Hessian (BFGS)             .... done
Forming the augmented Hessian           .... done
Diagonalizing the augmented Hessian     .... done
Last element of RFO vector              ....  0.811413294
Lowest eigenvalues of augmented Hessian:
 -0.001941268  0.001847909  0.014519034  0.016540237  0.018750344
Length of the computed step             ....  0.720314561
Warning: the length of the step is outside the trust region - taking restricted step instead
The input lambda is                     ....    -0.000431
   iter:   5  x=   -0.002014  g=  388.579409 f(x)=     0.011679
The output lambda is                    ....    -0.002015 (8 iterations)
The final length of the internal step   ....  0.700000000
Converting the step to Cartesian space:
 Initial RMS(Int)=    0.0595879572
Transforming coordinates:
 Iter   0:  RMS(Cart)=    0.0981914491 RMS(Int)=    0.0592837009
 Iter   5:  RMS(Cart)=    0.0000135321 RMS(Int)=    0.0000095649
done
Storing new coordinates                 .... done
The predicted energy change is          ....    -0.001445721
Previously predicted energy change      ....    -0.001801555
Actually observed energy change         ....    -0.001458175
Ratio of predicted to observed change   ....     0.809398110
New trust radius                        ....     0.700000000

                                .--------------------.
          ----------------------|Geometry convergence|-------------------------
          Item                value                   Tolerance       Converged
          ---------------------------------------------------------------------
          Energy change      -0.0014581753            0.0000050000      NO
          RMS gradient        0.0011707260            0.0001000000      NO
          MAX gradient        0.0047886980            0.0003000000      NO
          RMS step            0.0595879572            0.0020000000      NO
          MAX step            0.2283940733            0.0040000000      NO
          -------------------------------------------------------------------------
          ........................................................
          Max(Bonds)      0.0065      Max(Angles)    1.44
          Max(Dihed)       13.09      Max(Improp)    0.00
          ---------------------------------------------------------------------

The optimization has not yet converged - more geometry cycles are needed


    ---------------------------------------------------------------------------
                         Redundant Internal Coordinates
                            (Angstroem and degrees)

        Definition                    Value    dE/dq     Step     New-Value
    ----------------------------------------------------------------------------
     1. B(C   1,N   0)                1.4866  0.004315 -0.0065    1.4801   
     2. B(C   2,C   1)                1.5224 -0.000083 -0.0035    1.5189   
     3. B(C   3,C   2)                1.4960  0.000771 -0.0012    1.4949   
     4. B(C   4,C   3)                1.3628 -0.002145  0.0022    1.3649   
     5. B(N   5,C   4)                1.3668  0.000932 -0.0005    1.3663   
     6. B(C   6,N   5)                1.3661  0.002391 -0.0016    1.3645   
     7. B(C   7,C   6)                1.3887 -0.000868  0.0003    1.3890   
     8. B(C   8,C   7)                1.3770 -0.000719  0.0014    1.3784   
     9. B(C   9,C   8)                1.4005  0.002249 -0.0025    1.3980   
    10. B(C  10,C   9)                1.3762 -0.000273  0.0010    1.3771   
    11. B(C  11,C  10)                1.3983  0.002007 -0.0031    1.3952   
    12. B(C  11,C   6)                1.4217  0.002524 -0.0029    1.4188   
    13. B(C  11,C   3)                1.4321  0.001712 -0.0019    1.4303   
    14. B(C  12,C   1)                1.5866  0.001579 -0.0023    1.5844   
    15. B(O  13,C  12)                1.2518  0.003347 -0.0008    1.2510   
    16. B(O  14,C  12)                1.2360  0.004789 -0.0023    1.2337   
    17. B(H  15,N   0)                1.0214 -0.000492 -0.0014    1.0200   
    18. B(H  16,N   0)                1.0461 -0.000637  0.0042    1.0503   
    19. B(H  17,N   0)                1.0262  0.000534 -0.0004    1.0258   
    20. B(H  18,C   1)                1.0946  0.000513  0.0006    1.0952   
    21. B(H  19,C   2)                1.0925  0.000607 -0.0002    1.0923   
    22. B(H  20,C   2)                1.0936  0.000841 -0.0005    1.0932   
    23. B(H  21,C   4)                1.0732  0.000192 -0.0002    1.0730   
    24. B(H  22,N   5)                1.0077  0.001761 -0.0017    1.0060   
    25. B(H  23,C   7)                1.0800  0.000432 -0.0007    1.0793   
    26. B(H  24,C   8)                1.0800 -0.000006  0.0001    1.0801   
    27. B(H  25,C   9)                1.0794 -0.000300  0.0004    1.0797   
    28. B(H  26,C  10)                1.0800  0.000133  0.0000    1.0801   
    29. A(H  16,N   0,H  17)          106.70 -0.000893    0.01    106.71   
    30. A(H  15,N   0,H  17)          109.19 -0.000421    0.10    109.29   
    31. A(H  15,N   0,H  16)          113.70 -0.000778    0.76    114.46   
    32. A(C   1,N   0,H  15)          113.54 -0.000145    0.39    113.93   
    33. A(C   1,N   0,H  16)          103.27  0.001754   -1.44    101.83   
    34. A(C   1,N   0,H  17)          110.11  0.000547    0.05    110.17   
    35. A(C   2,C   1,C  12)          114.39 -0.000306    0.23    114.62   
    36. A(C   2,C   1,H  18)          109.68 -0.000407    0.05    109.72   
    37. A(N   0,C   1,C   2)          112.55 -0.000163    0.64    113.20   
    38. A(N   0,C   1,C  12)          106.42  0.001361   -0.90    105.52   
    39. A(N   0,C   1,H  18)          108.31 -0.000323    0.13    108.44   
    40. A(C  12,C   1,H  18)          105.06 -0.000139   -0.20    104.86   
    41. A(C   1,C   2,C   3)          112.19  0.000928    0.09    112.28   
    42. A(H  19,C   2,H  20)          106.99 -0.000253    0.11    107.10   
    43. A(C   3,C   2,H  20)          109.69 -0.001007   -0.08    109.61   
    44. A(C   3,C   2,H  19)          110.96  0.000093   -0.01    110.95   
    45. A(C   1,C   2,H  20)          109.86  0.000555    0.00    109.86   
    46. A(C   1,C   2,H  19)          107.00 -0.000340   -0.09    106.91   
    47. A(C   2,C   3,C   4)          127.35  0.000224    0.31    127.66   
    48. A(C   2,C   3,C  11)          126.17 -0.000877   -0.19    125.97   
    49. A(C   4,C   3,C  11)          106.48  0.000654   -0.12    106.35   
    50. A(N   5,C   4,H  21)          120.58 -0.001032   -0.07    120.51   
    51. A(C   3,C   4,H  21)          128.93  0.000175    0.16    129.09   
    52. A(C   3,C   4,N   5)          110.49  0.000857   -0.09    110.40   
    53. A(C   6,N   5,H  22)          125.74  0.000298   -0.04    125.70   
    54. A(C   4,N   5,H  22)          125.23 -0.000168   -0.03    125.20   
    55. A(C   4,N   5,C   6)          108.93 -0.000139    0.04    108.97   
    56. A(C   7,C   6,C  11)          121.76  0.000267    0.06    121.81   
    57. A(N   5,C   6,C  11)          107.56 -0.000956    0.01    107.57   
    58. A(N   5,C   6,C   7)          130.68  0.000689   -0.07    130.61   
    59. A(C   6,C   7,C   8)          117.62 -0.000267   -0.00    117.62   
    60. A(C   8,C   7,H  23)          121.07 -0.000097   -0.03    121.04   
    61. A(C   6,C   7,H  23)          121.31  0.000363    0.03    121.34   
    62. A(C   9,C   8,H  24)          119.22  0.000094    0.03    119.25   
    63. A(C   7,C   8,H  24)          119.30 -0.001010    0.06    119.36   
    64. A(C   7,C   8,C   9)          121.48  0.000916   -0.09    121.38   
    65. A(C  10,C   9,H  25)          119.52 -0.000563    0.03    119.54   
    66. A(C   8,C   9,H  25)          119.20  0.000762    0.05    119.25   
    67. A(C   8,C   9,C  10)          121.28 -0.000201   -0.07    121.21   
    68. A(C   9,C  10,C  11)          118.72 -0.000558    0.18    118.90   
    69. A(C  11,C  10,H  26)          121.32  0.000973   -0.02    121.30   
    70. A(C   9,C  10,H  26)          119.94 -0.000415   -0.16    119.78   
    71. A(C   3,C  11,C   6)          106.53 -0.000417    0.16    106.69   
    72. A(C   6,C  11,C  10)          119.15 -0.000158   -0.07    119.07   
    73. A(C   3,C  11,C  10)          134.32  0.000575   -0.09    134.22   
    74. A(O  13,C  12,O  14)          129.05  0.000784   -0.16    128.90   
    75. A(C   1,C  12,O  14)          118.31  0.002501   -0.24    118.07   
    76. A(C   1,C  12,O  13)          112.31 -0.003952    0.31    112.62   
    77. D(C   2,C   1,N   0,H  16)   -155.14 -0.001426   12.34   -142.81   
    78. D(C  12,C   1,N   0,H  16)    -29.09 -0.000932   12.29    -16.80   
    79. D(C   2,C   1,N   0,H  17)    -41.51 -0.001336   11.64    -29.86   
    80. D(C  12,C   1,N   0,H  17)     84.54 -0.000843   11.60     96.14   
    81. D(C  12,C   1,N   0,H  15)   -152.68 -0.001083   12.07   -140.61   
    82. D(C   2,C   1,N   0,H  15)     81.27 -0.001576   12.12     93.38   
    83. D(H  19,C   2,C   1,H  18)    -65.66 -0.000271   -0.19    -65.85   
    84. D(C   3,C   2,C   1,H  18)     56.26  0.000187   -0.24     56.01   
    85. D(H  19,C   2,C   1,C  12)     52.06 -0.000930   -0.18     51.88   
    86. D(C   3,C   2,C   1,C  12)    173.98 -0.000472   -0.24    173.74   
    87. D(C   3,C   2,C   1,N   0)    -64.40  0.000988   -0.87    -65.27   
    88. D(H  19,C   2,C   1,N   0)    173.69  0.000530   -0.82    172.87   
    89. D(C   4,C   3,C   2,H  20)    151.16 -0.000680    1.31    152.47   
    90. D(C   4,C   3,C   2,H  19)     33.17  0.000203    1.22     34.39   
    91. D(C   4,C   3,C   2,C   1)    -86.45 -0.000053    1.32    -85.13   
    92. D(C  11,C   3,C   2,H  19)   -148.08  0.000212    1.14   -146.94   
    93. D(C  11,C   3,C   2,C   1)     92.30 -0.000044    1.23     93.53   
    94. D(H  21,C   4,C   3,C  11)    179.17 -0.000042    0.09    179.26   
    95. D(H  21,C   4,C   3,C   2)     -1.88 -0.000050    0.01     -1.88   
    96. D(N   5,C   4,C   3,C  11)     -0.74 -0.000069    0.02     -0.71   
    97. D(N   5,C   4,C   3,C   2)    178.21 -0.000077   -0.06    178.15   
    98. D(H  22,N   5,C   4,H  21)     -2.46 -0.000071   -0.52     -2.99   
    99. D(H  22,N   5,C   4,C   3)    177.45 -0.000046   -0.45    177.00   
   100. D(C   6,N   5,C   4,H  21)   -178.92  0.000074   -0.06   -178.98   
   101. D(C   6,N   5,C   4,C   3)      0.99  0.000100    0.01      1.01   
   102. D(C  11,C   6,N   5,H  22)   -177.26  0.000093    0.42   -176.84   
   103. D(C  11,C   6,N   5,C   4)     -0.82 -0.000074   -0.05     -0.87   
   104. D(C   7,C   6,N   5,C   4)    179.43 -0.000060    0.07    179.50   
   105. D(C   7,C   6,N   5,H  22)      2.99  0.000106    0.54      3.53   
   106. D(C   8,C   7,C   6,C  11)      0.44  0.000025    0.02      0.47   
   107. D(C   8,C   7,C   6,N   5)   -179.83  0.000008   -0.12   -179.95   
   108. D(H  23,C   7,C   6,C  11)    179.95 -0.000022    0.02    179.97   
   109. D(H  23,C   7,C   6,N   5)     -0.32 -0.000039   -0.12     -0.45   
   110. D(H  24,C   8,C   7,H  23)     -0.05 -0.000079    0.17      0.12   
   111. D(H  24,C   8,C   7,C   6)    179.46 -0.000123    0.17    179.63   
   112. D(C   9,C   8,C   7,H  23)   -179.54 -0.000074    0.06   -179.48   
   113. D(C   9,C   8,C   7,C   6)     -0.03 -0.000118    0.06      0.03   
   114. D(H  25,C   9,C   8,H  24)     -0.38 -0.000051    0.10     -0.29   
   115. D(H  25,C   9,C   8,C   7)    179.11 -0.000061    0.21    179.32   
   116. D(C  10,C   9,C   8,H  24)   -179.70  0.000123   -0.20   -179.90   
   117. D(C  10,C   9,C   8,C   7)     -0.21  0.000112   -0.08     -0.29   
   118. D(H  26,C  10,C   9,H  25)     -0.80  0.000171    0.03     -0.77   
   119. D(H  26,C  10,C   9,C   8)    178.51  0.000006    0.33    178.84   
   120. D(C  11,C  10,C   9,H  25)   -179.29  0.000154   -0.27   -179.55   
   121. D(C  11,C  10,C   9,C   8)      0.03 -0.000011    0.03      0.06   
   122. D(C   6,C  11,C  10,H  26)   -178.09 -0.000080   -0.27   -178.36   
   123. D(C   6,C  11,C  10,C   9)      0.37 -0.000085    0.04      0.42   
   124. D(C   3,C  11,C  10,C   9)    179.34 -0.000042    0.04    179.38   
   125. D(C  10,C  11,C   6,C   7)     -0.62  0.000074   -0.07     -0.69   
   126. D(C  10,C  11,C   6,N   5)    179.60  0.000084    0.05    179.64   
   127. D(C   3,C  11,C   6,C   7)   -179.85  0.000033   -0.06   -179.92   
   128. D(C   3,C  11,C   6,N   5)      0.37  0.000043    0.05      0.42   
   129. D(C  10,C  11,C   3,C   4)   -178.84 -0.000030   -0.04   -178.88   
   130. D(C   3,C  11,C  10,H  26)      0.88 -0.000037   -0.28      0.60   
   131. D(C  10,C  11,C   3,C   2)      2.19 -0.000037    0.01      2.21   
   132. D(C   6,C  11,C   3,C   4)      0.22  0.000010   -0.05      0.17   
   133. D(C   6,C  11,C   3,C   2)   -178.75  0.000003    0.01   -178.74   
   134. D(O  14,C  12,C   1,C   2)    -43.14 -0.003419  -10.52    -53.65   
   135. D(O  14,C  12,C   1,N   0)   -168.07 -0.004035  -10.74   -178.82   
   136. D(O  13,C  12,C   1,H  18)    -96.88  0.001872  -12.76   -109.64   
   137. D(O  13,C  12,C   1,C   2)    142.80  0.002649  -12.86    129.94   
   138. D(O  13,C  12,C   1,N   0)     17.86  0.002033  -13.09      4.77   
    ----------------------------------------------------------------------------

Geometry step timings:
Preparation and reading OPT file:      0.000 s ( 0.392 %)
Internal coordinates            :      0.000 s ( 0.428 %)
B/P matrices and projection     :      0.001 s (31.860 %)
Hessian update/contruction      :      0.000 s ( 6.985 %)
Making the step                 :      0.001 s (48.610 %)
Converting the step to Cartesian:      0.000 s ( 3.314 %)
Storing new data                :      0.000 s ( 0.392 %)
Checking convergence            :      0.000 s ( 0.535 %)
Final printing                  :      0.000 s ( 7.448 %)
Total time                      :      0.003 s

Time for energy+gradient        :      0.024 s
Time for complete geometry iter :      0.027 s

         *************************************************************
         *                GEOMETRY OPTIMIZATION CYCLE  13            *
         *************************************************************
---------------------------------
CARTESIAN COORDINATES (ANGSTROEM)
---------------------------------
  N     1.903264    0.229639    1.436712
  C     2.379698   -0.055311    0.064684
  C     1.420251    0.421103   -1.012194
  C     0.119255   -0.314316   -0.977472
  C    -0.179418   -1.508994   -1.566182
  N    -1.462553   -1.876327   -1.273958
  C    -2.035844   -0.908813   -0.501257
  C    -3.313406   -0.820195    0.036508
  C    -3.614082    0.295032    0.788793
  C    -2.670325    1.303491    1.004866
  C    -1.400811    1.217406    0.478155
  C    -1.061500    0.099484   -0.284489
  C     3.830558    0.575705   -0.019004
  O     4.218578    1.041751    1.075142
  O     4.442253    0.489711   -1.086884
  H     1.382807   -0.537632    1.861884
  H     2.798190    0.473976    1.929164
  H     1.323587    1.075941    1.441196
  H     2.536248   -1.135047   -0.030504
  H     1.923511    0.279005   -1.971224
  H     1.238790    1.493256   -0.900138
  H     0.439110   -2.133157   -2.181873
  H    -1.926024   -2.696025   -1.627994
  H    -4.048875   -1.591578   -0.133760
  H    -4.601233    0.395733    1.215410
  H    -2.946273    2.167517    1.590597
  H    -0.695756    2.018643    0.643823

----------------------------
CARTESIAN COORDINATES (A.U.)
----------------------------
  NO LB    ZA    FRAG    MASS        X           Y           Z
   0 N   7.0000    0    14.007    3.596647    0.433956    2.714992
   1 C   6.0000    0    12.011    4.496978   -0.104522    0.122234
   2 C   6.0000    0    12.011    2.683885    0.795769   -1.912769
   3 C   6.0000    0    12.011    0.225360   -0.593971   -1.847155
   4 C   6.0000    0    12.011   -0.339052   -2.851585   -2.959656
   5 N   7.0000    0    14.007   -2.763825   -3.545744   -2.407431
   6 C   6.0000    0    12.011   -3.847187   -1.717407   -0.947239
   7 C   6.0000    0    12.011   -6.261430   -1.549944    0.068990
   8 C   6.0000    0    12.011   -6.829625    0.557530    1.490603
   9 C   6.0000    0    12.011   -5.046183    2.463241    1.898922
  10 C   6.0000    0    12.011   -2.647149    2.300563    0.903581
  11 C   6.0000    0    12.011   -2.005945    0.187997   -0.537607
  12 C   6.0000    0    12.011    7.238705    1.087925   -0.035912
  13 O   8.0000    0    15.999    7.971956    1.968623    2.031724
  14 O   8.0000    0    15.999    8.394642    0.925421   -2.053914
  15 H   1.0000    0     1.008    2.613127   -1.015978    3.518451
  16 H   1.0000    0     1.008    5.287813    0.895685    3.645592
  17 H   1.0000    0     1.008    2.501216    2.033235    2.723466
  18 H   1.0000    0     1.008    4.792815   -2.144928   -0.057644
  19 H   1.0000    0     1.008    3.634909    0.527242   -3.725074
  20 H   1.0000    0     1.008    2.340975    2.821846   -1.701013
  21 H   1.0000    0     1.008    0.829798   -4.031082   -4.123143
  22 H   1.0000    0     1.008   -3.639658   -5.094748   -3.076462
  23 H   1.0000    0     1.008   -7.651266   -3.007646   -0.252771
  24 H   1.0000    0     1.008   -8.695069    0.747828    2.296793
  25 H   1.0000    0     1.008   -5.567649    4.096013    3.005792
  26 H   1.0000    0     1.008   -1.314788    3.814683    1.216648

      -----------------------------------------------------------      
     |                   =====================                   |     
     |                           x T B                           |     
     |                   =====================                   |     
     |                         S. Grimme                         |     
     |          Mulliken Center for Theoretical Chemistry        |     
     |                    University of Bonn                     |     
      -----------------------------------------------------------      

   * xtb version 6.7.1 (edcfbbe) compiled by 'albert@albert-system' on 2024-07-22

   xtb is free software: you can redistribute it and/or modify it under
   the terms of the GNU Lesser General Public License as published by
   the Free Software Foundation, either version 3 of the License, or
   (at your option) any later version.
   
   xtb is distributed in the hope that it will be useful,
   but WITHOUT ANY WARRANTY; without even the implied warranty of
   MERCHANTABILITY or FITNESS FOR A PARTICULAR PURPOSE.  See the
   GNU Lesser General Public License for more details.
   
   Cite this work as:
   * C. Bannwarth, E. Caldeweyher, S. Ehlert, A. Hansen, P. Pracht,
     J. Seibert, S. Spicher, S. Grimme, WIREs Comput. Mol. Sci., 2020, 11,
     e01493. DOI: 10.1002/wcms.1493
   
   for GFN2-xTB:
   * C. Bannwarth, S. Ehlert and S. Grimme., J. Chem. Theory Comput., 2019,
     15, 1652-1671. DOI: 10.1021/acs.jctc.8b01176
   for GFN1-xTB:
   * S. Grimme, C. Bannwarth, P. Shushkov, J. Chem. Theory Comput., 2017,
     13, 1989-2009. DOI: 10.1021/acs.jctc.7b00118
   for GFN0-xTB:
   * P. Pracht, E. Caldeweyher, S. Ehlert, S. Grimme, ChemRxiv, 2019, preprint.
     DOI: 10.26434/chemrxiv.8326202.v1
   for GFN-FF:
   * S. Spicher and S. Grimme, Angew. Chem. Int. Ed., 2020, 59, 15665-15673.
     DOI: 10.1002/anie.202004239
   
   for ALPB and GBSA implicit solvation:
   * S. Ehlert, M. Stahn, S. Spicher, S. Grimme, J. Chem. Theory Comput.,
     2021, 17, 4250-4261. DOI: 10.1021/acs.jctc.1c00471
   
   for ddCOSMO and CPCM-X implicit solvation:
   * M. Stahn, S. Ehlert, S. Grimme, J. Phys. Chem. A,
     2023, XX, XXXX-XXXX. DOI: 10.1021/acs.jpca.3c04382
   
   for DFT-D4:
   * E. Caldeweyher, C. Bannwarth and S. Grimme, J. Chem. Phys., 2017,
     147, 034112. DOI: 10.1063/1.4993215
   * E. Caldeweyher, S. Ehlert, A. Hansen, H. Neugebauer, S. Spicher,
     C. Bannwarth and S. Grimme, J. Chem. Phys., 2019, 150, 154122.
     DOI: 10.1063/1.5090222
   * E. Caldeweyher, J.-M. Mewes, S. Ehlert and S. Grimme, Phys. Chem. Chem. Phys.
     2020, 22, 8499-8512. DOI: 10.1039/D0CP00502A
   
   for sTDA-xTB:
   * S. Grimme and C. Bannwarth, J. Chem. Phys., 2016, 145, 054103.
     DOI: 10.1063/1.4959605
   
   in the mass-spec context:
   * V. Asgeirsson, C. Bauer and S. Grimme, Chem. Sci., 2017, 8, 4879.
     DOI: 10.1039/c7sc00601b
   * J. Koopman and S. Grimme, ACS Omega 2019, 4, 12, 15120-15133.
     DOI: 10.1021/acsomega.9b02011
   
   for metadynamics refer to:
   * S. Grimme, J. Chem. Theory Comput., 2019, 155, 2847-2862
     DOI: 10.1021/acs.jctc.9b00143
   
   for SPH calculations refer to:
   * S. Spicher and S. Grimme, J. Chem. Theory Comput., 2021, 17, 1701-1714
     DOI: 10.1021/acs.jctc.0c01306
   
   for ONIOM refer to:
   * C. Plett, A. Katbashev, S. Ehlert, S. Grimme, M. Bursch,
     Phys. Chem. Chem. Phys., 2023, 25, 17860-17868. DOI: 10.1039/D3CP02178E
   
   for DIPRO refer to:
   * J. Kohn, N. Gildemeister, S. Grimme, D. Fazzi, A. Hansen,
     J. Chem. Phys., 2023, just accepted.
   
   for PTB refer to:
   * S. Grimme, M. Mueller, A. Hansen, J. Chem. Phys., 2023, 158, 124111.
     DOI: 10.1063/5.0137838
   
   with help from (in alphabetical order)
   P. Atkinson, C. Bannwarth, F. Bohle, G. Brandenburg, E. Caldeweyher
   M. Checinski, S. Dohm, S. Ehlert, S. Ehrlich, I. Gerasimov, C. Hölzer
   A. Katbashev, J. Kohn, J. Koopman, C. Lavigne, S. Lehtola, F. März, M. Müller,
   F. Musil, H. Neugebauer, J. Pisarek, C. Plett, P. Pracht, F. Pultar,
   J. Seibert, P. Shushkov, S. Spicher, M. Stahn, M. Steiner, T. Strunk,
   J. Stückrath, T. Rose, and J. Unsleber
   
 * started run on 2026/04/09 at 18:40:48.679     
   ID    Z sym.   atoms
    1    7 N      1, 6
    2    6 C      2-5, 7-13
    3    8 O      14, 15
    4    1 H      16-27

           -------------------------------------------------
          |                Calculation Setup                |
           -------------------------------------------------

          program call               : /home/analima/Programs/orca-6.1.0-f.0_linux_x86-64/bin/otool_xtb geo_opt_XTB.xyz --grad -c 0 -u 0 -P 1 --namespace geo_opt --input geo_opt_XTB.input.tmp --alpb WATER --acc 0.200000
          calculation namespace      : geo_opt
          coordinate file            : geo_opt_XTB.xyz
          omp threads                :                     1


           -------------------------------------------------
          |                 G F N 2 - x T B                 |
           -------------------------------------------------

        Reference                      10.1021/acs.jctc.8b01176
      * Hamiltonian:
        H0-scaling (s, p, d)           1.850000    2.230000    2.230000
        zeta-weighting                 0.500000
      * Dispersion:
        s8                             2.700000
        a1                             0.520000
        a2                             5.000000
        s9                             5.000000
      * Repulsion:
        kExp                           1.500000    1.000000
        rExp                           1.000000
      * Coulomb:
        alpha                          2.000000
        third order                    shell-resolved
        anisotropic                    true
        a3                             3.000000
        a5                             4.000000
        cn-shift                       1.200000
        cn-exp                         4.000000
        max-rad                        5.000000

      * Solvation model:               ALPB
        Solvent                        WATER
        Parameter file                 internal GFN2-xTB/ALPB
        Dielectric constant                8.0200E+01
        Reference state                gsolv [1 M gas/solution]
        Free energy shift                  1.0808E-03 Eh       6.7819E-01 kcal/mol
        Temperature                        2.9815E+02 K
        Density                            1.0000E+00 kg/L
        Solvent mass                       1.8000E+01 g/mol
        Interaction kernel             P16
        Born radius scaling (c1)           1.4744E+00
        Born radii integrator          GBOBC
        Born offset                        0.0000E+00 a0       0.0000E+00 AA
        H-bond correction              true
        Ion screening                  false
        Surface tension                    1.0000E-05 Eh       1.5569E+01 dyn/cm
        Grid points                               230 per atom
q/qsh data taken from xtbrestart
CAMM data taken from xtbrestart

          ...................................................
          :                      SETUP                      :
          :.................................................:
          :  # basis functions                  72          :
          :  # atomic orbitals                  72          :
          :  # shells                           42          :
          :  # electrons                        78          :
          :  max. iterations                   250          :
          :  Hamiltonian                  GFN2-xTB          :
          :  restarted?                       true          :
          :  GBSA solvation                   true          :
          :  PC potential                    false          :
          :  electronic temp.          300.0000000     K    :
          :  accuracy                    0.2000000          :
          :  -> integral cutoff          0.3198970E+02      :
          :  -> integral neglect         0.2000000E-08      :
          :  -> SCF convergence          0.2000000E-06 Eh   :
          :  -> wf. convergence          0.2000000E-04 e    :
          :  Broyden damping             0.4000000          :
          :  net charge                          0          :
          :  unpaired electrons                  0          :
          ...................................................

 iter      E             dE          RMSdq      gap      omega  full diag
   1    -44.3010635 -0.443011E+02  0.330E-01    3.56       0.0  T
   2    -44.3011162 -0.527117E-04  0.192E-01    3.56       1.0  T
   3    -44.3011225 -0.626882E-05  0.209E-02    3.56       1.0  T
   4    -44.3011257 -0.321051E-05  0.950E-03    3.56       2.0  T
   5    -44.3011267 -0.995115E-06  0.499E-03    3.56       3.9  T
   6    -44.3011267 -0.393981E-07  0.254E-03    3.56       7.6  T
   7    -44.3011268 -0.607753E-07  0.466E-04    3.56      41.3  T
   8    -44.3011268 -0.197605E-08  0.237E-04    3.56      81.2  T
   9    -44.3011268 -0.185977E-09  0.102E-04    3.56     189.3  T
  10    -44.3011268 -0.637854E-10  0.485E-05    3.56     397.0  T

   *** convergence criteria satisfied after 10 iterations ***

         #    Occupation            Energy/Eh            Energy/eV
      -------------------------------------------------------------
         1        2.0000           -0.6959561             -18.9379
       ...           ...                  ...                  ...
        33        2.0000           -0.4179730             -11.3736
        34        2.0000           -0.4159983             -11.3199
        35        2.0000           -0.4154764             -11.3057
        36        2.0000           -0.4030800             -10.9684
        37        2.0000           -0.3819655             -10.3938
        38        2.0000           -0.3806599             -10.3583
        39        2.0000           -0.3622602              -9.8576 (HOMO)
        40                         -0.2314266              -6.2974 (LUMO)
        41                         -0.1979626              -5.3868
        42                         -0.1878538              -5.1118
        43                         -0.1577463              -4.2925
        44                         -0.0729078              -1.9839
       ...                                ...                  ...
        72                          0.7180957              19.5404
      -------------------------------------------------------------
                  HL-Gap            0.1308336 Eh            3.5602 eV
             Fermi-level           -0.2968434 Eh           -8.0775 eV

 SCC (total)                   0 d,  0 h,  0 min,  0.013 sec
 SCC setup                      ...        0 min,  0.000 sec (  3.548%)
 Dispersion                     ...        0 min,  0.000 sec (  0.746%)
 classical contributions        ...        0 min,  0.000 sec (  0.135%)
 integral evaluation            ...        0 min,  0.002 sec ( 11.447%)
 iterations                     ...        0 min,  0.007 sec ( 49.710%)
 molecular gradient             ...        0 min,  0.005 sec ( 33.870%)
 printout                       ...        0 min,  0.000 sec (  0.449%)

         :::::::::::::::::::::::::::::::::::::::::::::::::::::
         ::                     SUMMARY                     ::
         :::::::::::::::::::::::::::::::::::::::::::::::::::::
         :: total energy             -43.680013774455 Eh    ::
         :: total w/o Gsasa/hb       -43.671933425926 Eh    ::
         :: gradient norm              0.015298328877 Eh/a0 ::
         :: HOMO-LUMO gap              3.560162618566 eV    ::
         ::.................................................::
         :: SCC energy               -44.300972171162 Eh    ::
         :: -> isotropic ES            0.170643976747 Eh    ::
         :: -> anisotropic ES         -0.008454235397 Eh    ::
         :: -> anisotropic XC          0.016247229238 Eh    ::
         :: -> dispersion             -0.026053619909 Eh    ::
         :: -> Gsolv                  -0.066807654357 Eh    ::
         ::    -> Gelec               -0.058727305829 Eh    ::
         ::    -> Gsasa                0.001720204914 Eh    ::
         ::    -> Ghb                 -0.010881313141 Eh    ::
         ::    -> Gshift               0.001080759698 Eh    ::
         :: repulsion energy           0.620958396707 Eh    ::
         :: add. restraining           0.000000000000 Eh    ::
         :: total charge              -0.000000000000 e     ::
         :::::::::::::::::::::::::::::::::::::::::::::::::::::


Property printout bound to 'properties.out'

           -------------------------------------------------
          | TOTAL ENERGY              -43.680013774455 Eh   |
          | GRADIENT NORM               0.015298328877 Eh/α |
          | HOMO-LUMO GAP               3.560162618566 eV   |
           -------------------------------------------------

------------------------------------------------------------------------
 * finished run on 2026/04/09 at 18:40:48.699     
------------------------------------------------------------------------
 total:
 * wall-time:     0 d,  0 h,  0 min,  0.019 sec
 *  cpu-time:     0 d,  0 h,  0 min,  0.018 sec
 * ratio c/w:     0.918 speedup
 SCF:
 * wall-time:     0 d,  0 h,  0 min,  0.013 sec
 *  cpu-time:     0 d,  0 h,  0 min,  0.012 sec
 * ratio c/w:     0.890 speedup


-------------------------   --------------------
FINAL SINGLE POINT ENERGY       -43.680013774450
-------------------------   --------------------


-------------
DIPOLE MOMENT
-------------
                                X             Y             Z
Total Dipole Moment    :     -4.77200      -2.00200       1.71800
                        -----------------------------------------
Magnitude (a.u.)       :      5.45266
Magnitude (Debye)      :     13.85956


------------------
CARTESIAN GRADIENT
------------------

   1   N   :    0.006718127   -0.002691911    0.003152151
   2   C   :   -0.001770891    0.007062681   -0.004415666
   3   C   :   -0.000321851   -0.003717882    0.003260985
   4   C   :    0.000129451   -0.000887779   -0.000963838
   5   C   :    0.000554311    0.001674826    0.000382734
   6   N   :    0.000607391   -0.001045484    0.000128383
   7   C   :   -0.001753710    0.000966371    0.000961185
   8   C   :    0.000302894   -0.000663218   -0.000281873
   9   C   :    0.000721034    0.000150580   -0.000222567
  10   C   :   -0.000743084    0.000515480    0.000824340
  11   C   :    0.000575693   -0.000701198   -0.001240179
  12   C   :    0.000511234    0.000747836   -0.000008026
  13   C   :   -0.001373527    0.001588358   -0.001148098
  14   O   :   -0.002405186   -0.000155858    0.001641186
  15   O   :    0.002392456   -0.002140234   -0.000700735
  16   H   :   -0.000899346    0.000691754   -0.001166834
  17   H   :   -0.003680290   -0.001890829   -0.001541077
  18   H   :    0.001225538    0.001061977    0.000189992
  19   H   :    0.000410476   -0.000720132    0.001854470
  20   H   :    0.000522176    0.000545541    0.000021096
  21   H   :   -0.000727202    0.000369355   -0.000503662
  22   H   :   -0.000568932   -0.000576664   -0.000147880
  23   H   :   -0.000103819   -0.000123882   -0.000453064
  24   H   :   -0.000206987    0.000107159    0.000133474
  25   H   :   -0.000201607   -0.000294897   -0.000159980
  26   H   :    0.000450411    0.000185617   -0.000198061
  27   H   :   -0.000364758   -0.000057569    0.000601544

Difference to translation invariance:
           :    0.0000000000   -0.0000000000    0.0000000000

Difference to rotation invariance:
           :   -0.0001591289   -0.0000918418   -0.0004593109

Norm of the Cartesian gradient     ...    0.0152983289
RMS gradient                       ...    0.0016998143
MAX gradient                       ...    0.0070626808
------------------------------------------------------------------------------
                         ORCA GEOMETRY RELAXATION STEP
------------------------------------------------------------------------------

Reading the OPT-File                    .... done
Getting information on internals        .... done
Copying old internal coords+grads       .... done
Making the new internal coordinates     .... (2022 redundants) done
Validating the new internal coordinates .... (2022 redundants) done
Calculating the B-matrix                .... done
Calculating the G,G- and P matrices     .... done
Transforming gradient to internals      .... done
Projecting the internal gradient        .... done
Number of atoms                         ....  27
Number of internal coordinates          .... 138
Current Energy                          ....   -43.680013774 Eh
Current gradient norm                   ....     0.015298329 Eh/bohr
Maximum allowed component of the step   ....  0.300
Current trust radius                    ....  0.700
Updating the Hessian (BFGS)             .... done
Forming the augmented Hessian           .... done
Diagonalizing the augmented Hessian     .... done
Last element of RFO vector              ....  0.947331000
Lowest eigenvalues of augmented Hessian:
 -0.001796955  0.002047630  0.014739420  0.016573032  0.017893588
Length of the computed step             ....  0.338061470
The final length of the internal step   ....  0.338061470
Converting the step to Cartesian space:
 Initial RMS(Int)=    0.0287777034
Transforming coordinates:
 Iter   0:  RMS(Cart)=    0.0460347248 RMS(Int)=    1.0698308447
 Iter   5:  RMS(Cart)=    0.0000005616 RMS(Int)=    0.0000003905
done
Storing new coordinates                 .... done
The predicted energy change is          ....    -0.001001161
Previously predicted energy change      ....    -0.001445721
Actually observed energy change         ....    -0.001101306
Ratio of predicted to observed change   ....     0.761769144
New trust radius                        ....     0.700000000

                                .--------------------.
          ----------------------|Geometry convergence|-------------------------
          Item                value                   Tolerance       Converged
          ---------------------------------------------------------------------
          Energy change      -0.0011013056            0.0000050000      NO
          RMS gradient        0.0010651316            0.0001000000      NO
          MAX gradient        0.0048750077            0.0003000000      NO
          RMS step            0.0287777034            0.0020000000      NO
          MAX step            0.1455526511            0.0040000000      NO
          -------------------------------------------------------------------------
          ........................................................
          Max(Bonds)      0.0105      Max(Angles)    1.15
          Max(Dihed)        8.34      Max(Improp)    0.00
          ---------------------------------------------------------------------

The optimization has not yet converged - more geometry cycles are needed


    ---------------------------------------------------------------------------
                         Redundant Internal Coordinates
                            (Angstroem and degrees)

        Definition                    Value    dE/dq     Step     New-Value
    ----------------------------------------------------------------------------
     1. B(C   1,N   0)                1.4801 -0.001041 -0.0042    1.4759   
     2. B(C   2,C   1)                1.5189 -0.002015  0.0028    1.5217   
     3. B(C   3,C   2)                1.4949  0.000077 -0.0003    1.4946   
     4. B(C   4,C   3)                1.3649 -0.000565  0.0019    1.3669   
     5. B(N   5,C   4)                1.3663  0.000306 -0.0006    1.3657   
     6. B(C   6,N   5)                1.3645  0.000932 -0.0023    1.3622   
     7. B(C   7,C   6)                1.3890 -0.000521  0.0010    1.3900   
     8. B(C   8,C   7)                1.3784  0.000027  0.0004    1.3788   
     9. B(C   9,C   8)                1.3980  0.000171 -0.0015    1.3964   
    10. B(C  10,C   9)                1.3771  0.000261 -0.0001    1.3770   
    11. B(C  11,C  10)                1.3952 -0.000511 -0.0011    1.3941   
    12. B(C  11,C   6)                1.4188  0.000415 -0.0020    1.4168   
    13. B(C  11,C   3)                1.4303  0.000150 -0.0009    1.4294   
    14. B(C  12,C   1)                1.5844 -0.001537  0.0015    1.5858   
    15. B(O  13,C  12)                1.2510  0.000632 -0.0007    1.2503   
    16. B(O  14,C  12)                1.2337  0.001942 -0.0017    1.2320   
    17. B(H  15,N   0)                1.0200 -0.000549  0.0005    1.0205   
    18. B(H  16,N   0)                1.0503 -0.004298  0.0105    1.0608   
    19. B(H  17,N   0)                1.0258  0.000185 -0.0003    1.0255   
    20. B(H  18,C   1)                1.0952  0.000605 -0.0013    1.0938   
    21. B(H  19,C   2)                1.0923  0.000150 -0.0008    1.0915   
    22. B(H  20,C   2)                1.0932  0.000434 -0.0016    1.0915   
    23. B(H  21,C   4)                1.0730  0.000093 -0.0003    1.0727   
    24. B(H  22,N   5)                1.0060  0.000308 -0.0011    1.0049   
    25. B(H  23,C   7)                1.0793  0.000045 -0.0004    1.0789   
    26. B(H  24,C   8)                1.0801  0.000094 -0.0001    1.0800   
    27. B(H  25,C   9)                1.0797 -0.000076  0.0006    1.0803   
    28. B(H  26,C  10)                1.0801 -0.000191 -0.0003    1.0798   
    29. A(H  16,N   0,H  17)          106.71 -0.000284    0.26    106.97   
    30. A(H  15,N   0,H  17)          109.30  0.000324   -0.03    109.27   
    31. A(H  15,N   0,H  16)          114.48  0.000171    0.31    114.79   
    32. A(C   1,N   0,H  15)          113.94 -0.000666    0.15    114.10   
    33. A(C   1,N   0,H  16)          101.84  0.000527   -0.73    101.11   
    34. A(C   1,N   0,H  17)          110.17 -0.000065   -0.08    110.09   
    35. A(C   2,C   1,C  12)          114.59  0.002449   -0.71    113.88   
    36. A(C   2,C   1,H  18)          109.75  0.000733    0.01    109.76   
    37. A(N   0,C   1,C   2)          113.17  0.002758   -0.68    112.50   
    38. A(N   0,C   1,C  12)          105.49 -0.003920   -0.32    105.17   
    39. A(N   0,C   1,H  18)          108.44 -0.001582    1.15    109.60   
    40. A(C  12,C   1,H  18)          104.90 -0.001002    0.73    105.63   
    41. A(C   1,C   2,C   3)          112.27  0.001198   -0.48    111.79   
    42. A(H  19,C   2,H  20)          107.10 -0.000138    0.40    107.50   
    43. A(C   3,C   2,H  20)          109.61 -0.001062    0.41    110.03   
    44. A(C   3,C   2,H  19)          110.94  0.000132   -0.23    110.71   
    45. A(C   1,C   2,H  20)          109.86  0.000526   -0.12    109.75   
    46. A(C   1,C   2,H  19)          106.90 -0.000690    0.05    106.95   
    47. A(C   2,C   3,C   4)          127.66  0.001156   -0.19    127.47   
    48. A(C   2,C   3,C  11)          125.97 -0.001130    0.20    126.18   
    49. A(C   4,C   3,C  11)          106.35 -0.000026   -0.02    106.33   
    50. A(N   5,C   4,H  21)          120.51 -0.000958    0.24    120.75   
    51. A(C   3,C   4,H  21)          129.09  0.000695   -0.15    128.94   
    52. A(C   3,C   4,N   5)          110.40  0.000263   -0.08    110.32   
    53. A(C   6,N   5,H  22)          125.70  0.000153   -0.05    125.65   
    54. A(C   4,N   5,H  22)          125.20 -0.000159    0.06    125.26   
    55. A(C   4,N   5,C   6)          108.97 -0.000008   -0.01    108.96   
    56. A(C   7,C   6,C  11)          121.81  0.000371   -0.06    121.75   
    57. A(N   5,C   6,C  11)          107.57 -0.000595    0.17    107.74   
    58. A(N   5,C   6,C   7)          130.61  0.000225   -0.11    130.51   
    59. A(C   6,C   7,C   8)          117.62 -0.000299    0.07    117.69   
    60. A(C   8,C   7,H  23)          121.04 -0.000117    0.03    121.07   
    61. A(C   6,C   7,H  23)          121.34  0.000416   -0.09    121.24   
    62. A(C   9,C   8,H  24)          119.25  0.000236   -0.03    119.22   
    63. A(C   7,C   8,H  24)          119.36 -0.000541    0.18    119.55   
    64. A(C   7,C   8,C   9)          121.38  0.000305   -0.15    121.23   
    65. A(C  10,C   9,H  25)          119.55 -0.000314    0.10    119.65   
    66. A(C   8,C   9,H  25)          119.25  0.000717   -0.22    119.03   
    67. A(C   8,C   9,C  10)          121.21 -0.000404    0.12    121.32   
    68. A(C   9,C  10,C  11)          118.90  0.000300   -0.04    118.87   
    69. A(C  11,C  10,H  26)          121.30  0.000410   -0.15    121.15   
    70. A(C   9,C  10,H  26)          119.78 -0.000707    0.19    119.97   
    71. A(C   3,C  11,C   6)          106.70  0.000365   -0.05    106.65   
    72. A(C   6,C  11,C  10)          119.07 -0.000273    0.06    119.14   
    73. A(C   3,C  11,C  10)          134.22 -0.000091   -0.02    134.21   
    74. A(O  13,C  12,O  14)          129.00  0.001779   -0.12    128.88   
    75. A(C   1,C  12,O  14)          118.17  0.002991   -0.38    117.78   
    76. A(C   1,C  12,O  13)          112.72 -0.004875    0.78    113.50   
    77. D(C   2,C   1,N   0,H  16)   -142.83 -0.002160    8.17   -134.65   
    78. D(C  12,C   1,N   0,H  16)    -16.79 -0.000112    6.55    -10.24   
    79. D(C   2,C   1,N   0,H  17)    -29.87 -0.002249    8.18    -21.69   
    80. D(C  12,C   1,N   0,H  17)     96.16 -0.000201    6.56    102.72   
    81. D(C  12,C   1,N   0,H  15)   -140.59 -0.000311    6.72   -133.88   
    82. D(C   2,C   1,N   0,H  15)     93.37 -0.002359    8.34    101.71   
    83. D(H  19,C   2,C   1,H  18)    -65.84 -0.000493    0.34    -65.50   
    84. D(C   3,C   2,C   1,H  18)     56.03 -0.000058   -0.21     55.82   
    85. D(H  19,C   2,C   1,C  12)     51.86  0.000327    0.82     52.68   
    86. D(C   3,C   2,C   1,C  12)    173.73  0.000762    0.27    174.00   
    87. D(C   3,C   2,C   1,N   0)    -65.26 -0.000431   -1.25    -66.50   
    88. D(H  19,C   2,C   1,N   0)    172.88 -0.000866   -0.70    172.17   
    89. D(C   4,C   3,C   2,H  20)    152.47 -0.000624    0.63    153.10   
    90. D(C   4,C   3,C   2,H  19)     34.40  0.000128    0.03     34.42   
    91. D(C   4,C   3,C   2,C   1)    -85.14  0.000110    0.44    -84.70   
    92. D(C  11,C   3,C   2,H  19)   -146.94  0.000131   -0.27   -147.20   
    93. D(C  11,C   3,C   2,C   1)     93.53  0.000113    0.15     93.68   
    94. D(H  21,C   4,C   3,C  11)    179.26 -0.000039    0.18    179.44   
    95. D(H  21,C   4,C   3,C   2)     -1.86 -0.000052   -0.04     -1.90   
    96. D(N   5,C   4,C   3,C  11)     -0.72 -0.000057    0.14     -0.58   
    97. D(N   5,C   4,C   3,C   2)    178.16 -0.000069   -0.08    178.08   
    98. D(H  22,N   5,C   4,H  21)     -2.98 -0.000119    0.16     -2.82   
    99. D(H  22,N   5,C   4,C   3)    177.00 -0.000103    0.18    177.18   
   100. D(C   6,N   5,C   4,H  21)   -178.97  0.000068   -0.23   -179.20   
   101. D(C   6,N   5,C   4,C   3)      1.01  0.000084   -0.21      0.80   
   102. D(C  11,C   6,N   5,H  22)   -176.83  0.000135   -0.20   -177.04   
   103. D(C  11,C   6,N   5,C   4)     -0.87 -0.000069    0.19     -0.68   
   104. D(C   7,C   6,N   5,C   4)    179.51 -0.000046    0.19    179.70   
   105. D(C   7,C   6,N   5,H  22)      3.54  0.000158   -0.20      3.34   
   106. D(C   8,C   7,C   6,C  11)      0.46  0.000018   -0.06      0.40   
   107. D(C   8,C   7,C   6,N   5)   -179.96 -0.000010   -0.06   -180.02   
   108. D(H  23,C   7,C   6,C  11)    179.97 -0.000014    0.05    180.02   
   109. D(H  23,C   7,C   6,N   5)     -0.45 -0.000042    0.05     -0.41   
   110. D(H  24,C   8,C   7,H  23)      0.12 -0.000010    0.06      0.19   
   111. D(H  24,C   8,C   7,C   6)    179.63 -0.000039    0.17    179.80   
   112. D(C   9,C   8,C   7,H  23)   -179.48 -0.000040    0.13   -179.35   
   113. D(C   9,C   8,C   7,C   6)      0.03 -0.000069    0.24      0.26   
   114. D(H  25,C   9,C   8,H  24)     -0.28  0.000002    0.05     -0.23   
   115. D(H  25,C   9,C   8,C   7)    179.32  0.000028   -0.01    179.31   
   116. D(C  10,C   9,C   8,H  24)   -179.90  0.000038   -0.17   -180.07   
   117. D(C  10,C   9,C   8,C   7)     -0.29  0.000065   -0.24     -0.53   
   118. D(H  26,C  10,C   9,H  25)     -0.77  0.000192   -0.53     -1.29   
   119. D(H  26,C  10,C   9,C   8)    178.84  0.000160   -0.30    178.54   
   120. D(C  11,C  10,C   9,H  25)   -179.55  0.000028   -0.18   -179.73   
   121. D(C  11,C  10,C   9,C   8)      0.06 -0.000005    0.04      0.10   
   122. D(C   6,C  11,C  10,H  26)   -178.35 -0.000203    0.49   -177.87   
   123. D(C   6,C  11,C  10,C   9)      0.41 -0.000050    0.14      0.55   
   124. D(C   3,C  11,C  10,C   9)    179.37 -0.000014    0.08    179.45   
   125. D(C  10,C  11,C   6,C   7)     -0.69  0.000041   -0.13     -0.82   
   126. D(C  10,C  11,C   6,N   5)    179.64  0.000061   -0.13    179.51   
   127. D(C   3,C  11,C   6,C   7)   -179.91  0.000017   -0.09   -180.00   
   128. D(C   3,C  11,C   6,N   5)      0.42  0.000038   -0.09      0.33   
   129. D(C  10,C  11,C   3,C   4)   -178.88 -0.000019    0.02   -178.85   
   130. D(C   3,C  11,C  10,H  26)      0.61 -0.000167    0.43      1.03   
   131. D(C  10,C  11,C   3,C   2)      2.22 -0.000040    0.29      2.51   
   132. D(C   6,C  11,C   3,C   4)      0.17  0.000009   -0.03      0.15   
   133. D(C   6,C  11,C   3,C   2)   -178.73 -0.000012    0.24   -178.49   
   134. D(O  14,C  12,C   1,C   2)    -53.66 -0.001623    2.72    -50.94   
   135. D(O  14,C  12,C   1,N   0)   -178.82 -0.003822    4.34   -174.48   
   136. D(O  13,C  12,C   1,H  18)   -109.64  0.001544   -0.80   -110.44   
   137. D(O  13,C  12,C   1,C   2)    129.94 -0.000091   -0.89    129.05   
   138. D(O  13,C  12,C   1,N   0)      4.78 -0.002291    0.73      5.51   
    ----------------------------------------------------------------------------

Geometry step timings:
Preparation and reading OPT file:      0.000 s ( 0.555 %)
Internal coordinates            :      0.000 s ( 0.555 %)
B/P matrices and projection     :      0.001 s (41.647 %)
Hessian update/contruction      :      0.000 s ( 8.561 %)
Making the step                 :      0.001 s (33.596 %)
Converting the step to Cartesian:      0.000 s ( 4.026 %)
Storing new data                :      0.000 s ( 0.555 %)
Checking convergence            :      0.000 s ( 0.740 %)
Final printing                  :      0.000 s ( 9.764 %)
Total time                      :      0.002 s

Time for energy+gradient        :      0.023 s
Time for complete geometry iter :      0.026 s

         *************************************************************
         *                GEOMETRY OPTIMIZATION CYCLE  14            *
         *************************************************************
---------------------------------
CARTESIAN COORDINATES (ANGSTROEM)
---------------------------------
  N     1.897267    0.227860    1.434305
  C     2.376870   -0.081644    0.073260
  C     1.427029    0.417486   -1.005785
  C     0.121920   -0.310165   -0.975815
  C    -0.177963   -1.504784   -1.568476
  N    -1.462645   -1.867655   -1.280391
  C    -2.031894   -0.902754   -0.505546
  C    -3.310436   -0.814571    0.032561
  C    -3.611234    0.297347    0.790426
  C    -2.667248    1.303536    1.006158
  C    -1.397598    1.218802    0.479808
  C    -1.058755    0.102900   -0.284005
  C     3.828993    0.550399   -0.008455
  O     4.226325    1.025886    1.077439
  O     4.409015    0.515646   -1.094789
  H     1.468956   -0.563731    1.915302
  H     2.784862    0.593953    1.885264
  H     1.231828    1.007637    1.405297
  H     2.518938   -1.161356   -0.029401
  H     1.928802    0.270802   -1.964005
  H     1.260345    1.489233   -0.883305
  H     0.443386   -2.127628   -2.182216
  H    -1.927751   -2.685382   -1.633732
  H    -4.045077   -1.585368   -0.141142
  H    -4.596860    0.398187    1.220216
  H    -2.944653    2.164794    1.596389
  H    -0.692422    2.020570    0.640636

----------------------------
CARTESIAN COORDINATES (A.U.)
----------------------------
  NO LB    ZA    FRAG    MASS        X           Y           Z
   0 N   7.0000    0    14.007    3.585315    0.430594    2.710443
   1 C   6.0000    0    12.011    4.491634   -0.154285    0.138442
   2 C   6.0000    0    12.011    2.696694    0.788934   -1.900658
   3 C   6.0000    0    12.011    0.230396   -0.586126   -1.844022
   4 C   6.0000    0    12.011   -0.336302   -2.843629   -2.963991
   5 N   7.0000    0    14.007   -2.763999   -3.529356   -2.419588
   6 C   6.0000    0    12.011   -3.839723   -1.705959   -0.955343
   7 C   6.0000    0    12.011   -6.255817   -1.539317    0.061531
   8 C   6.0000    0    12.011   -6.824243    0.561904    1.493689
   9 C   6.0000    0    12.011   -5.040367    2.463326    1.901364
  10 C   6.0000    0    12.011   -2.641078    2.303201    0.906706
  11 C   6.0000    0    12.011   -2.000757    0.194452   -0.536692
  12 C   6.0000    0    12.011    7.235748    1.040104   -0.015978
  13 O   8.0000    0    15.999    7.986597    1.938643    2.036064
  14 O   8.0000    0    15.999    8.331832    0.974429   -2.068851
  15 H   1.0000    0     1.008    2.775925   -1.065296    3.619396
  16 H   1.0000    0     1.008    5.262626    1.122408    3.562632
  17 H   1.0000    0     1.008    2.327817    1.904158    2.655627
  18 H   1.0000    0     1.008    4.760102   -2.194645   -0.055560
  19 H   1.0000    0     1.008    3.644908    0.511742   -3.711431
  20 H   1.0000    0     1.008    2.381706    2.814243   -1.669204
  21 H   1.0000    0     1.008    0.837879   -4.020634   -4.123790
  22 H   1.0000    0     1.008   -3.642921   -5.074637   -3.087306
  23 H   1.0000    0     1.008   -7.644088   -2.995911   -0.266719
  24 H   1.0000    0     1.008   -8.686806    0.752465    2.305874
  25 H   1.0000    0     1.008   -5.564587    4.090869    3.016739
  26 H   1.0000    0     1.008   -1.308488    3.818324    1.210627

      -----------------------------------------------------------      
     |                   =====================                   |     
     |                           x T B                           |     
     |                   =====================                   |     
     |                         S. Grimme                         |     
     |          Mulliken Center for Theoretical Chemistry        |     
     |                    University of Bonn                     |     
      -----------------------------------------------------------      

   * xtb version 6.7.1 (edcfbbe) compiled by 'albert@albert-system' on 2024-07-22

   xtb is free software: you can redistribute it and/or modify it under
   the terms of the GNU Lesser General Public License as published by
   the Free Software Foundation, either version 3 of the License, or
   (at your option) any later version.
   
   xtb is distributed in the hope that it will be useful,
   but WITHOUT ANY WARRANTY; without even the implied warranty of
   MERCHANTABILITY or FITNESS FOR A PARTICULAR PURPOSE.  See the
   GNU Lesser General Public License for more details.
   
   Cite this work as:
   * C. Bannwarth, E. Caldeweyher, S. Ehlert, A. Hansen, P. Pracht,
     J. Seibert, S. Spicher, S. Grimme, WIREs Comput. Mol. Sci., 2020, 11,
     e01493. DOI: 10.1002/wcms.1493
   
   for GFN2-xTB:
   * C. Bannwarth, S. Ehlert and S. Grimme., J. Chem. Theory Comput., 2019,
     15, 1652-1671. DOI: 10.1021/acs.jctc.8b01176
   for GFN1-xTB:
   * S. Grimme, C. Bannwarth, P. Shushkov, J. Chem. Theory Comput., 2017,
     13, 1989-2009. DOI: 10.1021/acs.jctc.7b00118
   for GFN0-xTB:
   * P. Pracht, E. Caldeweyher, S. Ehlert, S. Grimme, ChemRxiv, 2019, preprint.
     DOI: 10.26434/chemrxiv.8326202.v1
   for GFN-FF:
   * S. Spicher and S. Grimme, Angew. Chem. Int. Ed., 2020, 59, 15665-15673.
     DOI: 10.1002/anie.202004239
   
   for ALPB and GBSA implicit solvation:
   * S. Ehlert, M. Stahn, S. Spicher, S. Grimme, J. Chem. Theory Comput.,
     2021, 17, 4250-4261. DOI: 10.1021/acs.jctc.1c00471
   
   for ddCOSMO and CPCM-X implicit solvation:
   * M. Stahn, S. Ehlert, S. Grimme, J. Phys. Chem. A,
     2023, XX, XXXX-XXXX. DOI: 10.1021/acs.jpca.3c04382
   
   for DFT-D4:
   * E. Caldeweyher, C. Bannwarth and S. Grimme, J. Chem. Phys., 2017,
     147, 034112. DOI: 10.1063/1.4993215
   * E. Caldeweyher, S. Ehlert, A. Hansen, H. Neugebauer, S. Spicher,
     C. Bannwarth and S. Grimme, J. Chem. Phys., 2019, 150, 154122.
     DOI: 10.1063/1.5090222
   * E. Caldeweyher, J.-M. Mewes, S. Ehlert and S. Grimme, Phys. Chem. Chem. Phys.
     2020, 22, 8499-8512. DOI: 10.1039/D0CP00502A
   
   for sTDA-xTB:
   * S. Grimme and C. Bannwarth, J. Chem. Phys., 2016, 145, 054103.
     DOI: 10.1063/1.4959605
   
   in the mass-spec context:
   * V. Asgeirsson, C. Bauer and S. Grimme, Chem. Sci., 2017, 8, 4879.
     DOI: 10.1039/c7sc00601b
   * J. Koopman and S. Grimme, ACS Omega 2019, 4, 12, 15120-15133.
     DOI: 10.1021/acsomega.9b02011
   
   for metadynamics refer to:
   * S. Grimme, J. Chem. Theory Comput., 2019, 155, 2847-2862
     DOI: 10.1021/acs.jctc.9b00143
   
   for SPH calculations refer to:
   * S. Spicher and S. Grimme, J. Chem. Theory Comput., 2021, 17, 1701-1714
     DOI: 10.1021/acs.jctc.0c01306
   
   for ONIOM refer to:
   * C. Plett, A. Katbashev, S. Ehlert, S. Grimme, M. Bursch,
     Phys. Chem. Chem. Phys., 2023, 25, 17860-17868. DOI: 10.1039/D3CP02178E
   
   for DIPRO refer to:
   * J. Kohn, N. Gildemeister, S. Grimme, D. Fazzi, A. Hansen,
     J. Chem. Phys., 2023, just accepted.
   
   for PTB refer to:
   * S. Grimme, M. Mueller, A. Hansen, J. Chem. Phys., 2023, 158, 124111.
     DOI: 10.1063/5.0137838
   
   with help from (in alphabetical order)
   P. Atkinson, C. Bannwarth, F. Bohle, G. Brandenburg, E. Caldeweyher
   M. Checinski, S. Dohm, S. Ehlert, S. Ehrlich, I. Gerasimov, C. Hölzer
   A. Katbashev, J. Kohn, J. Koopman, C. Lavigne, S. Lehtola, F. März, M. Müller,
   F. Musil, H. Neugebauer, J. Pisarek, C. Plett, P. Pracht, F. Pultar,
   J. Seibert, P. Shushkov, S. Spicher, M. Stahn, M. Steiner, T. Strunk,
   J. Stückrath, T. Rose, and J. Unsleber
   
 * started run on 2026/04/09 at 18:40:48.705     
   ID    Z sym.   atoms
    1    7 N      1, 6
    2    6 C      2-5, 7-13
    3    8 O      14, 15
    4    1 H      16-27

           -------------------------------------------------
          |                Calculation Setup                |
           -------------------------------------------------

          program call               : /home/analima/Programs/orca-6.1.0-f.0_linux_x86-64/bin/otool_xtb geo_opt_XTB.xyz --grad -c 0 -u 0 -P 1 --namespace geo_opt --input geo_opt_XTB.input.tmp --alpb WATER --acc 0.200000
          calculation namespace      : geo_opt
          coordinate file            : geo_opt_XTB.xyz
          omp threads                :                     1


           -------------------------------------------------
          |                 G F N 2 - x T B                 |
           -------------------------------------------------

        Reference                      10.1021/acs.jctc.8b01176
      * Hamiltonian:
        H0-scaling (s, p, d)           1.850000    2.230000    2.230000
        zeta-weighting                 0.500000
      * Dispersion:
        s8                             2.700000
        a1                             0.520000
        a2                             5.000000
        s9                             5.000000
      * Repulsion:
        kExp                           1.500000    1.000000
        rExp                           1.000000
      * Coulomb:
        alpha                          2.000000
        third order                    shell-resolved
        anisotropic                    true
        a3                             3.000000
        a5                             4.000000
        cn-shift                       1.200000
        cn-exp                         4.000000
        max-rad                        5.000000

      * Solvation model:               ALPB
        Solvent                        WATER
        Parameter file                 internal GFN2-xTB/ALPB
        Dielectric constant                8.0200E+01
        Reference state                gsolv [1 M gas/solution]
        Free energy shift                  1.0808E-03 Eh       6.7819E-01 kcal/mol
        Temperature                        2.9815E+02 K
        Density                            1.0000E+00 kg/L
        Solvent mass                       1.8000E+01 g/mol
        Interaction kernel             P16
        Born radius scaling (c1)           1.4744E+00
        Born radii integrator          GBOBC
        Born offset                        0.0000E+00 a0       0.0000E+00 AA
        H-bond correction              true
        Ion screening                  false
        Surface tension                    1.0000E-05 Eh       1.5569E+01 dyn/cm
        Grid points                               230 per atom
q/qsh data taken from xtbrestart
CAMM data taken from xtbrestart

          ...................................................
          :                      SETUP                      :
          :.................................................:
          :  # basis functions                  72          :
          :  # atomic orbitals                  72          :
          :  # shells                           42          :
          :  # electrons                        78          :
          :  max. iterations                   250          :
          :  Hamiltonian                  GFN2-xTB          :
          :  restarted?                       true          :
          :  GBSA solvation                   true          :
          :  PC potential                    false          :
          :  electronic temp.          300.0000000     K    :
          :  accuracy                    0.2000000          :
          :  -> integral cutoff          0.3198970E+02      :
          :  -> integral neglect         0.2000000E-08      :
          :  -> SCF convergence          0.2000000E-06 Eh   :
          :  -> wf. convergence          0.2000000E-04 e    :
          :  Broyden damping             0.4000000          :
          :  net charge                          0          :
          :  unpaired electrons                  0          :
          ...................................................

 iter      E             dE          RMSdq      gap      omega  full diag
   1    -44.3030950 -0.443031E+02  0.114E-01    3.55       0.0  T
   2    -44.3031106 -0.155896E-04  0.664E-02    3.55       1.0  T
   3    -44.3031090  0.154101E-05  0.167E-02    3.55       1.2  T
   4    -44.3031114 -0.233045E-05  0.616E-03    3.55       3.1  T
   5    -44.3031121 -0.709603E-06  0.181E-03    3.55      10.6  T
   6    -44.3031121 -0.270026E-07  0.901E-04    3.55      21.4  T
   7    -44.3031121 -0.164367E-08  0.313E-04    3.55      61.4  T
   8    -44.3031121 -0.844040E-09  0.125E-04    3.55     153.9  T
   9    -44.3031121 -0.436771E-10  0.600E-05    3.55     320.7  T

   *** convergence criteria satisfied after 9 iterations ***

         #    Occupation            Energy/Eh            Energy/eV
      -------------------------------------------------------------
         1        2.0000           -0.6972437             -18.9730
       ...           ...                  ...                  ...
        33        2.0000           -0.4183539             -11.3840
        34        2.0000           -0.4171377             -11.3509
        35        2.0000           -0.4158608             -11.3161
        36        2.0000           -0.4051425             -11.0245
        37        2.0000           -0.3822289             -10.4010
        38        2.0000           -0.3815100             -10.3814
        39        2.0000           -0.3621782              -9.8554 (HOMO)
        40                         -0.2317754              -6.3069 (LUMO)
        41                         -0.1976927              -5.3795
        42                         -0.1881996              -5.1212
        43                         -0.1579093              -4.2969
        44                         -0.0726892              -1.9780
       ...                                ...                  ...
        72                          0.7192216              19.5710
      -------------------------------------------------------------
                  HL-Gap            0.1304028 Eh            3.5484 eV
             Fermi-level           -0.2969768 Eh           -8.0812 eV

 SCC (total)                   0 d,  0 h,  0 min,  0.013 sec
 SCC setup                      ...        0 min,  0.000 sec (  2.686%)
 Dispersion                     ...        0 min,  0.000 sec (  0.799%)
 classical contributions        ...        0 min,  0.000 sec (  0.136%)
 integral evaluation            ...        0 min,  0.002 sec ( 12.140%)
 iterations                     ...        0 min,  0.006 sec ( 44.111%)
 molecular gradient             ...        0 min,  0.005 sec ( 39.568%)
 printout                       ...        0 min,  0.000 sec (  0.480%)

         :::::::::::::::::::::::::::::::::::::::::::::::::::::
         ::                     SUMMARY                     ::
         :::::::::::::::::::::::::::::::::::::::::::::::::::::
         :: total energy             -43.681228825068 Eh    ::
         :: total w/o Gsasa/hb       -43.673263015160 Eh    ::
         :: gradient norm              0.012941715113 Eh/a0 ::
         :: HOMO-LUMO gap              3.548440556753 eV    ::
         ::.................................................::
         :: SCC energy               -44.302957911051 Eh    ::
         :: -> isotropic ES            0.167771931432 Eh    ::
         :: -> anisotropic ES         -0.008843272949 Eh    ::
         :: -> anisotropic XC          0.016227659789 Eh    ::
         :: -> dispersion             -0.026100508854 Eh    ::
         :: -> Gsolv                  -0.065357747561 Eh    ::
         ::    -> Gelec               -0.057391937652 Eh    ::
         ::    -> Gsasa                0.001710353435 Eh    ::
         ::    -> Ghb                 -0.010756923042 Eh    ::
         ::    -> Gshift               0.001080759698 Eh    ::
         :: repulsion energy           0.621729085983 Eh    ::
         :: add. restraining           0.000000000000 Eh    ::
         :: total charge              -0.000000000000 e     ::
         :::::::::::::::::::::::::::::::::::::::::::::::::::::


Property printout bound to 'properties.out'

           -------------------------------------------------
          | TOTAL ENERGY              -43.681228825068 Eh   |
          | GRADIENT NORM               0.012941715113 Eh/α |
          | HOMO-LUMO GAP               3.548440556753 eV   |
           -------------------------------------------------

------------------------------------------------------------------------
 * finished run on 2026/04/09 at 18:40:48.724     
------------------------------------------------------------------------
 total:
 * wall-time:     0 d,  0 h,  0 min,  0.019 sec
 *  cpu-time:     0 d,  0 h,  0 min,  0.017 sec
 * ratio c/w:     0.919 speedup
 SCF:
 * wall-time:     0 d,  0 h,  0 min,  0.013 sec
 *  cpu-time:     0 d,  0 h,  0 min,  0.011 sec
 * ratio c/w:     0.891 speedup


-------------------------   --------------------
FINAL SINGLE POINT ENERGY       -43.681228825070
-------------------------   --------------------


-------------
DIPOLE MOMENT
-------------
                                X             Y             Z
Total Dipole Moment    :     -4.72300      -2.03100       1.70200
                        -----------------------------------------
Magnitude (a.u.)       :      5.41558
Magnitude (Debye)      :     13.76531


------------------
CARTESIAN GRADIENT
------------------

   1   N   :    0.005653473   -0.003173973    0.000795944
   2   C   :   -0.002425432    0.005089460   -0.004087958
   3   C   :   -0.001203412   -0.001030146    0.002778611
   4   C   :    0.000227364    0.000425845    0.000066510
   5   C   :   -0.000188002   -0.000181738   -0.000296596
   6   N   :   -0.000382853   -0.000395748    0.000564143
   7   C   :    0.001239116    0.000683536   -0.000246605
   8   C   :    0.000054267   -0.000752659   -0.000354105
   9   C   :    0.000795502    0.001366953    0.000547111
  10   C   :   -0.001193325   -0.000984464   -0.000223986
  11   C   :    0.000929288   -0.001306128   -0.001356920
  12   C   :   -0.000549308    0.000526689    0.000538538
  13   C   :    0.001684157   -0.003239846    0.003262660
  14   O   :   -0.000129632    0.001335228   -0.000927384
  15   O   :   -0.000817645    0.000641784    0.000446567
  16   H   :   -0.001957140   -0.000356968   -0.001556222
  17   H   :   -0.002565373    0.000801998   -0.001458322
  18   H   :    0.001486663    0.001392783   -0.000265240
  19   H   :    0.000291410   -0.000611584    0.001149412
  20   H   :    0.000207031   -0.000135666    0.000423634
  21   H   :   -0.000527606   -0.000254529   -0.000107606
  22   H   :   -0.000406231   -0.000407523    0.000014230
  23   H   :    0.000251064    0.000686662   -0.000078726
  24   H   :    0.000048900    0.000291077    0.000149678
  25   H   :   -0.000131105   -0.000089525    0.000000761
  26   H   :    0.000062058    0.000197810    0.000092625
  27   H   :   -0.000453228   -0.000519330    0.000129248

Difference to translation invariance:
           :   -0.0000000000    0.0000000000   -0.0000000000

Difference to rotation invariance:
           :   -0.0003029334    0.0005233940    0.0000714198

Norm of the Cartesian gradient     ...    0.0129417151
RMS gradient                       ...    0.0014379683
MAX gradient                       ...    0.0056534734
------------------------------------------------------------------------------
                         ORCA GEOMETRY RELAXATION STEP
------------------------------------------------------------------------------

Reading the OPT-File                    .... done
Getting information on internals        .... done
Copying old internal coords+grads       .... done
Making the new internal coordinates     .... (2022 redundants) done
Validating the new internal coordinates .... (2022 redundants) done
Calculating the B-matrix                .... done
Calculating the G,G- and P matrices     .... done
Transforming gradient to internals      .... done
Projecting the internal gradient        .... done
Number of atoms                         ....  27
Number of internal coordinates          .... 138
Current Energy                          ....   -43.681228825 Eh
Current gradient norm                   ....     0.012941715 Eh/bohr
Maximum allowed component of the step   ....  0.300
Current trust radius                    ....  0.700
Updating the Hessian (BFGS)             .... done
Forming the augmented Hessian           .... done
Diagonalizing the augmented Hessian     .... done
Last element of RFO vector              ....  0.896205385
Lowest eigenvalues of augmented Hessian:
 -0.001156461  0.002091164  0.013386262  0.015083069  0.016637644
Length of the computed step             ....  0.495019776
The final length of the internal step   ....  0.495019776
Converting the step to Cartesian space:
 Initial RMS(Int)=    0.0421388817
Transforming coordinates:
 Iter   0:  RMS(Cart)=    0.0722742745 RMS(Int)=    0.0420161828
 Iter   5:  RMS(Cart)=    0.0000090740 RMS(Int)=    0.0000061808
done
Storing new coordinates                 .... done
The predicted energy change is          ....    -0.000719923
Previously predicted energy change      ....    -0.001001161
Actually observed energy change         ....    -0.001215051
Ratio of predicted to observed change   ....     1.213641891
New trust radius                        ....     0.700000000

                                .--------------------.
          ----------------------|Geometry convergence|-------------------------
          Item                value                   Tolerance       Converged
          ---------------------------------------------------------------------
          Energy change      -0.0012150506            0.0000050000      NO
          RMS gradient        0.0007914228            0.0001000000      NO
          MAX gradient        0.0034116524            0.0003000000      NO
          RMS step            0.0421388817            0.0020000000      NO
          MAX step            0.2186798705            0.0040000000      NO
          -------------------------------------------------------------------------
          ........................................................
          Max(Bonds)      0.0147      Max(Angles)    1.84
          Max(Dihed)       12.53      Max(Improp)    0.00
          ---------------------------------------------------------------------

The optimization has not yet converged - more geometry cycles are needed


    ---------------------------------------------------------------------------
                         Redundant Internal Coordinates
                            (Angstroem and degrees)

        Definition                    Value    dE/dq     Step     New-Value
    ----------------------------------------------------------------------------
     1. B(C   1,N   0)                1.4759 -0.003412  0.0015    1.4774   
     2. B(C   2,C   1)                1.5217 -0.001701  0.0050    1.5268   
     3. B(C   3,C   2)                1.4946 -0.000061  0.0006    1.4951   
     4. B(C   4,C   3)                1.3669  0.000715 -0.0010    1.3659   
     5. B(N   5,C   4)                1.3657 -0.000330  0.0003    1.3660   
     6. B(C   6,N   5)                1.3622 -0.000709 -0.0000    1.3621   
     7. B(C   7,C   6)                1.3900  0.000082  0.0003    1.3903   
     8. B(C   8,C   7)                1.3788  0.000296 -0.0006    1.3782   
     9. B(C   9,C   8)                1.3964 -0.001444  0.0011    1.3975   
    10. B(C  10,C   9)                1.3770  0.000331 -0.0007    1.3763   
    11. B(C  11,C  10)                1.3941 -0.001821  0.0017    1.3958   
    12. B(C  11,C   6)                1.4168 -0.000984  0.0010    1.4178   
    13. B(C  11,C   3)                1.4294 -0.000460  0.0006    1.4300   
    14. B(C  12,C   1)                1.5858  0.000026  0.0008    1.5866   
    15. B(O  13,C  12)                1.2503 -0.000334  0.0015    1.2518   
    16. B(O  14,C  12)                1.2320 -0.000802 -0.0007    1.2313   
    17. B(H  15,N   0)                1.0205  0.000369 -0.0018    1.0187   
    18. B(H  16,N   0)                1.0608 -0.002491  0.0147    1.0755   
    19. B(H  17,N   0)                1.0255  0.000100 -0.0003    1.0253   
    20. B(H  18,C   1)                1.0938  0.000534 -0.0023    1.0915   
    21. B(H  19,C   2)                1.0915 -0.000260  0.0004    1.0919   
    22. B(H  20,C   2)                1.0915 -0.000180 -0.0005    1.0910   
    23. B(H  21,C   4)                1.0727 -0.000006  0.0000    1.0727   
    24. B(H  22,N   5)                1.0049 -0.000648  0.0008    1.0057   
    25. B(H  23,C   7)                1.0789 -0.000265  0.0004    1.0793   
    26. B(H  24,C   8)                1.0800  0.000111 -0.0003    1.0797   
    27. B(H  25,C   9)                1.0803  0.000191  0.0001    1.0804   
    28. B(H  26,C  10)                1.0798 -0.000663  0.0008    1.0806   
    29. A(H  16,N   0,H  17)          107.01 -0.001265    0.56    107.57   
    30. A(H  15,N   0,H  17)          109.32  0.000710    0.01    109.33   
    31. A(H  15,N   0,H  16)          114.74  0.001714   -0.11    114.63   
    32. A(C   1,N   0,H  15)          114.10 -0.001017    0.98    115.08   
    33. A(C   1,N   0,H  16)          101.10  0.000687   -1.84     99.26   
    34. A(C   1,N   0,H  17)          110.13 -0.000959    0.38    110.51   
    35. A(C   2,C   1,C  12)          113.85  0.003149   -1.31    112.53   
    36. A(C   2,C   1,H  18)          109.77  0.000929   -0.18    109.59   
    37. A(N   0,C   1,C   2)          112.48 -0.000202   -0.13    112.34   
    38. A(N   0,C   1,C  12)          105.16 -0.002380   -0.07    105.09   
    39. A(N   0,C   1,H  18)          109.62 -0.000525    1.28    110.90   
    40. A(C  12,C   1,H  18)          105.64 -0.001213    0.56    106.20   
    41. A(C   1,C   2,C   3)          111.79  0.000320   -0.33    111.46   
    42. A(H  19,C   2,H  20)          107.50  0.000404    0.23    107.72   
    43. A(C   3,C   2,H  20)          110.03 -0.000674    0.14    110.17   
    44. A(C   3,C   2,H  19)          110.71 -0.000098    0.01    110.71   
    45. A(C   1,C   2,H  20)          109.74  0.000472   -0.07    109.68   
    46. A(C   1,C   2,H  19)          106.95 -0.000400    0.03    106.97   
    47. A(C   2,C   3,C   4)          127.47  0.000717   -0.23    127.24   
    48. A(C   2,C   3,C  11)          126.18 -0.000355    0.10    126.28   
    49. A(C   4,C   3,C  11)          106.33 -0.000362    0.13    106.46   
    50. A(N   5,C   4,H  21)          120.75 -0.000475    0.21    120.96   
    51. A(C   3,C   4,H  21)          128.94  0.000673   -0.20    128.73   
    52. A(C   3,C   4,N   5)          110.31 -0.000198   -0.01    110.30   
    53. A(C   6,N   5,H  22)          125.66  0.000046    0.01    125.67   
    54. A(C   4,N   5,H  22)          125.27 -0.000080    0.05    125.32   
    55. A(C   4,N   5,C   6)          108.96  0.000025   -0.05    108.91   
    56. A(C   7,C   6,C  11)          121.75  0.000082   -0.08    121.67   
    57. A(N   5,C   6,C  11)          107.74  0.000273    0.10    107.84   
    58. A(N   5,C   6,C   7)          130.51 -0.000355   -0.02    130.49   
    59. A(C   6,C   7,C   8)          117.69 -0.000080    0.04    117.73   
    60. A(C   8,C   7,H  23)          121.07 -0.000158    0.03    121.10   
    61. A(C   6,C   7,H  23)          121.24  0.000238   -0.08    121.17   
    62. A(C   9,C   8,H  24)          119.22  0.000280   -0.03    119.19   
    63. A(C   7,C   8,H  24)          119.55  0.000044    0.06    119.61   
    64. A(C   7,C   8,C   9)          121.23 -0.000325   -0.03    121.20   
    65. A(C  10,C   9,H  25)          119.65 -0.000100    0.03    119.68   
    66. A(C   8,C   9,H  25)          119.03  0.000142   -0.17    118.86   
    67. A(C   8,C   9,C  10)          121.32 -0.000042    0.14    121.46   
    68. A(C   9,C  10,C  11)          118.87  0.000483   -0.18    118.68   
    69. A(C  11,C  10,H  26)          121.15 -0.000113    0.00    121.15   
    70. A(C   9,C  10,H  26)          119.97 -0.000368    0.17    120.14   
    71. A(C   3,C  11,C   6)          106.65  0.000262   -0.17    106.48   
    72. A(C   6,C  11,C  10)          119.14 -0.000119    0.11    119.25   
    73. A(C   3,C  11,C  10)          134.21 -0.000144    0.06    134.27   
    74. A(O  13,C  12,O  14)          128.83 -0.000384    0.05    128.87   
    75. A(C   1,C  12,O  14)          117.73 -0.000757   -0.03    117.70   
    76. A(C   1,C  12,O  13)          113.44  0.001140   -0.22    113.22   
    77. D(C   2,C   1,N   0,H  16)   -134.62 -0.000606   11.66   -122.96   
    78. D(C  12,C   1,N   0,H  16)    -10.19  0.001549    9.85     -0.34   
    79. D(C   2,C   1,N   0,H  17)    -21.70 -0.002055   11.47    -10.23   
    80. D(C  12,C   1,N   0,H  17)    102.73  0.000101    9.66    112.39   
    81. D(C  12,C   1,N   0,H  15)   -133.90 -0.000455   10.72   -123.18   
    82. D(C   2,C   1,N   0,H  15)    101.67 -0.002611   12.53    114.20   
    83. D(H  19,C   2,C   1,H  18)    -65.50 -0.000628    1.24    -64.25   
    84. D(C   3,C   2,C   1,H  18)     55.83 -0.000819    1.10     56.92   
    85. D(H  19,C   2,C   1,C  12)     52.68  0.000507    1.11     53.79   
    86. D(C   3,C   2,C   1,C  12)    174.00  0.000316    0.97    174.97   
    87. D(C   3,C   2,C   1,N   0)    -66.51 -0.000673   -0.31    -66.81   
    88. D(H  19,C   2,C   1,N   0)    172.17 -0.000482   -0.16    172.01   
    89. D(C   4,C   3,C   2,H  20)    153.10 -0.000187    0.72    153.82   
    90. D(C   4,C   3,C   2,H  19)     34.42 -0.000201    0.35     34.78   
    91. D(C   4,C   3,C   2,C   1)    -84.70  0.000160    0.51    -84.19   
    92. D(C  11,C   3,C   2,H  19)   -147.20 -0.000161    0.19   -147.01   
    93. D(C  11,C   3,C   2,C   1)     93.68  0.000200    0.35     94.03   
    94. D(H  21,C   4,C   3,C  11)    179.44 -0.000004    0.13    179.57   
    95. D(H  21,C   4,C   3,C   2)     -1.92  0.000027    0.02     -1.91   
    96. D(N   5,C   4,C   3,C  11)     -0.57  0.000017   -0.03     -0.60   
    97. D(N   5,C   4,C   3,C   2)    178.06  0.000047   -0.14    177.93   
    98. D(H  22,N   5,C   4,H  21)     -2.83 -0.000127    0.11     -2.72   
    99. D(H  22,N   5,C   4,C   3)    177.18 -0.000146    0.25    177.43   
   100. D(C   6,N   5,C   4,H  21)   -179.21  0.000022   -0.20   -179.41   
   101. D(C   6,N   5,C   4,C   3)      0.80  0.000003   -0.06      0.74   
   102. D(C  11,C   6,N   5,H  22)   -177.05  0.000131   -0.19   -177.24   
   103. D(C  11,C   6,N   5,C   4)     -0.68 -0.000025    0.12     -0.57   
   104. D(C   7,C   6,N   5,C   4)    179.69 -0.000019    0.15    179.84   
   105. D(C   7,C   6,N   5,H  22)      3.33  0.000137   -0.16      3.17   
   106. D(C   8,C   7,C   6,C  11)      0.41  0.000008   -0.08      0.33   
   107. D(C   8,C   7,C   6,N   5)    179.99  0.000002   -0.12    179.87   
   108. D(H  23,C   7,C   6,C  11)   -179.98 -0.000000    0.04   -179.94   
   109. D(H  23,C   7,C   6,N   5)     -0.40 -0.000006    0.01     -0.40   
   110. D(H  24,C   8,C   7,H  23)      0.19  0.000007   -0.07      0.12   
   111. D(H  24,C   8,C   7,C   6)    179.80  0.000000    0.06    179.85   
   112. D(C   9,C   8,C   7,H  23)   -179.34  0.000002    0.00   -179.34   
   113. D(C   9,C   8,C   7,C   6)      0.27 -0.000004    0.12      0.39   
   114. D(H  25,C   9,C   8,H  24)     -0.23  0.000024   -0.02     -0.25   
   115. D(H  25,C   9,C   8,C   7)    179.30  0.000027   -0.09    179.21   
   116. D(C  10,C   9,C   8,H  24)    179.94 -0.000013   -0.01    179.93   
   117. D(C  10,C   9,C   8,C   7)     -0.53 -0.000010   -0.08     -0.61   
   118. D(H  26,C  10,C   9,H  25)     -1.29  0.000059   -0.41     -1.70   
   119. D(H  26,C  10,C   9,C   8)    178.54  0.000096   -0.42    178.12   
   120. D(C  11,C  10,C   9,H  25)   -179.73 -0.000015   -0.00   -179.74   
   121. D(C  11,C  10,C   9,C   8)      0.10  0.000023   -0.02      0.08   
   122. D(C   6,C  11,C  10,H  26)   -177.87 -0.000087    0.46   -177.40   
   123. D(C   6,C  11,C  10,C   9)      0.56 -0.000016    0.06      0.61   
   124. D(C   3,C  11,C  10,C   9)    179.46 -0.000040    0.26    179.72   
   125. D(C  10,C  11,C   6,C   7)     -0.83  0.000004   -0.01     -0.84   
   126. D(C  10,C  11,C   6,N   5)    179.51  0.000011    0.02    179.53   
   127. D(C   3,C  11,C   6,C   7)    179.99  0.000025   -0.16    179.84   
   128. D(C   3,C  11,C   6,N   5)      0.33  0.000032   -0.13      0.20   
   129. D(C  10,C  11,C   3,C   4)   -178.85 -0.000005   -0.09   -178.94   
   130. D(C   3,C  11,C  10,H  26)      1.03 -0.000111    0.67      1.70   
   131. D(C  10,C  11,C   3,C   2)      2.49 -0.000053    0.06      2.55   
   132. D(C   6,C  11,C   3,C   4)      0.14 -0.000029    0.09      0.24   
   133. D(C   6,C  11,C   3,C   2)   -178.51 -0.000077    0.24   -178.27   
   134. D(O  14,C  12,C   1,C   2)    -50.93  0.000810   -3.81    -54.74   
   135. D(O  14,C  12,C   1,N   0)   -174.49  0.000807   -2.66   -177.15   
   136. D(O  13,C  12,C   1,H  18)   -110.43  0.000401   -3.97   -114.40   
   137. D(O  13,C  12,C   1,C   2)    129.05 -0.001773   -3.45    125.60   
   138. D(O  13,C  12,C   1,N   0)      5.49 -0.001776   -2.30      3.19   
    ----------------------------------------------------------------------------

Geometry step timings:
Preparation and reading OPT file:      0.000 s ( 0.420 %)
Internal coordinates            :      0.000 s ( 0.420 %)
B/P matrices and projection     :      0.001 s (41.323 %)
Hessian update/contruction      :      0.000 s ( 8.180 %)
Making the step                 :      0.001 s (31.422 %)
Converting the step to Cartesian:      0.000 s ( 3.555 %)
Storing new data                :      0.000 s ( 0.612 %)
Checking convergence            :      0.000 s ( 1.032 %)
Final printing                  :      0.000 s (13.035 %)
Total time                      :      0.003 s

Time for energy+gradient        :      0.023 s
Time for complete geometry iter :      0.026 s

         *************************************************************
         *                GEOMETRY OPTIMIZATION CYCLE  15            *
         *************************************************************
---------------------------------
CARTESIAN COORDINATES (ANGSTROEM)
---------------------------------
  N     1.896473    0.201415    1.440935
  C     2.377385   -0.107648    0.078578
  C     1.432395    0.414107   -1.001141
  C     0.121927   -0.305209   -0.975435
  C    -0.178624   -1.497014   -1.571123
  N    -1.465143   -1.857806   -1.287065
  C    -2.032903   -0.893456   -0.510460
  C    -3.311699   -0.804588    0.027712
  C    -3.611191    0.304205    0.789507
  C    -2.665446    1.309747    1.007597
  C    -1.395939    1.228105    0.482237
  C    -1.058909    0.111842   -0.284970
  C     3.819744    0.547688   -0.007341
  O     4.188960    1.074050    1.066720
  O     4.420365    0.473946   -1.079699
  H     1.638196   -0.608777    2.001820
  H     2.749337    0.745575    1.805811
  H     1.106581    0.853963    1.403465
  H     2.522038   -1.181999   -0.048918
  H     1.933643    0.269786   -1.960410
  H     1.276063    1.485388   -0.866037
  H     0.446684   -2.118388   -2.182375
  H    -1.931119   -2.676044   -1.640408
  H    -4.046629   -1.575101   -0.148385
  H    -4.596133    0.405350    1.220155
  H    -2.944874    2.168723    1.600344
  H    -0.691182    2.032139    0.638886

----------------------------
CARTESIAN COORDINATES (A.U.)
----------------------------
  NO LB    ZA    FRAG    MASS        X           Y           Z
   0 N   7.0000    0    14.007    3.583815    0.380620    2.722973
   1 C   6.0000    0    12.011    4.492606   -0.203425    0.148491
   2 C   6.0000    0    12.011    2.706834    0.782549   -1.891883
   3 C   6.0000    0    12.011    0.230409   -0.576761   -1.843305
   4 C   6.0000    0    12.011   -0.337551   -2.828947   -2.968993
   5 N   7.0000    0    14.007   -2.768719   -3.510744   -2.432201
   6 C   6.0000    0    12.011   -3.841630   -1.688388   -0.964629
   7 C   6.0000    0    12.011   -6.258204   -1.520450    0.052369
   8 C   6.0000    0    12.011   -6.824163    0.574864    1.491951
   9 C   6.0000    0    12.011   -5.036962    2.475063    1.904082
  10 C   6.0000    0    12.011   -2.637943    2.320781    0.911296
  11 C   6.0000    0    12.011   -2.001047    0.211350   -0.538516
  12 C   6.0000    0    12.011    7.218270    1.034980   -0.013872
  13 O   8.0000    0    15.999    7.915987    2.029661    2.015809
  14 O   8.0000    0    15.999    8.353280    0.895628   -2.040336
  15 H   1.0000    0     1.008    3.095743   -1.150422    3.782891
  16 H   1.0000    0     1.008    5.195494    1.408933    3.412489
  17 H   1.0000    0     1.008    2.091135    1.613757    2.652165
  18 H   1.0000    0     1.008    4.765960   -2.233654   -0.092441
  19 H   1.0000    0     1.008    3.654055    0.509822   -3.704637
  20 H   1.0000    0     1.008    2.411409    2.806976   -1.636573
  21 H   1.0000    0     1.008    0.844111   -4.003174   -4.124091
  22 H   1.0000    0     1.008   -3.649286   -5.056991   -3.099921
  23 H   1.0000    0     1.008   -7.647020   -2.976510   -0.280408
  24 H   1.0000    0     1.008   -8.685432    0.766001    2.305759
  25 H   1.0000    0     1.008   -5.565005    4.098292    3.024212
  26 H   1.0000    0     1.008   -1.306144    3.840187    1.207320

      -----------------------------------------------------------      
     |                   =====================                   |     
     |                           x T B                           |     
     |                   =====================                   |     
     |                         S. Grimme                         |     
     |          Mulliken Center for Theoretical Chemistry        |     
     |                    University of Bonn                     |     
      -----------------------------------------------------------      

   * xtb version 6.7.1 (edcfbbe) compiled by 'albert@albert-system' on 2024-07-22

   xtb is free software: you can redistribute it and/or modify it under
   the terms of the GNU Lesser General Public License as published by
   the Free Software Foundation, either version 3 of the License, or
   (at your option) any later version.
   
   xtb is distributed in the hope that it will be useful,
   but WITHOUT ANY WARRANTY; without even the implied warranty of
   MERCHANTABILITY or FITNESS FOR A PARTICULAR PURPOSE.  See the
   GNU Lesser General Public License for more details.
   
   Cite this work as:
   * C. Bannwarth, E. Caldeweyher, S. Ehlert, A. Hansen, P. Pracht,
     J. Seibert, S. Spicher, S. Grimme, WIREs Comput. Mol. Sci., 2020, 11,
     e01493. DOI: 10.1002/wcms.1493
   
   for GFN2-xTB:
   * C. Bannwarth, S. Ehlert and S. Grimme., J. Chem. Theory Comput., 2019,
     15, 1652-1671. DOI: 10.1021/acs.jctc.8b01176
   for GFN1-xTB:
   * S. Grimme, C. Bannwarth, P. Shushkov, J. Chem. Theory Comput., 2017,
     13, 1989-2009. DOI: 10.1021/acs.jctc.7b00118
   for GFN0-xTB:
   * P. Pracht, E. Caldeweyher, S. Ehlert, S. Grimme, ChemRxiv, 2019, preprint.
     DOI: 10.26434/chemrxiv.8326202.v1
   for GFN-FF:
   * S. Spicher and S. Grimme, Angew. Chem. Int. Ed., 2020, 59, 15665-15673.
     DOI: 10.1002/anie.202004239
   
   for ALPB and GBSA implicit solvation:
   * S. Ehlert, M. Stahn, S. Spicher, S. Grimme, J. Chem. Theory Comput.,
     2021, 17, 4250-4261. DOI: 10.1021/acs.jctc.1c00471
   
   for ddCOSMO and CPCM-X implicit solvation:
   * M. Stahn, S. Ehlert, S. Grimme, J. Phys. Chem. A,
     2023, XX, XXXX-XXXX. DOI: 10.1021/acs.jpca.3c04382
   
   for DFT-D4:
   * E. Caldeweyher, C. Bannwarth and S. Grimme, J. Chem. Phys., 2017,
     147, 034112. DOI: 10.1063/1.4993215
   * E. Caldeweyher, S. Ehlert, A. Hansen, H. Neugebauer, S. Spicher,
     C. Bannwarth and S. Grimme, J. Chem. Phys., 2019, 150, 154122.
     DOI: 10.1063/1.5090222
   * E. Caldeweyher, J.-M. Mewes, S. Ehlert and S. Grimme, Phys. Chem. Chem. Phys.
     2020, 22, 8499-8512. DOI: 10.1039/D0CP00502A
   
   for sTDA-xTB:
   * S. Grimme and C. Bannwarth, J. Chem. Phys., 2016, 145, 054103.
     DOI: 10.1063/1.4959605
   
   in the mass-spec context:
   * V. Asgeirsson, C. Bauer and S. Grimme, Chem. Sci., 2017, 8, 4879.
     DOI: 10.1039/c7sc00601b
   * J. Koopman and S. Grimme, ACS Omega 2019, 4, 12, 15120-15133.
     DOI: 10.1021/acsomega.9b02011
   
   for metadynamics refer to:
   * S. Grimme, J. Chem. Theory Comput., 2019, 155, 2847-2862
     DOI: 10.1021/acs.jctc.9b00143
   
   for SPH calculations refer to:
   * S. Spicher and S. Grimme, J. Chem. Theory Comput., 2021, 17, 1701-1714
     DOI: 10.1021/acs.jctc.0c01306
   
   for ONIOM refer to:
   * C. Plett, A. Katbashev, S. Ehlert, S. Grimme, M. Bursch,
     Phys. Chem. Chem. Phys., 2023, 25, 17860-17868. DOI: 10.1039/D3CP02178E
   
   for DIPRO refer to:
   * J. Kohn, N. Gildemeister, S. Grimme, D. Fazzi, A. Hansen,
     J. Chem. Phys., 2023, just accepted.
   
   for PTB refer to:
   * S. Grimme, M. Mueller, A. Hansen, J. Chem. Phys., 2023, 158, 124111.
     DOI: 10.1063/5.0137838
   
   with help from (in alphabetical order)
   P. Atkinson, C. Bannwarth, F. Bohle, G. Brandenburg, E. Caldeweyher
   M. Checinski, S. Dohm, S. Ehlert, S. Ehrlich, I. Gerasimov, C. Hölzer
   A. Katbashev, J. Kohn, J. Koopman, C. Lavigne, S. Lehtola, F. März, M. Müller,
   F. Musil, H. Neugebauer, J. Pisarek, C. Plett, P. Pracht, F. Pultar,
   J. Seibert, P. Shushkov, S. Spicher, M. Stahn, M. Steiner, T. Strunk,
   J. Stückrath, T. Rose, and J. Unsleber
   
 * started run on 2026/04/09 at 18:40:48.731     
   ID    Z sym.   atoms
    1    7 N      1, 6
    2    6 C      2-5, 7-13
    3    8 O      14, 15
    4    1 H      16-27

           -------------------------------------------------
          |                Calculation Setup                |
           -------------------------------------------------

          program call               : /home/analima/Programs/orca-6.1.0-f.0_linux_x86-64/bin/otool_xtb geo_opt_XTB.xyz --grad -c 0 -u 0 -P 1 --namespace geo_opt --input geo_opt_XTB.input.tmp --alpb WATER --acc 0.200000
          calculation namespace      : geo_opt
          coordinate file            : geo_opt_XTB.xyz
          omp threads                :                     1


           -------------------------------------------------
          |                 G F N 2 - x T B                 |
           -------------------------------------------------

        Reference                      10.1021/acs.jctc.8b01176
      * Hamiltonian:
        H0-scaling (s, p, d)           1.850000    2.230000    2.230000
        zeta-weighting                 0.500000
      * Dispersion:
        s8                             2.700000
        a1                             0.520000
        a2                             5.000000
        s9                             5.000000
      * Repulsion:
        kExp                           1.500000    1.000000
        rExp                           1.000000
      * Coulomb:
        alpha                          2.000000
        third order                    shell-resolved
        anisotropic                    true
        a3                             3.000000
        a5                             4.000000
        cn-shift                       1.200000
        cn-exp                         4.000000
        max-rad                        5.000000

      * Solvation model:               ALPB
        Solvent                        WATER
        Parameter file                 internal GFN2-xTB/ALPB
        Dielectric constant                8.0200E+01
        Reference state                gsolv [1 M gas/solution]
        Free energy shift                  1.0808E-03 Eh       6.7819E-01 kcal/mol
        Temperature                        2.9815E+02 K
        Density                            1.0000E+00 kg/L
        Solvent mass                       1.8000E+01 g/mol
        Interaction kernel             P16
        Born radius scaling (c1)           1.4744E+00
        Born radii integrator          GBOBC
        Born offset                        0.0000E+00 a0       0.0000E+00 AA
        H-bond correction              true
        Ion screening                  false
        Surface tension                    1.0000E-05 Eh       1.5569E+01 dyn/cm
        Grid points                               230 per atom
q/qsh data taken from xtbrestart
CAMM data taken from xtbrestart

          ...................................................
          :                      SETUP                      :
          :.................................................:
          :  # basis functions                  72          :
          :  # atomic orbitals                  72          :
          :  # shells                           42          :
          :  # electrons                        78          :
          :  max. iterations                   250          :
          :  Hamiltonian                  GFN2-xTB          :
          :  restarted?                       true          :
          :  GBSA solvation                   true          :
          :  PC potential                    false          :
          :  electronic temp.          300.0000000     K    :
          :  accuracy                    0.2000000          :
          :  -> integral cutoff          0.3198970E+02      :
          :  -> integral neglect         0.2000000E-08      :
          :  -> SCF convergence          0.2000000E-06 Eh   :
          :  -> wf. convergence          0.2000000E-04 e    :
          :  Broyden damping             0.4000000          :
          :  net charge                          0          :
          :  unpaired electrons                  0          :
          ...................................................

 iter      E             dE          RMSdq      gap      omega  full diag
   1    -44.3012296 -0.443012E+02  0.153E-01    3.55       0.0  T
   2    -44.3012572 -0.275793E-04  0.891E-02    3.55       1.0  T
   3    -44.3012541  0.309673E-05  0.229E-02    3.55       1.0  T
   4    -44.3012595 -0.536451E-05  0.935E-03    3.55       2.1  T
   5    -44.3012610 -0.152700E-05  0.284E-03    3.55       6.8  T
   6    -44.3012610 -0.228714E-07  0.151E-03    3.55      12.8  T
   7    -44.3012610 -0.803203E-08  0.358E-04    3.55      53.8  T
   8    -44.3012610 -0.152230E-08  0.165E-04    3.55     116.7  T
   9    -44.3012610 -0.428102E-10  0.593E-05    3.55     324.7  T

   *** convergence criteria satisfied after 9 iterations ***

         #    Occupation            Energy/Eh            Energy/eV
      -------------------------------------------------------------
         1        2.0000           -0.6985280             -19.0079
       ...           ...                  ...                  ...
        33        2.0000           -0.4193342             -11.4107
        34        2.0000           -0.4185129             -11.3883
        35        2.0000           -0.4163079             -11.3283
        36        2.0000           -0.4077826             -11.0963
        37        2.0000           -0.3827262             -10.4145
        38        2.0000           -0.3822624             -10.4019
        39        2.0000           -0.3624252              -9.8621 (HOMO)
        40                         -0.2319986              -6.3130 (LUMO)
        41                         -0.1980860              -5.3902
        42                         -0.1899777              -5.1696
        43                         -0.1579311              -4.2975
        44                         -0.0733440              -1.9958
       ...                                ...                  ...
        72                          0.7167863              19.5047
      -------------------------------------------------------------
                  HL-Gap            0.1304266 Eh            3.5491 eV
             Fermi-level           -0.2972119 Eh           -8.0875 eV

 SCC (total)                   0 d,  0 h,  0 min,  0.014 sec
 SCC setup                      ...        0 min,  0.000 sec (  2.421%)
 Dispersion                     ...        0 min,  0.000 sec (  0.710%)
 classical contributions        ...        0 min,  0.000 sec (  0.125%)
 integral evaluation            ...        0 min,  0.002 sec ( 10.629%)
 iterations                     ...        0 min,  0.008 sec ( 54.819%)
 molecular gradient             ...        0 min,  0.004 sec ( 30.876%)
 printout                       ...        0 min,  0.000 sec (  0.345%)

         :::::::::::::::::::::::::::::::::::::::::::::::::::::
         ::                     SUMMARY                     ::
         :::::::::::::::::::::::::::::::::::::::::::::::::::::
         :: total energy             -43.681800515240 Eh    ::
         :: total w/o Gsasa/hb       -43.673887091086 Eh    ::
         :: gradient norm              0.012879580618 Eh/a0 ::
         :: HOMO-LUMO gap              3.549088288576 eV    ::
         ::.................................................::
         :: SCC energy               -44.301105526369 Eh    ::
         :: -> isotropic ES            0.163624294370 Eh    ::
         :: -> anisotropic ES         -0.009210563395 Eh    ::
         :: -> anisotropic XC          0.016256310158 Eh    ::
         :: -> dispersion             -0.026113656506 Eh    ::
         :: -> Gsolv                  -0.063319377103 Eh    ::
         ::    -> Gelec               -0.055405952949 Eh    ::
         ::    -> Gsasa                0.001708833008 Eh    ::
         ::    -> Ghb                 -0.010703016860 Eh    ::
         ::    -> Gshift               0.001080759698 Eh    ::
         :: repulsion energy           0.619305011128 Eh    ::
         :: add. restraining           0.000000000000 Eh    ::
         :: total charge               0.000000000000 e     ::
         :::::::::::::::::::::::::::::::::::::::::::::::::::::


Property printout bound to 'properties.out'

           -------------------------------------------------
          | TOTAL ENERGY              -43.681800515240 Eh   |
          | GRADIENT NORM               0.012879580618 Eh/α |
          | HOMO-LUMO GAP               3.549088288576 eV   |
           -------------------------------------------------

------------------------------------------------------------------------
 * finished run on 2026/04/09 at 18:40:48.752     
------------------------------------------------------------------------
 total:
 * wall-time:     0 d,  0 h,  0 min,  0.020 sec
 *  cpu-time:     0 d,  0 h,  0 min,  0.016 sec
 * ratio c/w:     0.808 speedup
 SCF:
 * wall-time:     0 d,  0 h,  0 min,  0.015 sec
 *  cpu-time:     0 d,  0 h,  0 min,  0.011 sec
 * ratio c/w:     0.744 speedup


-------------------------   --------------------
FINAL SINGLE POINT ENERGY       -43.681800515240
-------------------------   --------------------


-------------
DIPOLE MOMENT
-------------
                                X             Y             Z
Total Dipole Moment    :     -4.65400      -2.05500       1.66600
                        -----------------------------------------
Magnitude (a.u.)       :      5.35334
Magnitude (Debye)      :     13.60712


------------------
CARTESIAN GRADIENT
------------------

   1   N   :    0.003284172   -0.007606453    0.003363349
   2   C   :   -0.001346986    0.002569307   -0.002672309
   3   C   :   -0.001262860    0.000455548    0.001084649
   4   C   :   -0.000176600   -0.001036295   -0.000164208
   5   C   :    0.000306906    0.000537399   -0.000252521
   6   N   :   -0.000495117   -0.000219451    0.000682107
   7   C   :    0.001144735   -0.000003769   -0.000625195
   8   C   :    0.000056044   -0.000111423   -0.000099389
   9   C   :    0.000043871    0.000693006    0.000480510
  10   C   :   -0.000163891   -0.001033834   -0.000621762
  11   C   :    0.000444906   -0.000196130   -0.000114849
  12   C   :   -0.000666727    0.001034122    0.000681053
  13   C   :    0.001499354   -0.000488726    0.002449085
  14   O   :    0.000713153   -0.000771986    0.000275900
  15   O   :   -0.000830952    0.000144726   -0.000046194
  16   H   :   -0.002608277    0.000293357   -0.001228543
  17   H   :   -0.001095330    0.004818030   -0.003052864
  18   H   :    0.001442250    0.001751225   -0.000279696
  19   H   :    0.000398878    0.000022040    0.000290553
  20   H   :    0.000329019   -0.000325956   -0.000003276
  21   H   :   -0.000522410   -0.000367244   -0.000001621
  22   H   :   -0.000096834   -0.000244312    0.000085773
  23   H   :   -0.000055816    0.000097597   -0.000303792
  24   H   :   -0.000029847    0.000084107    0.000110866
  25   H   :   -0.000055523   -0.000093003   -0.000040499
  26   H   :   -0.000066655    0.000115787    0.000102012
  27   H   :   -0.000189463   -0.000117667   -0.000099139

Difference to translation invariance:
           :    0.0000000000   -0.0000000000    0.0000000000

Difference to rotation invariance:
           :    0.0000202293    0.0003191530    0.0000871003

Norm of the Cartesian gradient     ...    0.0128795806
RMS gradient                       ...    0.0014310645
MAX gradient                       ...    0.0076064532
------------------------------------------------------------------------------
                         ORCA GEOMETRY RELAXATION STEP
------------------------------------------------------------------------------

Reading the OPT-File                    .... done
Getting information on internals        .... done
Copying old internal coords+grads       .... done
Making the new internal coordinates     .... (2022 redundants) done
Validating the new internal coordinates .... (2022 redundants) done
Calculating the B-matrix                .... done
Calculating the G,G- and P matrices     .... done
Transforming gradient to internals      .... done
Projecting the internal gradient        .... done
Number of atoms                         ....  27
Number of internal coordinates          .... 138
Current Energy                          ....   -43.681800515 Eh
Current gradient norm                   ....     0.012879581 Eh/bohr
Maximum allowed component of the step   ....  0.300
Current trust radius                    ....  0.700
Updating the Hessian (BFGS)             .... done
Forming the augmented Hessian           .... done
Diagonalizing the augmented Hessian     .... done
Last element of RFO vector              ....  0.989569696
Lowest eigenvalues of augmented Hessian:
 -0.000618605  0.002166747  0.012286932  0.016357380  0.017525571
Length of the computed step             ....  0.145573285
The final length of the internal step   ....  0.145573285
Converting the step to Cartesian space:
 Initial RMS(Int)=    0.0123920210
Transforming coordinates:
 Iter   0:  RMS(Cart)=    0.0397746639 RMS(Int)=    0.0123476304
 Iter   5:  RMS(Cart)=    0.0000000121 RMS(Int)=    0.0000000092
done
Storing new coordinates                 .... done
The predicted energy change is          ....    -0.000315857
Previously predicted energy change      ....    -0.000719923
Actually observed energy change         ....    -0.000571690
Ratio of predicted to observed change   ....     0.794099423
New trust radius                        ....     0.700000000

                                .--------------------.
          ----------------------|Geometry convergence|-------------------------
          Item                value                   Tolerance       Converged
          ---------------------------------------------------------------------
          Energy change      -0.0005716902            0.0000050000      NO
          RMS gradient        0.0008000605            0.0001000000      NO
          MAX gradient        0.0040360784            0.0003000000      NO
          RMS step            0.0123920210            0.0020000000      NO
          MAX step            0.0574636363            0.0040000000      NO
          -------------------------------------------------------------------------
          ........................................................
          Max(Bonds)      0.0031      Max(Angles)    1.43
          Max(Dihed)        3.29      Max(Improp)    0.00
          ---------------------------------------------------------------------

The optimization has not yet converged - more geometry cycles are needed


    ---------------------------------------------------------------------------
                         Redundant Internal Coordinates
                            (Angstroem and degrees)

        Definition                    Value    dE/dq     Step     New-Value
    ----------------------------------------------------------------------------
     1. B(C   1,N   0)                1.4774 -0.001586  0.0027    1.4801   
     2. B(C   2,C   1)                1.5268  0.000027  0.0011    1.5278   
     3. B(C   3,C   2)                1.4951  0.000229 -0.0004    1.4947   
     4. B(C   4,C   3)                1.3659 -0.000105  0.0001    1.3659   
     5. B(N   5,C   4)                1.3660  0.000050  0.0000    1.3660   
     6. B(C   6,N   5)                1.3621 -0.000451 -0.0001    1.3620   
     7. B(C   7,C   6)                1.3903  0.000161  0.0000    1.3903   
     8. B(C   8,C   7)                1.3782  0.000007  0.0003    1.3785   
     9. B(C   9,C   8)                1.3975 -0.000664  0.0002    1.3977   
    10. B(C  10,C   9)                1.3763 -0.000013  0.0001    1.3765   
    11. B(C  11,C  10)                1.3958 -0.000684  0.0006    1.3964   
    12. B(C  11,C   6)                1.4178 -0.000217 -0.0003    1.4175   
    13. B(C  11,C   3)                1.4301  0.000195  0.0001    1.4301   
    14. B(C  12,C   1)                1.5866  0.000648  0.0007    1.5873   
    15. B(O  13,C  12)                1.2518  0.000125 -0.0007    1.2511   
    16. B(O  14,C  12)                1.2313 -0.000376 -0.0010    1.2303   
    17. B(H  15,N   0)                1.0187 -0.000247  0.0004    1.0191   
    18. B(H  16,N   0)                1.0755  0.000533  0.0031    1.0786   
    19. B(H  17,N   0)                1.0253  0.000014 -0.0003    1.0249   
    20. B(H  18,C   1)                1.0915 -0.000002 -0.0009    1.0906   
    21. B(H  19,C   2)                1.0919  0.000197 -0.0002    1.0917   
    22. B(H  20,C   2)                1.0910 -0.000287  0.0000    1.0910   
    23. B(H  21,C   4)                1.0727  0.000037 -0.0001    1.0726   
    24. B(H  22,N   5)                1.0057  0.000053 -0.0000    1.0057   
    25. B(H  23,C   7)                1.0793 -0.000058  0.0000    1.0793   
    26. B(H  24,C   8)                1.0797  0.000025 -0.0002    1.0795   
    27. B(H  25,C   9)                1.0804  0.000165 -0.0001    1.0803   
    28. B(H  26,C  10)                1.0806 -0.000225  0.0007    1.0813   
    29. A(H  16,N   0,H  17)          107.54 -0.002283    1.43    108.96   
    30. A(H  15,N   0,H  17)          109.33  0.000081   -0.04    109.29   
    31. A(H  15,N   0,H  16)          114.63  0.003821   -1.35    113.27   
    32. A(C   1,N   0,H  15)          115.08  0.001366   -0.54    114.54   
    33. A(C   1,N   0,H  16)           99.24 -0.002035    0.12     99.36   
    34. A(C   1,N   0,H  17)          110.50 -0.001386    0.55    111.05   
    35. A(C   2,C   1,C  12)          112.53  0.003235   -1.29    111.24   
    36. A(C   2,C   1,H  18)          109.62 -0.000169    0.13    109.75   
    37. A(N   0,C   1,C   2)          112.28 -0.000735   -0.12    112.16   
    38. A(N   0,C   1,C  12)          105.04 -0.002193    0.39    105.43   
    39. A(N   0,C   1,H  18)          110.90  0.000902    0.35    111.25   
    40. A(C  12,C   1,H  18)          106.25 -0.001069    0.59    106.83   
    41. A(C   1,C   2,C   3)          111.46 -0.000177   -0.06    111.40   
    42. A(H  19,C   2,H  20)          107.72  0.000539   -0.09    107.63   
    43. A(C   3,C   2,H  20)          110.16 -0.000585    0.18    110.34   
    44. A(C   3,C   2,H  19)          110.72 -0.000068    0.05    110.77   
    45. A(C   1,C   2,H  20)          109.67  0.000575   -0.27    109.41   
    46. A(C   1,C   2,H  19)          106.98 -0.000239    0.17    107.15   
    47. A(C   2,C   3,C   4)          127.24 -0.000107    0.09    127.33   
    48. A(C   2,C   3,C  11)          126.28 -0.000062   -0.08    126.20   
    49. A(C   4,C   3,C  11)          106.46  0.000171   -0.01    106.45   
    50. A(N   5,C   4,H  21)          120.96 -0.000190    0.09    121.05   
    51. A(C   3,C   4,H  21)          128.73  0.000263   -0.07    128.66   
    52. A(C   3,C   4,N   5)          110.30 -0.000074   -0.02    110.29   
    53. A(C   6,N   5,H  22)          125.67  0.000147   -0.04    125.64   
    54. A(C   4,N   5,H  22)          125.32  0.000009    0.02    125.34   
    55. A(C   4,N   5,C   6)          108.91 -0.000163    0.02    108.94   
    56. A(C   7,C   6,C  11)          121.67 -0.000136    0.01    121.68   
    57. A(N   5,C   6,C  11)          107.84  0.000496   -0.02    107.82   
    58. A(N   5,C   6,C   7)          130.49 -0.000360    0.01    130.50   
    59. A(C   6,C   7,C   8)          117.73  0.000053   -0.00    117.73   
    60. A(C   8,C   7,H  23)          121.10 -0.000152    0.03    121.13   
    61. A(C   6,C   7,H  23)          121.17  0.000098   -0.03    121.14   
    62. A(C   9,C   8,H  24)          119.19  0.000263   -0.01    119.17   
    63. A(C   7,C   8,H  24)          119.61  0.000032    0.02    119.63   
    64. A(C   7,C   8,C   9)          121.20 -0.000296   -0.01    121.19   
    65. A(C  10,C   9,H  25)          119.68 -0.000161    0.01    119.69   
    66. A(C   8,C   9,H  25)          118.86 -0.000221   -0.03    118.83   
    67. A(C   8,C   9,C  10)          121.46  0.000382    0.02    121.48   
    68. A(C   9,C  10,C  11)          118.68 -0.000138   -0.04    118.65   
    69. A(C  11,C  10,H  26)          121.15  0.000085    0.01    121.16   
    70. A(C   9,C  10,H  26)          120.14  0.000051    0.02    120.16   
    71. A(C   3,C  11,C   6)          106.48 -0.000430    0.02    106.50   
    72. A(C   6,C  11,C  10)          119.25  0.000134    0.02    119.27   
    73. A(C   3,C  11,C  10)          134.27  0.000296   -0.04    134.22   
    74. A(O  13,C  12,O  14)          128.94  0.000227    0.05    129.00   
    75. A(C   1,C  12,O  14)          117.77 -0.001134    0.01    117.78   
    76. A(C   1,C  12,O  13)          113.29  0.000907   -0.04    113.25   
    77. D(C   2,C   1,N   0,H  16)   -122.97  0.001938    1.28   -121.69   
    78. D(C  12,C   1,N   0,H  16)     -0.36  0.004036   -0.15     -0.51   
    79. D(C   2,C   1,N   0,H  17)    -10.21 -0.002042    3.21     -7.01   
    80. D(C  12,C   1,N   0,H  17)    112.40  0.000057    1.78    114.17   
    81. D(C  12,C   1,N   0,H  15)   -123.19  0.000082    1.86   -121.33   
    82. D(C   2,C   1,N   0,H  15)    114.20 -0.002016    3.29    117.49   
    83. D(H  19,C   2,C   1,H  18)    -64.24 -0.000150    1.71    -62.53   
    84. D(C   3,C   2,C   1,H  18)     56.94 -0.000492    1.86     58.80   
    85. D(H  19,C   2,C   1,C  12)     53.76  0.000423    1.84     55.60   
    86. D(C   3,C   2,C   1,C  12)    174.94  0.000080    2.00    176.93   
    87. D(C   3,C   2,C   1,N   0)    -66.80 -0.001014    1.40    -65.40   
    88. D(H  19,C   2,C   1,N   0)    172.03 -0.000672    1.24    173.27   
    89. D(C   4,C   3,C   2,H  20)    153.82  0.000014    0.45    154.27   
    90. D(C   4,C   3,C   2,H  19)     34.77 -0.000240    0.42     35.19   
    91. D(C   4,C   3,C   2,C   1)    -84.19  0.000220    0.19    -84.00   
    92. D(C  11,C   3,C   2,H  19)   -147.01 -0.000142    0.03   -146.97   
    93. D(C  11,C   3,C   2,C   1)     94.03  0.000318   -0.20     93.84   
    94. D(H  21,C   4,C   3,C  11)    179.58  0.000012    0.04    179.61   
    95. D(H  21,C   4,C   3,C   2)     -1.92  0.000092   -0.27     -2.19   
    96. D(N   5,C   4,C   3,C  11)     -0.60 -0.000050    0.15     -0.44   
    97. D(N   5,C   4,C   3,C   2)    177.91  0.000030   -0.16    177.75   
    98. D(H  22,N   5,C   4,H  21)     -2.73 -0.000147    0.32     -2.41   
    99. D(H  22,N   5,C   4,C   3)    177.43 -0.000091    0.21    177.64   
   100. D(C   6,N   5,C   4,H  21)   -179.42 -0.000016   -0.04   -179.45   
   101. D(C   6,N   5,C   4,C   3)      0.74  0.000040   -0.14      0.60   
   102. D(C  11,C   6,N   5,H  22)   -177.24  0.000122   -0.29   -177.53   
   103. D(C  11,C   6,N   5,C   4)     -0.56 -0.000016    0.07     -0.49   
   104. D(C   7,C   6,N   5,C   4)    179.84 -0.000011    0.09    179.93   
   105. D(C   7,C   6,N   5,H  22)      3.17  0.000127   -0.27      2.90   
   106. D(C   8,C   7,C   6,C  11)      0.33  0.000009   -0.03      0.30   
   107. D(C   8,C   7,C   6,N   5)    179.87  0.000005   -0.05    179.83   
   108. D(H  23,C   7,C   6,C  11)   -179.94  0.000025   -0.04   -179.98   
   109. D(H  23,C   7,C   6,N   5)     -0.40  0.000021   -0.06     -0.46   
   110. D(H  24,C   8,C   7,H  23)      0.12 -0.000023    0.10      0.22   
   111. D(H  24,C   8,C   7,C   6)    179.85 -0.000006    0.09    179.94   
   112. D(C   9,C   8,C   7,H  23)   -179.34  0.000002    0.05   -179.29   
   113. D(C   9,C   8,C   7,C   6)      0.39  0.000019    0.03      0.42   
   114. D(H  25,C   9,C   8,H  24)     -0.25  0.000003   -0.01     -0.26   
   115. D(H  25,C   9,C   8,C   7)    179.21 -0.000023    0.04    179.26   
   116. D(C  10,C   9,C   8,H  24)    179.93 -0.000011   -0.05    179.88   
   117. D(C  10,C   9,C   8,C   7)     -0.61 -0.000037    0.00     -0.60   
   118. D(H  26,C  10,C   9,H  25)     -1.70 -0.000038   -0.12     -1.82   
   119. D(H  26,C  10,C   9,C   8)    178.12 -0.000024   -0.08    178.04   
   120. D(C  11,C  10,C   9,H  25)   -179.74  0.000008   -0.09   -179.83   
   121. D(C  11,C  10,C   9,C   8)      0.08  0.000023   -0.05      0.03   
   122. D(C   6,C  11,C  10,H  26)   -177.40  0.000058    0.09   -177.32   
   123. D(C   6,C  11,C  10,C   9)      0.62  0.000011    0.06      0.68   
   124. D(C   3,C  11,C  10,C   9)    179.72 -0.000003    0.02    179.73   
   125. D(C  10,C  11,C   6,C   7)     -0.84 -0.000026   -0.02     -0.86   
   126. D(C  10,C  11,C   6,N   5)    179.52 -0.000019   -0.01    179.52   
   127. D(C   3,C  11,C   6,C   7)    179.83 -0.000020    0.01    179.84   
   128. D(C   3,C  11,C   6,N   5)      0.20 -0.000014    0.03      0.22   
   129. D(C  10,C  11,C   3,C   4)   -178.94  0.000049   -0.07   -179.01   
   130. D(C   3,C  11,C  10,H  26)      1.70  0.000044    0.04      1.74   
   131. D(C  10,C  11,C   3,C   2)      2.53 -0.000028    0.26      2.79   
   132. D(C   6,C  11,C   3,C   4)      0.24  0.000039   -0.11      0.13   
   133. D(C   6,C  11,C   3,C   2)   -178.28 -0.000038    0.22   -178.07   
   134. D(O  14,C  12,C   1,C   2)    -54.72  0.000254   -1.44    -56.16   
   135. D(O  14,C  12,C   1,N   0)   -177.17  0.000726   -0.68   -177.84   
   136. D(O  13,C  12,C   1,H  18)   -114.41  0.001239   -2.29   -116.70   
   137. D(O  13,C  12,C   1,C   2)    125.62  0.000276   -2.18    123.44   
   138. D(O  13,C  12,C   1,N   0)      3.18  0.000749   -1.42      1.76   
    ----------------------------------------------------------------------------

Geometry step timings:
Preparation and reading OPT file:      0.000 s ( 0.558 %)
Internal coordinates            :      0.000 s ( 0.558 %)
B/P matrices and projection     :      0.001 s (41.887 %)
Hessian update/contruction      :      0.000 s ( 9.019 %)
Making the step                 :      0.001 s (33.147 %)
Converting the step to Cartesian:      0.000 s ( 3.766 %)
Storing new data                :      0.000 s ( 0.558 %)
Checking convergence            :      0.000 s ( 0.697 %)
Final printing                  :      0.000 s ( 9.809 %)
Total time                      :      0.002 s

Time for energy+gradient        :      0.024 s
Time for complete geometry iter :      0.027 s

         *************************************************************
         *                GEOMETRY OPTIMIZATION CYCLE  16            *
         *************************************************************
---------------------------------
CARTESIAN COORDINATES (ANGSTROEM)
---------------------------------
  N     1.877618    0.167253    1.439199
  C     2.380816   -0.120608    0.077309
  C     1.439585    0.403278   -1.006178
  C     0.126550   -0.310503   -0.979975
  C    -0.179078   -1.504423   -1.568955
  N    -1.466898   -1.858209   -1.281989
  C    -2.029539   -0.889110   -0.507776
  C    -3.306773   -0.793548    0.033037
  C    -3.600191    0.318972    0.792257
  C    -2.649920    1.321803    1.004384
  C    -1.382049    1.234106    0.475742
  C    -1.051310    0.112972   -0.288158
  C     3.800839    0.583881   -0.004375
  O     4.135209    1.145796    1.062232
  O     4.411990    0.520030   -1.070284
  H     1.674421   -0.659908    1.998708
  H     2.709906    0.740761    1.815617
  H     1.047058    0.766884    1.406171
  H     2.548733   -1.188786   -0.064624
  H     1.940321    0.258191   -1.965410
  H     1.291107    1.475540   -0.869853
  H     0.443817   -2.129891   -2.178299
  H    -1.935925   -2.677894   -1.627819
  H    -4.044896   -1.561839   -0.139498
  H    -4.583014    0.425048    1.226108
  H    -2.924655    2.183165    1.595685
  H    -0.673722    2.037037    0.626746

----------------------------
CARTESIAN COORDINATES (A.U.)
----------------------------
  NO LB    ZA    FRAG    MASS        X           Y           Z
   0 N   7.0000    0    14.007    3.548183    0.316062    2.719691
   1 C   6.0000    0    12.011    4.499090   -0.227916    0.146092
   2 C   6.0000    0    12.011    2.720421    0.762086   -1.901401
   3 C   6.0000    0    12.011    0.239145   -0.586766   -1.851884
   4 C   6.0000    0    12.011   -0.338408   -2.842947   -2.964895
   5 N   7.0000    0    14.007   -2.772035   -3.511506   -2.422608
   6 C   6.0000    0    12.011   -3.835274   -1.680174   -0.959557
   7 C   6.0000    0    12.011   -6.248895   -1.499588    0.062431
   8 C   6.0000    0    12.011   -6.803376    0.602769    1.497148
   9 C   6.0000    0    12.011   -5.007623    2.497846    1.898011
  10 C   6.0000    0    12.011   -2.611694    2.332123    0.899022
  11 C   6.0000    0    12.011   -1.986687    0.213486   -0.544540
  12 C   6.0000    0    12.011    7.182544    1.103374   -0.008267
  13 O   8.0000    0    15.999    7.814413    2.165241    2.007328
  14 O   8.0000    0    15.999    8.337453    0.982715   -2.022544
  15 H   1.0000    0     1.008    3.164196   -1.247045    3.777011
  16 H   1.0000    0     1.008    5.120980    1.399835    3.431018
  17 H   1.0000    0     1.008    1.978653    1.449201    2.657277
  18 H   1.0000    0     1.008    4.816407   -2.246480   -0.122122
  19 H   1.0000    0     1.008    3.666676    0.487911   -3.714087
  20 H   1.0000    0     1.008    2.439839    2.788366   -1.643783
  21 H   1.0000    0     1.008    0.838693   -4.024911   -4.116389
  22 H   1.0000    0     1.008   -3.658369   -5.060486   -3.076133
  23 H   1.0000    0     1.008   -7.643745   -2.951447   -0.263613
  24 H   1.0000    0     1.008   -8.660642    0.803224    2.317008
  25 H   1.0000    0     1.008   -5.526797    4.125584    3.015407
  26 H   1.0000    0     1.008   -1.273150    3.849443    1.184378

      -----------------------------------------------------------      
     |                   =====================                   |     
     |                           x T B                           |     
     |                   =====================                   |     
     |                         S. Grimme                         |     
     |          Mulliken Center for Theoretical Chemistry        |     
     |                    University of Bonn                     |     
      -----------------------------------------------------------      

   * xtb version 6.7.1 (edcfbbe) compiled by 'albert@albert-system' on 2024-07-22

   xtb is free software: you can redistribute it and/or modify it under
   the terms of the GNU Lesser General Public License as published by
   the Free Software Foundation, either version 3 of the License, or
   (at your option) any later version.
   
   xtb is distributed in the hope that it will be useful,
   but WITHOUT ANY WARRANTY; without even the implied warranty of
   MERCHANTABILITY or FITNESS FOR A PARTICULAR PURPOSE.  See the
   GNU Lesser General Public License for more details.
   
   Cite this work as:
   * C. Bannwarth, E. Caldeweyher, S. Ehlert, A. Hansen, P. Pracht,
     J. Seibert, S. Spicher, S. Grimme, WIREs Comput. Mol. Sci., 2020, 11,
     e01493. DOI: 10.1002/wcms.1493
   
   for GFN2-xTB:
   * C. Bannwarth, S. Ehlert and S. Grimme., J. Chem. Theory Comput., 2019,
     15, 1652-1671. DOI: 10.1021/acs.jctc.8b01176
   for GFN1-xTB:
   * S. Grimme, C. Bannwarth, P. Shushkov, J. Chem. Theory Comput., 2017,
     13, 1989-2009. DOI: 10.1021/acs.jctc.7b00118
   for GFN0-xTB:
   * P. Pracht, E. Caldeweyher, S. Ehlert, S. Grimme, ChemRxiv, 2019, preprint.
     DOI: 10.26434/chemrxiv.8326202.v1
   for GFN-FF:
   * S. Spicher and S. Grimme, Angew. Chem. Int. Ed., 2020, 59, 15665-15673.
     DOI: 10.1002/anie.202004239
   
   for ALPB and GBSA implicit solvation:
   * S. Ehlert, M. Stahn, S. Spicher, S. Grimme, J. Chem. Theory Comput.,
     2021, 17, 4250-4261. DOI: 10.1021/acs.jctc.1c00471
   
   for ddCOSMO and CPCM-X implicit solvation:
   * M. Stahn, S. Ehlert, S. Grimme, J. Phys. Chem. A,
     2023, XX, XXXX-XXXX. DOI: 10.1021/acs.jpca.3c04382
   
   for DFT-D4:
   * E. Caldeweyher, C. Bannwarth and S. Grimme, J. Chem. Phys., 2017,
     147, 034112. DOI: 10.1063/1.4993215
   * E. Caldeweyher, S. Ehlert, A. Hansen, H. Neugebauer, S. Spicher,
     C. Bannwarth and S. Grimme, J. Chem. Phys., 2019, 150, 154122.
     DOI: 10.1063/1.5090222
   * E. Caldeweyher, J.-M. Mewes, S. Ehlert and S. Grimme, Phys. Chem. Chem. Phys.
     2020, 22, 8499-8512. DOI: 10.1039/D0CP00502A
   
   for sTDA-xTB:
   * S. Grimme and C. Bannwarth, J. Chem. Phys., 2016, 145, 054103.
     DOI: 10.1063/1.4959605
   
   in the mass-spec context:
   * V. Asgeirsson, C. Bauer and S. Grimme, Chem. Sci., 2017, 8, 4879.
     DOI: 10.1039/c7sc00601b
   * J. Koopman and S. Grimme, ACS Omega 2019, 4, 12, 15120-15133.
     DOI: 10.1021/acsomega.9b02011
   
   for metadynamics refer to:
   * S. Grimme, J. Chem. Theory Comput., 2019, 155, 2847-2862
     DOI: 10.1021/acs.jctc.9b00143
   
   for SPH calculations refer to:
   * S. Spicher and S. Grimme, J. Chem. Theory Comput., 2021, 17, 1701-1714
     DOI: 10.1021/acs.jctc.0c01306
   
   for ONIOM refer to:
   * C. Plett, A. Katbashev, S. Ehlert, S. Grimme, M. Bursch,
     Phys. Chem. Chem. Phys., 2023, 25, 17860-17868. DOI: 10.1039/D3CP02178E
   
   for DIPRO refer to:
   * J. Kohn, N. Gildemeister, S. Grimme, D. Fazzi, A. Hansen,
     J. Chem. Phys., 2023, just accepted.
   
   for PTB refer to:
   * S. Grimme, M. Mueller, A. Hansen, J. Chem. Phys., 2023, 158, 124111.
     DOI: 10.1063/5.0137838
   
   with help from (in alphabetical order)
   P. Atkinson, C. Bannwarth, F. Bohle, G. Brandenburg, E. Caldeweyher
   M. Checinski, S. Dohm, S. Ehlert, S. Ehrlich, I. Gerasimov, C. Hölzer
   A. Katbashev, J. Kohn, J. Koopman, C. Lavigne, S. Lehtola, F. März, M. Müller,
   F. Musil, H. Neugebauer, J. Pisarek, C. Plett, P. Pracht, F. Pultar,
   J. Seibert, P. Shushkov, S. Spicher, M. Stahn, M. Steiner, T. Strunk,
   J. Stückrath, T. Rose, and J. Unsleber
   
 * started run on 2026/04/09 at 18:40:48.758     
   ID    Z sym.   atoms
    1    7 N      1, 6
    2    6 C      2-5, 7-13
    3    8 O      14, 15
    4    1 H      16-27

           -------------------------------------------------
          |                Calculation Setup                |
           -------------------------------------------------

          program call               : /home/analima/Programs/orca-6.1.0-f.0_linux_x86-64/bin/otool_xtb geo_opt_XTB.xyz --grad -c 0 -u 0 -P 1 --namespace geo_opt --input geo_opt_XTB.input.tmp --alpb WATER --acc 0.200000
          calculation namespace      : geo_opt
          coordinate file            : geo_opt_XTB.xyz
          omp threads                :                     1


           -------------------------------------------------
          |                 G F N 2 - x T B                 |
           -------------------------------------------------

        Reference                      10.1021/acs.jctc.8b01176
      * Hamiltonian:
        H0-scaling (s, p, d)           1.850000    2.230000    2.230000
        zeta-weighting                 0.500000
      * Dispersion:
        s8                             2.700000
        a1                             0.520000
        a2                             5.000000
        s9                             5.000000
      * Repulsion:
        kExp                           1.500000    1.000000
        rExp                           1.000000
      * Coulomb:
        alpha                          2.000000
        third order                    shell-resolved
        anisotropic                    true
        a3                             3.000000
        a5                             4.000000
        cn-shift                       1.200000
        cn-exp                         4.000000
        max-rad                        5.000000

      * Solvation model:               ALPB
        Solvent                        WATER
        Parameter file                 internal GFN2-xTB/ALPB
        Dielectric constant                8.0200E+01
        Reference state                gsolv [1 M gas/solution]
        Free energy shift                  1.0808E-03 Eh       6.7819E-01 kcal/mol
        Temperature                        2.9815E+02 K
        Density                            1.0000E+00 kg/L
        Solvent mass                       1.8000E+01 g/mol
        Interaction kernel             P16
        Born radius scaling (c1)           1.4744E+00
        Born radii integrator          GBOBC
        Born offset                        0.0000E+00 a0       0.0000E+00 AA
        H-bond correction              true
        Ion screening                  false
        Surface tension                    1.0000E-05 Eh       1.5569E+01 dyn/cm
        Grid points                               230 per atom
q/qsh data taken from xtbrestart
CAMM data taken from xtbrestart

          ...................................................
          :                      SETUP                      :
          :.................................................:
          :  # basis functions                  72          :
          :  # atomic orbitals                  72          :
          :  # shells                           42          :
          :  # electrons                        78          :
          :  max. iterations                   250          :
          :  Hamiltonian                  GFN2-xTB          :
          :  restarted?                       true          :
          :  GBSA solvation                   true          :
          :  PC potential                    false          :
          :  electronic temp.          300.0000000     K    :
          :  accuracy                    0.2000000          :
          :  -> integral cutoff          0.3198970E+02      :
          :  -> integral neglect         0.2000000E-08      :
          :  -> SCF convergence          0.2000000E-06 Eh   :
          :  -> wf. convergence          0.2000000E-04 e    :
          :  Broyden damping             0.4000000          :
          :  net charge                          0          :
          :  unpaired electrons                  0          :
          ...................................................

 iter      E             dE          RMSdq      gap      omega  full diag
   1    -44.3013833 -0.443014E+02  0.117E-01    3.54       0.0  T
   2    -44.3013865 -0.319378E-05  0.685E-02    3.54       1.0  T
   3    -44.3013845  0.201624E-05  0.115E-02    3.54       1.7  T
   4    -44.3013876 -0.307540E-05  0.313E-03    3.54       6.1  T
   5    -44.3013877 -0.599868E-07  0.164E-03    3.54      11.7  T
   6    -44.3013877 -0.123800E-07  0.631E-04    3.54      30.5  T
   7    -44.3013877 -0.188280E-08  0.216E-04    3.54      89.1  T
   8    -44.3013877 -0.327830E-09  0.116E-04    3.54     166.0  T
   9    -44.3013877 -0.429949E-10  0.371E-05    3.54     518.3  T

   *** convergence criteria satisfied after 9 iterations ***

         #    Occupation            Energy/Eh            Energy/eV
      -------------------------------------------------------------
         1        2.0000           -0.6979625             -18.9925
       ...           ...                  ...                  ...
        33        2.0000           -0.4191509             -11.4057
        34        2.0000           -0.4184611             -11.3869
        35        2.0000           -0.4164402             -11.3319
        36        2.0000           -0.4074876             -11.0883
        37        2.0000           -0.3825768             -10.4104
        38        2.0000           -0.3822747             -10.4022
        39        2.0000           -0.3624927              -9.8639 (HOMO)
        40                         -0.2322421              -6.3196 (LUMO)
        41                         -0.1982620              -5.3950
        42                         -0.1893354              -5.1521
        43                         -0.1579837              -4.2990
        44                         -0.0736199              -2.0033
       ...                                ...                  ...
        72                          0.7159525              19.4821
      -------------------------------------------------------------
                  HL-Gap            0.1302506 Eh            3.5443 eV
             Fermi-level           -0.2973674 Eh           -8.0918 eV

 SCC (total)                   0 d,  0 h,  0 min,  0.017 sec
 SCC setup                      ...        0 min,  0.000 sec (  2.173%)
 Dispersion                     ...        0 min,  0.000 sec (  0.599%)
 classical contributions        ...        0 min,  0.000 sec (  0.107%)
 integral evaluation            ...        0 min,  0.002 sec (  9.014%)
 iterations                     ...        0 min,  0.008 sec ( 49.682%)
 molecular gradient             ...        0 min,  0.006 sec ( 38.026%)
 printout                       ...        0 min,  0.000 sec (  0.349%)

         :::::::::::::::::::::::::::::::::::::::::::::::::::::
         ::                     SUMMARY                     ::
         :::::::::::::::::::::::::::::::::::::::::::::::::::::
         :: total energy             -43.682264556439 Eh    ::
         :: total w/o Gsasa/hb       -43.674351554833 Eh    ::
         :: gradient norm              0.009254609022 Eh/a0 ::
         :: HOMO-LUMO gap              3.544299790551 eV    ::
         ::.................................................::
         :: SCC energy               -44.301227979072 Eh    ::
         :: -> isotropic ES            0.163970456728 Eh    ::
         :: -> anisotropic ES         -0.009430731370 Eh    ::
         :: -> anisotropic XC          0.016231595189 Eh    ::
         :: -> dispersion             -0.026160933946 Eh    ::
         :: -> Gsolv                  -0.063512735889 Eh    ::
         ::    -> Gelec               -0.055599734283 Eh    ::
         ::    -> Gsasa                0.001706361976 Eh    ::
         ::    -> Ghb                 -0.010700123281 Eh    ::
         ::    -> Gshift               0.001080759698 Eh    ::
         :: repulsion energy           0.618963422634 Eh    ::
         :: add. restraining           0.000000000000 Eh    ::
         :: total charge              -0.000000000000 e     ::
         :::::::::::::::::::::::::::::::::::::::::::::::::::::


Property printout bound to 'properties.out'

           -------------------------------------------------
          | TOTAL ENERGY              -43.682264556439 Eh   |
          | GRADIENT NORM               0.009254609022 Eh/α |
          | HOMO-LUMO GAP               3.544299790551 eV   |
           -------------------------------------------------

------------------------------------------------------------------------
 * finished run on 2026/04/09 at 18:40:48.781     
------------------------------------------------------------------------
 total:
 * wall-time:     0 d,  0 h,  0 min,  0.023 sec
 *  cpu-time:     0 d,  0 h,  0 min,  0.021 sec
 * ratio c/w:     0.935 speedup
 SCF:
 * wall-time:     0 d,  0 h,  0 min,  0.017 sec
 *  cpu-time:     0 d,  0 h,  0 min,  0.016 sec
 * ratio c/w:     0.918 speedup


-------------------------   --------------------
FINAL SINGLE POINT ENERGY       -43.682264556440
-------------------------   --------------------


-------------
DIPOLE MOMENT
-------------
                                X             Y             Z
Total Dipole Moment    :     -4.62800      -2.24900       1.67100
                        -----------------------------------------
Magnitude (a.u.)       :      5.41005
Magnitude (Debye)      :     13.75125


------------------
CARTESIAN GRADIENT
------------------

   1   N   :   -0.000532856   -0.005055170    0.002826418
   2   C   :   -0.000920192    0.000696051   -0.002099441
   3   C   :   -0.000770792    0.000750039    0.000627173
   4   C   :    0.000052798   -0.000989143   -0.000401293
   5   C   :    0.000295439    0.000283832   -0.000191611
   6   N   :   -0.000532969    0.000001774    0.000661534
   7   C   :    0.001178317    0.000040106   -0.000614891
   8   C   :    0.000129729   -0.000281060   -0.000204526
   9   C   :   -0.000252690    0.000875541    0.000633080
  10   C   :   -0.000179113   -0.000903976   -0.000606737
  11   C   :    0.000294677   -0.000188555   -0.000067843
  12   C   :   -0.000669693    0.000522898    0.000570208
  13   C   :    0.002915179   -0.000660439    0.000745856
  14   O   :    0.000318472   -0.000321953   -0.000906885
  15   O   :   -0.001478049    0.000578904    0.000976810
  16   H   :   -0.001971689    0.000162812   -0.000914466
  17   H   :    0.001217649    0.003752477   -0.000877422
  18   H   :    0.000535632    0.000969783    0.000017928
  19   H   :    0.000438606    0.000169097   -0.000039396
  20   H   :    0.000154244   -0.000188776   -0.000141089
  21   H   :   -0.000129991   -0.000357832    0.000033529
  22   H   :    0.000001563   -0.000133254    0.000139750
  23   H   :   -0.000067967    0.000104648   -0.000226072
  24   H   :   -0.000017282    0.000044394    0.000048885
  25   H   :    0.000038016   -0.000097353   -0.000019659
  26   H   :   -0.000074403    0.000030814    0.000108687
  27   H   :    0.000027366    0.000194341   -0.000078526

Difference to translation invariance:
           :    0.0000000000    0.0000000000   -0.0000000000

Difference to rotation invariance:
           :    0.0000805661   -0.0000769231    0.0000192850

Norm of the Cartesian gradient     ...    0.0092546090
RMS gradient                       ...    0.0010282899
MAX gradient                       ...    0.0050551702
------------------------------------------------------------------------------
                         ORCA GEOMETRY RELAXATION STEP
------------------------------------------------------------------------------

Reading the OPT-File                    .... done
Getting information on internals        .... done
Copying old internal coords+grads       .... done
Making the new internal coordinates     .... (2022 redundants) done
Validating the new internal coordinates .... (2022 redundants) done
Calculating the B-matrix                .... done
Calculating the G,G- and P matrices     .... done
Transforming gradient to internals      .... done
Projecting the internal gradient        .... done
Number of atoms                         ....  27
Number of internal coordinates          .... 138
Current Energy                          ....   -43.682264556 Eh
Current gradient norm                   ....     0.009254609 Eh/bohr
Maximum allowed component of the step   ....  0.300
Current trust radius                    ....  0.700
Updating the Hessian (BFGS)             .... done
Forming the augmented Hessian           .... done
Diagonalizing the augmented Hessian     .... done
Last element of RFO vector              ....  0.945126586
Lowest eigenvalues of augmented Hessian:
 -0.000623078  0.001957630  0.011281765  0.016396183  0.016575245
Length of the computed step             ....  0.345672590
The final length of the internal step   ....  0.345672590
Converting the step to Cartesian space:
 Initial RMS(Int)=    0.0294256050
Transforming coordinates:
 Iter   0:  RMS(Cart)=    0.0742944814 RMS(Int)=    0.9204338152
 Iter   5:  RMS(Cart)=    0.0000015241 RMS(Int)=    0.0000011332
done
Storing new coordinates                 .... done
The predicted energy change is          ....    -0.000348765
Previously predicted energy change      ....    -0.000315857
Actually observed energy change         ....    -0.000464041
Ratio of predicted to observed change   ....     1.469149067
New trust radius                        ....     0.700000000

                                .--------------------.
          ----------------------|Geometry convergence|-------------------------
          Item                value                   Tolerance       Converged
          ---------------------------------------------------------------------
          Energy change      -0.0004640412            0.0000050000      NO
          RMS gradient        0.0005379626            0.0001000000      NO
          MAX gradient        0.0026291194            0.0003000000      NO
          RMS step            0.0294256050            0.0020000000      NO
          MAX step            0.1403676227            0.0040000000      NO
          -------------------------------------------------------------------------
          ........................................................
          Max(Bonds)      0.0019      Max(Angles)    2.23
          Max(Dihed)        8.04      Max(Improp)    0.00
          ---------------------------------------------------------------------

The optimization has not yet converged - more geometry cycles are needed


    ---------------------------------------------------------------------------
                         Redundant Internal Coordinates
                            (Angstroem and degrees)

        Definition                    Value    dE/dq     Step     New-Value
    ----------------------------------------------------------------------------
     1. B(C   1,N   0)                1.4801  0.001189 -0.0004    1.4798   
     2. B(C   2,C   1)                1.5278  0.000026  0.0012    1.5290   
     3. B(C   3,C   2)                1.4947  0.000036 -0.0005    1.4942   
     4. B(C   4,C   3)                1.3659 -0.000156  0.0005    1.3664   
     5. B(N   5,C   4)                1.3660  0.000106 -0.0002    1.3658   
     6. B(C   6,N   5)                1.3620 -0.000520  0.0003    1.3623   
     7. B(C   7,C   6)                1.3903  0.000179 -0.0002    1.3901   
     8. B(C   8,C   7)                1.3785  0.000296 -0.0001    1.3784   
     9. B(C   9,C   8)                1.3977 -0.000567  0.0006    1.3983   
    10. B(C  10,C   9)                1.3765  0.000112  0.0000    1.3765   
    11. B(C  11,C  10)                1.3964 -0.000354  0.0007    1.3971   
    12. B(C  11,C   6)                1.4175 -0.000369 -0.0001    1.4174   
    13. B(C  11,C   3)                1.4301  0.000211 -0.0004    1.4297   
    14. B(C  12,C   1)                1.5873  0.001350 -0.0019    1.5854   
    15. B(O  13,C  12)                1.2511 -0.000833  0.0005    1.2515   
    16. B(O  14,C  12)                1.2303 -0.001610  0.0009    1.2312   
    17. B(H  15,N   0)                1.0191 -0.000242  0.0005    1.0196   
    18. B(H  16,N   0)                1.0786  0.002629 -0.0007    1.0779   
    19. B(H  17,N   0)                1.0249  0.000133 -0.0007    1.0242   
    20. B(H  18,C   1)                1.0906 -0.000093 -0.0009    1.0897   
    21. B(H  19,C   2)                1.0917  0.000220 -0.0006    1.0912   
    22. B(H  20,C   2)                1.0910 -0.000330  0.0008    1.0919   
    23. B(H  21,C   4)                1.0726 -0.000001 -0.0001    1.0725   
    24. B(H  22,N   5)                1.0057  0.000024 -0.0001    1.0056   
    25. B(H  23,C   7)                1.0793 -0.000028 -0.0000    1.0793   
    26. B(H  24,C   8)                1.0795 -0.000052 -0.0000    1.0795   
    27. B(H  25,C   9)                1.0803  0.000103 -0.0002    1.0801   
    28. B(H  26,C  10)                1.0813  0.000151  0.0003    1.0817   
    29. A(H  16,N   0,H  17)          108.99 -0.001128    2.03    111.02   
    30. A(H  15,N   0,H  17)          109.33 -0.000243    0.21    109.54   
    31. A(H  15,N   0,H  16)          113.19  0.002304   -2.23    110.97   
    32. A(C   1,N   0,H  15)          114.53  0.000674   -0.53    113.99   
    33. A(C   1,N   0,H  16)           99.33 -0.001179   -0.21     99.13   
    34. A(C   1,N   0,H  17)          111.08 -0.000557    0.90    111.97   
    35. A(C   2,C   1,C  12)          111.25  0.000968   -1.70    109.55   
    36. A(C   2,C   1,H  18)          109.78  0.000125    0.23    110.01   
    37. A(N   0,C   1,C   2)          112.11 -0.000658   -0.16    111.95   
    38. A(N   0,C   1,C  12)          105.38  0.000044    0.12    105.49   
    39. A(N   0,C   1,H  18)          111.26  0.000370    0.55    111.81   
    40. A(C  12,C   1,H  18)          106.87 -0.000845    1.05    107.92   
    41. A(C   1,C   2,C   3)          111.41 -0.000374    0.06    111.47   
    42. A(H  19,C   2,H  20)          107.63  0.000273   -0.21    107.42   
    43. A(C   3,C   2,H  20)          110.34 -0.000068    0.07    110.41   
    44. A(C   3,C   2,H  19)          110.78 -0.000076    0.19    110.97   
    45. A(C   1,C   2,H  20)          109.40  0.000308   -0.40    109.00   
    46. A(C   1,C   2,H  19)          107.16 -0.000035    0.26    107.41   
    47. A(C   2,C   3,C   4)          127.33 -0.000003    0.11    127.43   
    48. A(C   2,C   3,C  11)          126.20 -0.000156   -0.06    126.13   
    49. A(C   4,C   3,C  11)          106.45  0.000160   -0.05    106.39   
    50. A(N   5,C   4,H  21)          121.05  0.000004    0.09    121.14   
    51. A(C   3,C   4,H  21)          128.66  0.000153   -0.09    128.57   
    52. A(C   3,C   4,N   5)          110.29 -0.000157   -0.00    110.29   
    53. A(C   6,N   5,H  22)          125.64  0.000061   -0.05    125.60   
    54. A(C   4,N   5,H  22)          125.35  0.000020    0.02    125.36   
    55. A(C   4,N   5,C   6)          108.94 -0.000085    0.05    108.99   
    56. A(C   7,C   6,C  11)          121.68 -0.000067    0.01    121.69   
    57. A(N   5,C   6,C  11)          107.82  0.000443   -0.09    107.73   
    58. A(N   5,C   6,C   7)          130.50 -0.000376    0.07    130.58   
    59. A(C   6,C   7,C   8)          117.73  0.000077   -0.02    117.71   
    60. A(C   8,C   7,H  23)          121.13 -0.000101    0.05    121.18   
    61. A(C   6,C   7,H  23)          121.14  0.000025   -0.03    121.11   
    62. A(C   9,C   8,H  24)          119.17  0.000268   -0.07    119.10   
    63. A(C   7,C   8,H  24)          119.63  0.000101    0.02    119.65   
    64. A(C   7,C   8,C   9)          121.19 -0.000370    0.05    121.25   
    65. A(C  10,C   9,H  25)          119.69 -0.000128    0.04    119.72   
    66. A(C   8,C   9,H  25)          118.83 -0.000271    0.03    118.86   
    67. A(C   8,C   9,C  10)          121.48  0.000399   -0.06    121.42   
    68. A(C   9,C  10,C  11)          118.65 -0.000176    0.02    118.67   
    69. A(C  11,C  10,H  26)          121.16  0.000123   -0.02    121.14   
    70. A(C   9,C  10,H  26)          120.16  0.000052   -0.01    120.16   
    71. A(C   3,C  11,C   6)          106.50 -0.000361    0.10    106.60   
    72. A(C   6,C  11,C  10)          119.27  0.000136   -0.01    119.26   
    73. A(C   3,C  11,C  10)          134.22  0.000224   -0.09    134.13   
    74. A(O  13,C  12,O  14)          128.99 -0.000126   -0.03    128.96   
    75. A(C   1,C  12,O  14)          117.77 -0.001087    0.10    117.87   
    76. A(C   1,C  12,O  13)          113.24  0.001207   -0.11    113.13   
    77. D(C   2,C   1,N   0,H  16)   -121.64  0.001060    4.98   -116.65   
    78. D(C  12,C   1,N   0,H  16)     -0.47  0.001896    2.82      2.35   
    79. D(C   2,C   1,N   0,H  17)     -7.00 -0.001003    7.45      0.45   
    80. D(C  12,C   1,N   0,H  17)    114.16 -0.000167    5.28    119.45   
    81. D(C  12,C   1,N   0,H  15)   -121.38 -0.000424    5.88   -115.50   
    82. D(C   2,C   1,N   0,H  15)    117.45 -0.001259    8.04    125.50   
    83. D(H  19,C   2,C   1,H  18)    -62.52  0.000110    2.61    -59.91   
    84. D(C   3,C   2,C   1,H  18)     58.81 -0.000231    3.06     61.87   
    85. D(H  19,C   2,C   1,C  12)     55.57 -0.000261    2.95     58.53   
    86. D(C   3,C   2,C   1,C  12)    176.90 -0.000602    3.41    180.31   
    87. D(C   3,C   2,C   1,N   0)    -65.38 -0.000334    2.29    -63.09   
    88. D(H  19,C   2,C   1,N   0)    173.29  0.000007    1.83    175.12   
    89. D(C   4,C   3,C   2,H  20)    154.27  0.000144    0.22    154.50   
    90. D(C   4,C   3,C   2,H  19)     35.19 -0.000103    0.31     35.50   
    91. D(C   4,C   3,C   2,C   1)    -84.00  0.000235   -0.20    -84.19   
    92. D(C  11,C   3,C   2,H  19)   -146.97 -0.000060   -0.15   -147.12   
    93. D(C  11,C   3,C   2,C   1)     93.84  0.000278   -0.66     93.18   
    94. D(H  21,C   4,C   3,C  11)    179.62  0.000044   -0.06    179.56   
    95. D(H  21,C   4,C   3,C   2)     -2.20  0.000075   -0.45     -2.65   
    96. D(N   5,C   4,C   3,C  11)     -0.44 -0.000023    0.23     -0.21   
    97. D(N   5,C   4,C   3,C   2)    177.74  0.000008   -0.16    177.58   
    98. D(H  22,N   5,C   4,H  21)     -2.41 -0.000134    0.55     -1.87   
    99. D(H  22,N   5,C   4,C   3)    177.64 -0.000073    0.28    177.92   
   100. D(C   6,N   5,C   4,H  21)   -179.46 -0.000048    0.08   -179.38   
   101. D(C   6,N   5,C   4,C   3)      0.59  0.000013   -0.19      0.40   
   102. D(C  11,C   6,N   5,H  22)   -177.53  0.000087   -0.40   -177.93   
   103. D(C  11,C   6,N   5,C   4)     -0.49 -0.000000    0.07     -0.42   
   104. D(C   7,C   6,N   5,C   4)    179.93  0.000014    0.06    179.99   
   105. D(C   7,C   6,N   5,H  22)      2.90  0.000102   -0.41      2.48   
   106. D(C   8,C   7,C   6,C  11)      0.30  0.000008   -0.06      0.24   
   107. D(C   8,C   7,C   6,N   5)    179.83 -0.000006   -0.05    179.78   
   108. D(H  23,C   7,C   6,C  11)   -179.98  0.000031   -0.13   -180.11   
   109. D(H  23,C   7,C   6,N   5)     -0.46  0.000016   -0.12     -0.57   
   110. D(H  24,C   8,C   7,H  23)      0.22  0.000006    0.07      0.30   
   111. D(H  24,C   8,C   7,C   6)    179.94  0.000029    0.00    179.94   
   112. D(C   9,C   8,C   7,H  23)   -179.29  0.000015    0.00   -179.29   
   113. D(C   9,C   8,C   7,C   6)      0.42  0.000038   -0.07      0.36   
   114. D(H  25,C   9,C   8,H  24)     -0.26 -0.000001    0.00     -0.26   
   115. D(H  25,C   9,C   8,C   7)    179.25 -0.000011    0.07    179.33   
   116. D(C  10,C   9,C   8,H  24)    179.88 -0.000037    0.05    179.94   
   117. D(C  10,C   9,C   8,C   7)     -0.60 -0.000047    0.13     -0.48   
   118. D(H  26,C  10,C   9,H  25)     -1.82 -0.000074    0.05     -1.76   
   119. D(H  26,C  10,C   9,C   8)    178.04 -0.000038   -0.00    178.04   
   120. D(C  11,C  10,C   9,H  25)   -179.83 -0.000030    0.00   -179.83   
   121. D(C  11,C  10,C   9,C   8)      0.03  0.000006   -0.06     -0.03   
   122. D(C   6,C  11,C  10,H  26)   -177.31  0.000091   -0.12   -177.43   
   123. D(C   6,C  11,C  10,C   9)      0.68  0.000045   -0.07      0.61   
   124. D(C   3,C  11,C  10,C   9)    179.73  0.000009   -0.01    179.72   
   125. D(C  10,C  11,C   6,C   7)     -0.86 -0.000052    0.13     -0.74   
   126. D(C  10,C  11,C   6,N   5)    179.51 -0.000037    0.12    179.63   
   127. D(C   3,C  11,C   6,C   7)    179.84 -0.000029    0.08    179.92   
   128. D(C   3,C  11,C   6,N   5)      0.22 -0.000014    0.07      0.29   
   129. D(C  10,C  11,C   3,C   4)   -179.01  0.000054   -0.24   -179.25   
   130. D(C   3,C  11,C  10,H  26)      1.74  0.000054   -0.06      1.68   
   131. D(C  10,C  11,C   3,C   2)      2.78  0.000020    0.14      2.92   
   132. D(C   6,C  11,C   3,C   4)      0.13  0.000024   -0.18     -0.05   
   133. D(C   6,C  11,C   3,C   2)   -178.08 -0.000010    0.20   -177.88   
   134. D(O  14,C  12,C   1,C   2)    -56.14  0.000754   -5.09    -61.24   
   135. D(O  14,C  12,C   1,N   0)   -177.86  0.000978   -3.97   -181.83   
   136. D(O  13,C  12,C   1,H  18)   -116.71  0.000141   -5.33   -122.04   
   137. D(O  13,C  12,C   1,C   2)    123.46 -0.000040   -5.24    118.22   
   138. D(O  13,C  12,C   1,N   0)      1.74  0.000185   -4.12     -2.38   
    ----------------------------------------------------------------------------

Geometry step timings:
Preparation and reading OPT file:      0.000 s ( 0.513 %)
Internal coordinates            :      0.000 s ( 0.513 %)
B/P matrices and projection     :      0.001 s (41.632 %)
Hessian update/contruction      :      0.000 s ( 8.578 %)
Making the step                 :      0.001 s (33.660 %)
Converting the step to Cartesian:      0.000 s ( 4.103 %)
Storing new data                :      0.000 s ( 0.559 %)
Checking convergence            :      0.000 s ( 0.699 %)
Final printing                  :      0.000 s ( 9.744 %)
Total time                      :      0.002 s

Time for energy+gradient        :      0.027 s
Time for complete geometry iter :      0.029 s

         *************************************************************
         *                GEOMETRY OPTIMIZATION CYCLE  17            *
         *************************************************************
---------------------------------
CARTESIAN COORDINATES (ANGSTROEM)
---------------------------------
  N     1.852148    0.116200    1.430806
  C     2.386496   -0.140148    0.074895
  C     1.450828    0.382333   -1.015721
  C     0.132453   -0.320420   -0.988247
  C    -0.184426   -1.514719   -1.571566
  N    -1.474437   -1.856259   -1.280726
  C    -2.027174   -0.881413   -0.506037
  C    -3.301378   -0.773426    0.039185
  C    -3.581376    0.342642    0.798170
  C    -2.620852    1.337044    1.007548
  C    -1.356255    1.237004    0.473218
  C    -1.039120    0.112125   -0.292204
  C     3.764782    0.640563    0.008927
  O     4.015505    1.284945    1.052127
  O     4.427762    0.552025   -1.024762
  H     1.780668   -0.718074    2.012586
  H     2.622817    0.775493    1.795842
  H     0.945681    0.592028    1.401620
  H     2.592480   -1.198070   -0.085924
  H     1.951896    0.235502   -1.973887
  H     1.312440    1.456931   -0.880536
  H     0.431922   -2.144888   -2.182562
  H    -1.949981   -2.675321   -1.618704
  H    -4.047160   -1.534738   -0.131114
  H    -4.561376    0.458831    1.235738
  H    -2.885223    2.200755    1.599760
  H    -0.639122    2.033054    0.621568

----------------------------
CARTESIAN COORDINATES (A.U.)
----------------------------
  NO LB    ZA    FRAG    MASS        X           Y           Z
   0 N   7.0000    0    14.007    3.500053    0.219587    2.703831
   1 C   6.0000    0    12.011    4.509824   -0.264841    0.141532
   2 C   6.0000    0    12.011    2.741668    0.722504   -1.919435
   3 C   6.0000    0    12.011    0.250299   -0.605506   -1.867516
   4 C   6.0000    0    12.011   -0.348514   -2.862404   -2.969830
   5 N   7.0000    0    14.007   -2.786281   -3.507820   -2.420222
   6 C   6.0000    0    12.011   -3.830804   -1.665629   -0.956272
   7 C   6.0000    0    12.011   -6.238700   -1.461564    0.074049
   8 C   6.0000    0    12.011   -6.767819    0.647499    1.508323
   9 C   6.0000    0    12.011   -4.952692    2.526647    1.903990
  10 C   6.0000    0    12.011   -2.562950    2.337598    0.894253
  11 C   6.0000    0    12.011   -1.963652    0.211886   -0.552185
  12 C   6.0000    0    12.011    7.114406    1.210488    0.016870
  13 O   8.0000    0    15.999    7.588204    2.428194    1.988232
  14 O   8.0000    0    15.999    8.367258    1.043177   -1.936519
  15 H   1.0000    0     1.008    3.364974   -1.356964    3.803236
  16 H   1.0000    0     1.008    4.956406    1.465470    3.393650
  17 H   1.0000    0     1.008    1.787078    1.118771    2.648677
  18 H   1.0000    0     1.008    4.899078   -2.264024   -0.162372
  19 H   1.0000    0     1.008    3.688549    0.445034   -3.730106
  20 H   1.0000    0     1.008    2.480153    2.753201   -1.663973
  21 H   1.0000    0     1.008    0.816214   -4.053250   -4.124445
  22 H   1.0000    0     1.008   -3.684930   -5.055624   -3.058908
  23 H   1.0000    0     1.008   -7.648023   -2.900235   -0.247769
  24 H   1.0000    0     1.008   -8.619751    0.867064    2.335206
  25 H   1.0000    0     1.008   -5.452281    4.158824    3.023107
  26 H   1.0000    0     1.008   -1.207766    3.841915    1.174594

      -----------------------------------------------------------      
     |                   =====================                   |     
     |                           x T B                           |     
     |                   =====================                   |     
     |                         S. Grimme                         |     
     |          Mulliken Center for Theoretical Chemistry        |     
     |                    University of Bonn                     |     
      -----------------------------------------------------------      

   * xtb version 6.7.1 (edcfbbe) compiled by 'albert@albert-system' on 2024-07-22

   xtb is free software: you can redistribute it and/or modify it under
   the terms of the GNU Lesser General Public License as published by
   the Free Software Foundation, either version 3 of the License, or
   (at your option) any later version.
   
   xtb is distributed in the hope that it will be useful,
   but WITHOUT ANY WARRANTY; without even the implied warranty of
   MERCHANTABILITY or FITNESS FOR A PARTICULAR PURPOSE.  See the
   GNU Lesser General Public License for more details.
   
   Cite this work as:
   * C. Bannwarth, E. Caldeweyher, S. Ehlert, A. Hansen, P. Pracht,
     J. Seibert, S. Spicher, S. Grimme, WIREs Comput. Mol. Sci., 2020, 11,
     e01493. DOI: 10.1002/wcms.1493
   
   for GFN2-xTB:
   * C. Bannwarth, S. Ehlert and S. Grimme., J. Chem. Theory Comput., 2019,
     15, 1652-1671. DOI: 10.1021/acs.jctc.8b01176
   for GFN1-xTB:
   * S. Grimme, C. Bannwarth, P. Shushkov, J. Chem. Theory Comput., 2017,
     13, 1989-2009. DOI: 10.1021/acs.jctc.7b00118
   for GFN0-xTB:
   * P. Pracht, E. Caldeweyher, S. Ehlert, S. Grimme, ChemRxiv, 2019, preprint.
     DOI: 10.26434/chemrxiv.8326202.v1
   for GFN-FF:
   * S. Spicher and S. Grimme, Angew. Chem. Int. Ed., 2020, 59, 15665-15673.
     DOI: 10.1002/anie.202004239
   
   for ALPB and GBSA implicit solvation:
   * S. Ehlert, M. Stahn, S. Spicher, S. Grimme, J. Chem. Theory Comput.,
     2021, 17, 4250-4261. DOI: 10.1021/acs.jctc.1c00471
   
   for ddCOSMO and CPCM-X implicit solvation:
   * M. Stahn, S. Ehlert, S. Grimme, J. Phys. Chem. A,
     2023, XX, XXXX-XXXX. DOI: 10.1021/acs.jpca.3c04382
   
   for DFT-D4:
   * E. Caldeweyher, C. Bannwarth and S. Grimme, J. Chem. Phys., 2017,
     147, 034112. DOI: 10.1063/1.4993215
   * E. Caldeweyher, S. Ehlert, A. Hansen, H. Neugebauer, S. Spicher,
     C. Bannwarth and S. Grimme, J. Chem. Phys., 2019, 150, 154122.
     DOI: 10.1063/1.5090222
   * E. Caldeweyher, J.-M. Mewes, S. Ehlert and S. Grimme, Phys. Chem. Chem. Phys.
     2020, 22, 8499-8512. DOI: 10.1039/D0CP00502A
   
   for sTDA-xTB:
   * S. Grimme and C. Bannwarth, J. Chem. Phys., 2016, 145, 054103.
     DOI: 10.1063/1.4959605
   
   in the mass-spec context:
   * V. Asgeirsson, C. Bauer and S. Grimme, Chem. Sci., 2017, 8, 4879.
     DOI: 10.1039/c7sc00601b
   * J. Koopman and S. Grimme, ACS Omega 2019, 4, 12, 15120-15133.
     DOI: 10.1021/acsomega.9b02011
   
   for metadynamics refer to:
   * S. Grimme, J. Chem. Theory Comput., 2019, 155, 2847-2862
     DOI: 10.1021/acs.jctc.9b00143
   
   for SPH calculations refer to:
   * S. Spicher and S. Grimme, J. Chem. Theory Comput., 2021, 17, 1701-1714
     DOI: 10.1021/acs.jctc.0c01306
   
   for ONIOM refer to:
   * C. Plett, A. Katbashev, S. Ehlert, S. Grimme, M. Bursch,
     Phys. Chem. Chem. Phys., 2023, 25, 17860-17868. DOI: 10.1039/D3CP02178E
   
   for DIPRO refer to:
   * J. Kohn, N. Gildemeister, S. Grimme, D. Fazzi, A. Hansen,
     J. Chem. Phys., 2023, just accepted.
   
   for PTB refer to:
   * S. Grimme, M. Mueller, A. Hansen, J. Chem. Phys., 2023, 158, 124111.
     DOI: 10.1063/5.0137838
   
   with help from (in alphabetical order)
   P. Atkinson, C. Bannwarth, F. Bohle, G. Brandenburg, E. Caldeweyher
   M. Checinski, S. Dohm, S. Ehlert, S. Ehrlich, I. Gerasimov, C. Hölzer
   A. Katbashev, J. Kohn, J. Koopman, C. Lavigne, S. Lehtola, F. März, M. Müller,
   F. Musil, H. Neugebauer, J. Pisarek, C. Plett, P. Pracht, F. Pultar,
   J. Seibert, P. Shushkov, S. Spicher, M. Stahn, M. Steiner, T. Strunk,
   J. Stückrath, T. Rose, and J. Unsleber
   
 * started run on 2026/04/09 at 18:40:48.787     
   ID    Z sym.   atoms
    1    7 N      1, 6
    2    6 C      2-5, 7-13
    3    8 O      14, 15
    4    1 H      16-27

           -------------------------------------------------
          |                Calculation Setup                |
           -------------------------------------------------

          program call               : /home/analima/Programs/orca-6.1.0-f.0_linux_x86-64/bin/otool_xtb geo_opt_XTB.xyz --grad -c 0 -u 0 -P 1 --namespace geo_opt --input geo_opt_XTB.input.tmp --alpb WATER --acc 0.200000
          calculation namespace      : geo_opt
          coordinate file            : geo_opt_XTB.xyz
          omp threads                :                     1


           -------------------------------------------------
          |                 G F N 2 - x T B                 |
           -------------------------------------------------

        Reference                      10.1021/acs.jctc.8b01176
      * Hamiltonian:
        H0-scaling (s, p, d)           1.850000    2.230000    2.230000
        zeta-weighting                 0.500000
      * Dispersion:
        s8                             2.700000
        a1                             0.520000
        a2                             5.000000
        s9                             5.000000
      * Repulsion:
        kExp                           1.500000    1.000000
        rExp                           1.000000
      * Coulomb:
        alpha                          2.000000
        third order                    shell-resolved
        anisotropic                    true
        a3                             3.000000
        a5                             4.000000
        cn-shift                       1.200000
        cn-exp                         4.000000
        max-rad                        5.000000

      * Solvation model:               ALPB
        Solvent                        WATER
        Parameter file                 internal GFN2-xTB/ALPB
        Dielectric constant                8.0200E+01
        Reference state                gsolv [1 M gas/solution]
        Free energy shift                  1.0808E-03 Eh       6.7819E-01 kcal/mol
        Temperature                        2.9815E+02 K
        Density                            1.0000E+00 kg/L
        Solvent mass                       1.8000E+01 g/mol
        Interaction kernel             P16
        Born radius scaling (c1)           1.4744E+00
        Born radii integrator          GBOBC
        Born offset                        0.0000E+00 a0       0.0000E+00 AA
        H-bond correction              true
        Ion screening                  false
        Surface tension                    1.0000E-05 Eh       1.5569E+01 dyn/cm
        Grid points                               230 per atom
q/qsh data taken from xtbrestart
CAMM data taken from xtbrestart

          ...................................................
          :                      SETUP                      :
          :.................................................:
          :  # basis functions                  72          :
          :  # atomic orbitals                  72          :
          :  # shells                           42          :
          :  # electrons                        78          :
          :  max. iterations                   250          :
          :  Hamiltonian                  GFN2-xTB          :
          :  restarted?                       true          :
          :  GBSA solvation                   true          :
          :  PC potential                    false          :
          :  electronic temp.          300.0000000     K    :
          :  accuracy                    0.2000000          :
          :  -> integral cutoff          0.3198970E+02      :
          :  -> integral neglect         0.2000000E-08      :
          :  -> SCF convergence          0.2000000E-06 Eh   :
          :  -> wf. convergence          0.2000000E-04 e    :
          :  Broyden damping             0.4000000          :
          :  net charge                          0          :
          :  unpaired electrons                  0          :
          ...................................................

 iter      E             dE          RMSdq      gap      omega  full diag
   1    -44.3014592 -0.443015E+02  0.218E-01    3.54       0.0  T
   2    -44.3014664 -0.716105E-05  0.128E-01    3.54       1.0  T
   3    -44.3014598  0.653815E-05  0.207E-02    3.54       1.0  T
   4    -44.3014703 -0.104318E-04  0.553E-03    3.54       3.5  T
   5    -44.3014703 -0.403298E-07  0.290E-03    3.54       6.6  T
   6    -44.3014703 -0.421821E-07  0.729E-04    3.54      26.4  T
   7    -44.3014703 -0.567572E-08  0.309E-04    3.54      62.3  T
   8    -44.3014703 -0.196202E-09  0.123E-04    3.54     157.1  T
   9    -44.3014703 -0.924913E-10  0.471E-05    3.54     408.6  T

   *** convergence criteria satisfied after 9 iterations ***

         #    Occupation            Energy/Eh            Energy/eV
      -------------------------------------------------------------
         1        2.0000           -0.6979857             -18.9932
       ...           ...                  ...                  ...
        33        2.0000           -0.4191265             -11.4050
        34        2.0000           -0.4186128             -11.3910
        35        2.0000           -0.4167900             -11.3414
        36        2.0000           -0.4076171             -11.0918
        37        2.0000           -0.3829604             -10.4209
        38        2.0000           -0.3822975             -10.4028
        39        2.0000           -0.3628348              -9.8732 (HOMO)
        40                         -0.2326408              -6.3305 (LUMO)
        41                         -0.1987418              -5.4080
        42                         -0.1898047              -5.1648
        43                         -0.1582640              -4.3066
        44                         -0.0740535              -2.0151
       ...                                ...                  ...
        72                          0.7148795              19.4529
      -------------------------------------------------------------
                  HL-Gap            0.1301941 Eh            3.5428 eV
             Fermi-level           -0.2977378 Eh           -8.1019 eV

 SCC (total)                   0 d,  0 h,  0 min,  0.017 sec
 SCC setup                      ...        0 min,  0.000 sec (  2.598%)
 Dispersion                     ...        0 min,  0.000 sec (  0.604%)
 classical contributions        ...        0 min,  0.000 sec (  0.113%)
 integral evaluation            ...        0 min,  0.002 sec ( 10.181%)
 iterations                     ...        0 min,  0.008 sec ( 49.958%)
 molecular gradient             ...        0 min,  0.006 sec ( 36.018%)
 printout                       ...        0 min,  0.000 sec (  0.431%)

         :::::::::::::::::::::::::::::::::::::::::::::::::::::
         ::                     SUMMARY                     ::
         :::::::::::::::::::::::::::::::::::::::::::::::::::::
         :: total energy             -43.682647705754 Eh    ::
         :: total w/o Gsasa/hb       -43.674784726338 Eh    ::
         :: gradient norm              0.004802479938 Eh/a0 ::
         :: HOMO-LUMO gap              3.542760818284 eV    ::
         ::.................................................::
         :: SCC energy               -44.301305439931 Eh    ::
         :: -> isotropic ES            0.164060283332 Eh    ::
         :: -> anisotropic ES         -0.009736349235 Eh    ::
         :: -> anisotropic XC          0.016218187877 Eh    ::
         :: -> dispersion             -0.026238712697 Eh    ::
         :: -> Gsolv                  -0.063439097756 Eh    ::
         ::    -> Gelec               -0.055576118341 Eh    ::
         ::    -> Gsasa                0.001711472453 Eh    ::
         ::    -> Ghb                 -0.010655211567 Eh    ::
         ::    -> Gshift               0.001080759698 Eh    ::
         :: repulsion energy           0.618657734177 Eh    ::
         :: add. restraining           0.000000000000 Eh    ::
         :: total charge               0.000000000000 e     ::
         :::::::::::::::::::::::::::::::::::::::::::::::::::::


Property printout bound to 'properties.out'

           -------------------------------------------------
          | TOTAL ENERGY              -43.682647705754 Eh   |
          | GRADIENT NORM               0.004802479938 Eh/α |
          | HOMO-LUMO GAP               3.542760818284 eV   |
           -------------------------------------------------

------------------------------------------------------------------------
 * finished run on 2026/04/09 at 18:40:48.810     
------------------------------------------------------------------------
 total:
 * wall-time:     0 d,  0 h,  0 min,  0.022 sec
 *  cpu-time:     0 d,  0 h,  0 min,  0.020 sec
 * ratio c/w:     0.932 speedup
 SCF:
 * wall-time:     0 d,  0 h,  0 min,  0.017 sec
 *  cpu-time:     0 d,  0 h,  0 min,  0.015 sec
 * ratio c/w:     0.918 speedup


-------------------------   --------------------
FINAL SINGLE POINT ENERGY       -43.682647705750
-------------------------   --------------------


-------------
DIPOLE MOMENT
-------------
                                X             Y             Z
Total Dipole Moment    :     -4.58700      -2.51400       1.63400
                        -----------------------------------------
Magnitude (a.u.)       :      5.48003
Magnitude (Debye)      :     13.92913


------------------
CARTESIAN GRADIENT
------------------

   1   N   :   -0.002315372   -0.001505762    0.001638764
   2   C   :   -0.000768678   -0.000273431   -0.000714691
   3   C   :    0.000189314    0.000030172    0.000157674
   4   C   :    0.000078895   -0.000186045   -0.000343270
   5   C   :    0.000154212   -0.000196189   -0.000033453
   6   N   :   -0.000375158   -0.000009450    0.000423639
   7   C   :    0.000561665    0.000273883   -0.000270444
   8   C   :    0.000158591   -0.000327875   -0.000164519
   9   C   :   -0.000324835    0.000596065    0.000408047
  10   C   :   -0.000004580   -0.000318884   -0.000260783
  11   C   :    0.000055372   -0.000403354   -0.000152495
  12   C   :   -0.000254968   -0.000110336    0.000061275
  13   C   :    0.001336689    0.000351270    0.000089366
  14   O   :   -0.000226609   -0.000140692   -0.000557653
  15   O   :   -0.000600217    0.000181464    0.000111084
  16   H   :   -0.000692863    0.000219673   -0.000190649
  17   H   :    0.001941545    0.001169086   -0.000301040
  18   H   :    0.000072019   -0.000199940    0.000272300
  19   H   :    0.000381525    0.000182438   -0.000202402
  20   H   :    0.000008037    0.000242112   -0.000114211
  21   H   :    0.000342388   -0.000065228    0.000023630
  22   H   :    0.000111171    0.000003312    0.000125743
  23   H   :   -0.000030525    0.000185294   -0.000081983
  24   H   :    0.000017056    0.000010725   -0.000047208
  25   H   :    0.000078021   -0.000042684    0.000012871
  26   H   :   -0.000074684   -0.000015431    0.000074115
  27   H   :    0.000181988    0.000349808    0.000036294

Difference to translation invariance:
           :    0.0000000000   -0.0000000000   -0.0000000000

Difference to rotation invariance:
           :    0.0004021341   -0.0003381087   -0.0004073695

Norm of the Cartesian gradient     ...    0.0048024799
RMS gradient                       ...    0.0005336089
MAX gradient                       ...    0.0023153718
------------------------------------------------------------------------------
                         ORCA GEOMETRY RELAXATION STEP
------------------------------------------------------------------------------

Reading the OPT-File                    .... done
Getting information on internals        .... done
Copying old internal coords+grads       .... done
Making the new internal coordinates     .... (2022 redundants) done
Validating the new internal coordinates .... (2022 redundants) done
Calculating the B-matrix                .... done
Calculating the G,G- and P matrices     .... done
Transforming gradient to internals      .... done
Projecting the internal gradient        .... done
Number of atoms                         ....  27
Number of internal coordinates          .... 138
Current Energy                          ....   -43.682647706 Eh
Current gradient norm                   ....     0.004802480 Eh/bohr
Maximum allowed component of the step   ....  0.300
Current trust radius                    ....  0.700
Updating the Hessian (BFGS)             .... done
Forming the augmented Hessian           .... done
Diagonalizing the augmented Hessian     .... done
Last element of RFO vector              ....  0.993879472
Lowest eigenvalues of augmented Hessian:
 -0.000088041  0.001828501  0.011405681  0.015858778  0.016663974
Length of the computed step             ....  0.111150178
The final length of the internal step   ....  0.111150178
Converting the step to Cartesian space:
 Initial RMS(Int)=    0.0094617315
Transforming coordinates:
 Iter   0:  RMS(Cart)=    0.0213391768 RMS(Int)=    0.5348481758
done
Storing new coordinates                 .... done
The predicted energy change is          ....    -0.000044564
Previously predicted energy change      ....    -0.000348765
Actually observed energy change         ....    -0.000383149
Ratio of predicted to observed change   ....     1.098589960
New trust radius                        ....     0.700000000

                                .--------------------.
          ----------------------|Geometry convergence|-------------------------
          Item                value                   Tolerance       Converged
          ---------------------------------------------------------------------
          Energy change      -0.0003831493            0.0000050000      NO
          RMS gradient        0.0003492919            0.0001000000      NO
          MAX gradient        0.0020049899            0.0003000000      NO
          RMS step            0.0094617315            0.0020000000      NO
          MAX step            0.0383782921            0.0040000000      NO
          -------------------------------------------------------------------------
          ........................................................
          Max(Bonds)      0.0029      Max(Angles)    0.55
          Max(Dihed)        2.20      Max(Improp)    0.00
          ---------------------------------------------------------------------

The optimization has not yet converged - more geometry cycles are needed


    ---------------------------------------------------------------------------
                         Redundant Internal Coordinates
                            (Angstroem and degrees)

        Definition                    Value    dE/dq     Step     New-Value
    ----------------------------------------------------------------------------
     1. B(C   1,N   0)                1.4798  0.001601 -0.0015    1.4783   
     2. B(C   2,C   1)                1.5290 -0.000456  0.0006    1.5296   
     3. B(C   3,C   2)                1.4942 -0.000189  0.0001    1.4943   
     4. B(C   4,C   3)                1.3664  0.000007  0.0000    1.3664   
     5. B(N   5,C   4)                1.3658  0.000201 -0.0002    1.3655   
     6. B(C   6,N   5)                1.3623 -0.000282  0.0003    1.3626   
     7. B(C   7,C   6)                1.3902  0.000044 -0.0001    1.3901   
     8. B(C   8,C   7)                1.3784  0.000372 -0.0003    1.3782   
     9. B(C   9,C   8)                1.3983 -0.000225  0.0002    1.3985   
    10. B(C  10,C   9)                1.3765  0.000098 -0.0000    1.3765   
    11. B(C  11,C  10)                1.3971 -0.000163  0.0002    1.3972   
    12. B(C  11,C   6)                1.4174 -0.000426  0.0003    1.4177   
    13. B(C  11,C   3)                1.4297 -0.000160  0.0001    1.4298   
    14. B(C  12,C   1)                1.5854  0.000656 -0.0009    1.5845   
    15. B(O  13,C  12)                1.2515 -0.000584  0.0004    1.2520   
    16. B(O  14,C  12)                1.2312 -0.000426  0.0001    1.2314   
    17. B(H  15,N   0)                1.0196 -0.000246  0.0004    1.0200   
    18. B(H  16,N   0)                1.0779  0.002005 -0.0029    1.0750   
    19. B(H  17,N   0)                1.0242 -0.000163  0.0002    1.0244   
    20. B(H  18,C   1)                1.0897 -0.000078  0.0000    1.0898   
    21. B(H  19,C   2)                1.0912  0.000073 -0.0001    1.0911   
    22. B(H  20,C   2)                1.0919 -0.000106  0.0003    1.0922   
    23. B(H  21,C   4)                1.0725 -0.000009  0.0000    1.0725   
    24. B(H  22,N   5)                1.0056 -0.000107  0.0002    1.0058   
    25. B(H  23,C   7)                1.0793 -0.000011 -0.0000    1.0792   
    26. B(H  24,C   8)                1.0795 -0.000070  0.0001    1.0796   
    27. B(H  25,C   9)                1.0801  0.000046 -0.0001    1.0800   
    28. B(H  26,C  10)                1.0817  0.000382 -0.0005    1.0812   
    29. A(H  16,N   0,H  17)          110.99  0.000475    0.31    111.30   
    30. A(H  15,N   0,H  17)          109.53 -0.000431    0.10    109.64   
    31. A(H  15,N   0,H  16)          110.94  0.000729   -0.55    110.39   
    32. A(C   1,N   0,H  15)          113.98  0.000456   -0.20    113.78   
    33. A(C   1,N   0,H  16)           99.10 -0.001669    0.26     99.35   
    34. A(C   1,N   0,H  17)          111.96  0.000416    0.10    112.06   
    35. A(C   2,C   1,C  12)          109.51 -0.000797   -0.12    109.39   
    36. A(C   2,C   1,H  18)          110.01  0.000170    0.02    110.03   
    37. A(N   0,C   1,C   2)          111.93  0.000662   -0.20    111.73   
    38. A(N   0,C   1,C  12)          105.47  0.000223    0.05    105.52   
    39. A(N   0,C   1,H  18)          111.82 -0.000125    0.01    111.82   
    40. A(C  12,C   1,H  18)          107.91 -0.000190    0.25    108.17   
    41. A(C   1,C   2,C   3)          111.48 -0.000164    0.05    111.53   
    42. A(H  19,C   2,H  20)          107.42 -0.000252    0.02    107.44   
    43. A(C   3,C   2,H  20)          110.41  0.000459   -0.09    110.32   
    44. A(C   3,C   2,H  19)          110.98  0.000086    0.02    110.99   
    45. A(C   1,C   2,H  20)          109.00 -0.000153   -0.04    108.96   
    46. A(C   1,C   2,H  19)          107.42  0.000003    0.04    107.46   
    47. A(C   2,C   3,C   4)          127.43  0.000332    0.01    127.44   
    48. A(C   2,C   3,C  11)          126.13 -0.000406    0.02    126.15   
    49. A(C   4,C   3,C  11)          106.39  0.000072   -0.02    106.37   
    50. A(N   5,C   4,H  21)          121.14  0.000207   -0.03    121.11   
    51. A(C   3,C   4,H  21)          128.57  0.000014    0.01    128.58   
    52. A(C   3,C   4,N   5)          110.29 -0.000221    0.02    110.31   
    53. A(C   6,N   5,H  22)          125.60 -0.000032   -0.00    125.59   
    54. A(C   4,N   5,H  22)          125.36  0.000042   -0.01    125.36   
    55. A(C   4,N   5,C   6)          108.99 -0.000011    0.01    109.00   
    56. A(C   7,C   6,C  11)          121.69  0.000050    0.00    121.69   
    57. A(N   5,C   6,C  11)          107.73  0.000150   -0.04    107.70   
    58. A(N   5,C   6,C   7)          130.58 -0.000200    0.03    130.61   
    59. A(C   6,C   7,C   8)          117.71  0.000030   -0.01    117.70   
    60. A(C   8,C   7,H  23)          121.18  0.000017    0.00    121.18   
    61. A(C   6,C   7,H  23)          121.11 -0.000047    0.01    121.12   
    62. A(C   9,C   8,H  24)          119.10  0.000145   -0.02    119.08   
    63. A(C   7,C   8,H  24)          119.65  0.000124   -0.02    119.63   
    64. A(C   7,C   8,C   9)          121.25 -0.000269    0.04    121.29   
    65. A(C  10,C   9,H  25)          119.72  0.000006   -0.00    119.72   
    66. A(C   8,C   9,H  25)          118.86 -0.000167    0.04    118.90   
    67. A(C   8,C   9,C  10)          121.42  0.000161   -0.04    121.38   
    68. A(C   9,C  10,C  11)          118.67 -0.000038    0.02    118.69   
    69. A(C  11,C  10,H  26)          121.15  0.000093   -0.01    121.14   
    70. A(C   9,C  10,H  26)          120.16 -0.000056   -0.01    120.15   
    71. A(C   3,C  11,C   6)          106.60  0.000010    0.02    106.62   
    72. A(C   6,C  11,C  10)          119.26  0.000065   -0.01    119.25   
    73. A(C   3,C  11,C  10)          134.13 -0.000076   -0.01    134.12   
    74. A(O  13,C  12,O  14)          128.97  0.000215   -0.05    128.92   
    75. A(C   1,C  12,O  14)          117.88 -0.000410    0.05    117.93   
    76. A(C   1,C  12,O  13)          113.14  0.000190   -0.02    113.12   
    77. D(C   2,C   1,N   0,H  16)   -116.66  0.000176    1.66   -115.00   
    78. D(C  12,C   1,N   0,H  16)      2.35 -0.000291    1.43      3.78   
    79. D(C   2,C   1,N   0,H  17)      0.45 -0.000012    2.16      2.61   
    80. D(C  12,C   1,N   0,H  17)    119.47 -0.000478    1.93    121.40   
    81. D(C  12,C   1,N   0,H  15)   -115.51 -0.000353    1.97   -113.54   
    82. D(C   2,C   1,N   0,H  15)    125.48  0.000114    2.20    127.68   
    83. D(H  19,C   2,C   1,H  18)    -59.91  0.000355    0.28    -59.63   
    84. D(C   3,C   2,C   1,H  18)     61.86  0.000362    0.37     62.23   
    85. D(H  19,C   2,C   1,C  12)     58.53 -0.000259    0.51     59.04   
    86. D(C   3,C   2,C   1,C  12)   -179.69 -0.000251    0.59   -179.10   
    87. D(C   3,C   2,C   1,N   0)    -63.09 -0.000081    0.47    -62.62   
    88. D(H  19,C   2,C   1,N   0)    175.13 -0.000089    0.39    175.52   
    89. D(C   4,C   3,C   2,H  20)    154.50  0.000186   -0.49    154.00   
    90. D(C   4,C   3,C   2,H  19)     35.50  0.000149   -0.47     35.03   
    91. D(C   4,C   3,C   2,C   1)    -84.19  0.000196   -0.57    -84.76   
    92. D(C  11,C   3,C   2,H  19)   -147.13  0.000104   -0.44   -147.57   
    93. D(C  11,C   3,C   2,C   1)     93.18  0.000151   -0.54     92.64   
    94. D(H  21,C   4,C   3,C  11)    179.56  0.000072   -0.15    179.41   
    95. D(H  21,C   4,C   3,C   2)     -2.66  0.000022   -0.13     -2.79   
    96. D(N   5,C   4,C   3,C  11)     -0.21  0.000039   -0.03     -0.24   
    97. D(N   5,C   4,C   3,C   2)    177.58 -0.000011   -0.02    177.57   
    98. D(H  22,N   5,C   4,H  21)     -1.87 -0.000090    0.21     -1.65   
    99. D(H  22,N   5,C   4,C   3)    177.91 -0.000060    0.11    178.02   
   100. D(C   6,N   5,C   4,H  21)   -179.38 -0.000055    0.12   -179.26   
   101. D(C   6,N   5,C   4,C   3)      0.40 -0.000025    0.01      0.41   
   102. D(C  11,C   6,N   5,H  22)   -177.93  0.000032   -0.08   -178.01   
   103. D(C  11,C   6,N   5,C   4)     -0.43 -0.000002    0.01     -0.41   
   104. D(C   7,C   6,N   5,C   4)    179.99  0.000030   -0.05    179.94   
   105. D(C   7,C   6,N   5,H  22)      2.48  0.000063   -0.15      2.34   
   106. D(C   8,C   7,C   6,C  11)      0.24  0.000002   -0.01      0.24   
   107. D(C   8,C   7,C   6,N   5)    179.78 -0.000033    0.06    179.84   
   108. D(H  23,C   7,C   6,C  11)    179.89  0.000010   -0.04    179.85   
   109. D(H  23,C   7,C   6,N   5)     -0.57 -0.000025    0.03     -0.54   
   110. D(H  24,C   8,C   7,H  23)      0.30  0.000027   -0.03      0.26   
   111. D(H  24,C   8,C   7,C   6)    179.94  0.000035   -0.06    179.88   
   112. D(C   9,C   8,C   7,H  23)   -179.29  0.000009   -0.01   -179.30   
   113. D(C   9,C   8,C   7,C   6)      0.36  0.000016   -0.04      0.31   
   114. D(H  25,C   9,C   8,H  24)     -0.26 -0.000009    0.02     -0.24   
   115. D(H  25,C   9,C   8,C   7)    179.33  0.000009    0.01    179.33   
   116. D(C  10,C   9,C   8,H  24)    179.94 -0.000031    0.06    180.00   
   117. D(C  10,C   9,C   8,C   7)     -0.48 -0.000013    0.05     -0.43   
   118. D(H  26,C  10,C   9,H  25)     -1.76 -0.000044    0.10     -1.66   
   119. D(H  26,C  10,C   9,C   8)    178.04 -0.000021    0.06    178.10   
   120. D(C  11,C  10,C   9,H  25)   -179.83 -0.000030    0.05   -179.78   
   121. D(C  11,C  10,C   9,C   8)     -0.03 -0.000008    0.00     -0.02   
   122. D(C   6,C  11,C  10,H  26)   -177.44  0.000045   -0.11   -177.55   
   123. D(C   6,C  11,C  10,C   9)      0.61  0.000028   -0.06      0.56   
   124. D(C   3,C  11,C  10,C   9)    179.73  0.000002   -0.01    179.72   
   125. D(C  10,C  11,C   6,C   7)     -0.74 -0.000025    0.06     -0.68   
   126. D(C  10,C  11,C   6,N   5)    179.63  0.000004    0.00    179.63   
   127. D(C   3,C  11,C   6,C   7)    179.92 -0.000005    0.02    179.95   
   128. D(C   3,C  11,C   6,N   5)      0.29  0.000024   -0.04      0.26   
   129. D(C  10,C  11,C   3,C   4)   -179.25 -0.000014   -0.00   -179.26   
   130. D(C   3,C  11,C  10,H  26)      1.68  0.000019   -0.06      1.62   
   131. D(C  10,C  11,C   3,C   2)      2.92  0.000014   -0.03      2.89   
   132. D(C   6,C  11,C   3,C   4)     -0.05 -0.000037    0.04     -0.01   
   133. D(C   6,C  11,C   3,C   2)   -177.88 -0.000009    0.01   -177.87   
   134. D(O  14,C  12,C   1,C   2)    -61.23  0.000648   -1.97    -63.20   
   135. D(O  14,C  12,C   1,N   0)    178.16  0.000158   -1.72    176.44   
   136. D(O  13,C  12,C   1,H  18)   -122.03 -0.000237   -1.69   -123.72   
   137. D(O  13,C  12,C   1,C   2)    118.23  0.000129   -1.77    116.46   
   138. D(O  13,C  12,C   1,N   0)     -2.38 -0.000361   -1.52     -3.91   
    ----------------------------------------------------------------------------

Geometry step timings:
Preparation and reading OPT file:      0.000 s ( 0.511 %)
Internal coordinates            :      0.000 s ( 0.743 %)
B/P matrices and projection     :      0.001 s (41.663 %)
Hessian update/contruction      :      0.000 s ( 9.150 %)
Making the step                 :      0.001 s (33.256 %)
Converting the step to Cartesian:      0.000 s ( 3.576 %)
Storing new data                :      0.000 s ( 0.557 %)
Checking convergence            :      0.000 s ( 0.790 %)
Final printing                  :      0.000 s ( 9.754 %)
Total time                      :      0.002 s

Time for energy+gradient        :      0.026 s
Time for complete geometry iter :      0.029 s

         *************************************************************
         *                GEOMETRY OPTIMIZATION CYCLE  18            *
         *************************************************************
---------------------------------
CARTESIAN COORDINATES (ANGSTROEM)
---------------------------------
  N     1.842662    0.115189    1.425676
  C     2.387437   -0.142022    0.075723
  C     1.454396    0.376108   -1.019990
  C     0.134081   -0.323146   -0.991839
  C    -0.187551   -1.514646   -1.578306
  N    -1.477513   -1.853975   -1.285768
  C    -2.026551   -0.880230   -0.506570
  C    -3.299349   -0.770021    0.041253
  C    -3.574517    0.344852    0.803280
  C    -2.610918    1.336124    1.014500
  C    -1.347654    1.233735    0.477485
  C    -1.035157    0.110317   -0.292291
  C     3.759759    0.647693    0.014750
  O     3.985142    1.322347    1.045011
  O     4.445867    0.534502   -1.001458
  H     1.804496   -0.713834    2.018655
  H     2.587872    0.800505    1.787116
  H     0.918471    0.555548    1.389996
  H     2.596912   -1.199765   -0.081947
  H     1.956775    0.224385   -1.976542
  H     1.316752    1.451736   -0.889565
  H     0.424924   -2.143731   -2.194293
  H    -1.955308   -2.671672   -1.624330
  H    -4.047825   -1.528482   -0.129782
  H    -4.553815    0.463088    1.242120
  H    -2.871547    2.199087    1.609270
  H    -0.627841    2.026311    0.627846

----------------------------
CARTESIAN COORDINATES (A.U.)
----------------------------
  NO LB    ZA    FRAG    MASS        X           Y           Z
   0 N   7.0000    0    14.007    3.482126    0.217675    2.694138
   1 C   6.0000    0    12.011    4.511602   -0.268382    0.143096
   2 C   6.0000    0    12.011    2.748411    0.710740   -1.927502
   3 C   6.0000    0    12.011    0.253377   -0.610658   -1.874304
   4 C   6.0000    0    12.011   -0.354420   -2.862266   -2.982567
   5 N   7.0000    0    14.007   -2.792095   -3.503506   -2.429750
   6 C   6.0000    0    12.011   -3.829626   -1.663393   -0.957279
   7 C   6.0000    0    12.011   -6.234865   -1.455129    0.077958
   8 C   6.0000    0    12.011   -6.754859    0.651675    1.517979
   9 C   6.0000    0    12.011   -4.933921    2.524909    1.917126
  10 C   6.0000    0    12.011   -2.546697    2.331421    0.902316
  11 C   6.0000    0    12.011   -1.956163    0.208468   -0.552350
  12 C   6.0000    0    12.011    7.104915    1.223962    0.027873
  13 O   8.0000    0    15.999    7.530828    2.498873    1.974785
  14 O   8.0000    0    15.999    8.401472    1.010062   -1.892480
  15 H   1.0000    0     1.008    3.410003   -1.348951    3.814705
  16 H   1.0000    0     1.008    4.890370    1.512735    3.377161
  17 H   1.0000    0     1.008    1.735658    1.049834    2.626711
  18 H   1.0000    0     1.008    4.907453   -2.267228   -0.154858
  19 H   1.0000    0     1.008    3.697768    0.424026   -3.735124
  20 H   1.0000    0     1.008    2.488300    2.743384   -1.681034
  21 H   1.0000    0     1.008    0.802990   -4.051064   -4.146613
  22 H   1.0000    0     1.008   -3.694997   -5.048729   -3.069539
  23 H   1.0000    0     1.008   -7.649281   -2.888413   -0.245253
  24 H   1.0000    0     1.008   -8.605463    0.875109    2.347267
  25 H   1.0000    0     1.008   -5.426437    4.155673    3.041080
  26 H   1.0000    0     1.008   -1.186447    3.829173    1.186458

      -----------------------------------------------------------      
     |                   =====================                   |     
     |                           x T B                           |     
     |                   =====================                   |     
     |                         S. Grimme                         |     
     |          Mulliken Center for Theoretical Chemistry        |     
     |                    University of Bonn                     |     
      -----------------------------------------------------------      

   * xtb version 6.7.1 (edcfbbe) compiled by 'albert@albert-system' on 2024-07-22

   xtb is free software: you can redistribute it and/or modify it under
   the terms of the GNU Lesser General Public License as published by
   the Free Software Foundation, either version 3 of the License, or
   (at your option) any later version.
   
   xtb is distributed in the hope that it will be useful,
   but WITHOUT ANY WARRANTY; without even the implied warranty of
   MERCHANTABILITY or FITNESS FOR A PARTICULAR PURPOSE.  See the
   GNU Lesser General Public License for more details.
   
   Cite this work as:
   * C. Bannwarth, E. Caldeweyher, S. Ehlert, A. Hansen, P. Pracht,
     J. Seibert, S. Spicher, S. Grimme, WIREs Comput. Mol. Sci., 2020, 11,
     e01493. DOI: 10.1002/wcms.1493
   
   for GFN2-xTB:
   * C. Bannwarth, S. Ehlert and S. Grimme., J. Chem. Theory Comput., 2019,
     15, 1652-1671. DOI: 10.1021/acs.jctc.8b01176
   for GFN1-xTB:
   * S. Grimme, C. Bannwarth, P. Shushkov, J. Chem. Theory Comput., 2017,
     13, 1989-2009. DOI: 10.1021/acs.jctc.7b00118
   for GFN0-xTB:
   * P. Pracht, E. Caldeweyher, S. Ehlert, S. Grimme, ChemRxiv, 2019, preprint.
     DOI: 10.26434/chemrxiv.8326202.v1
   for GFN-FF:
   * S. Spicher and S. Grimme, Angew. Chem. Int. Ed., 2020, 59, 15665-15673.
     DOI: 10.1002/anie.202004239
   
   for ALPB and GBSA implicit solvation:
   * S. Ehlert, M. Stahn, S. Spicher, S. Grimme, J. Chem. Theory Comput.,
     2021, 17, 4250-4261. DOI: 10.1021/acs.jctc.1c00471
   
   for ddCOSMO and CPCM-X implicit solvation:
   * M. Stahn, S. Ehlert, S. Grimme, J. Phys. Chem. A,
     2023, XX, XXXX-XXXX. DOI: 10.1021/acs.jpca.3c04382
   
   for DFT-D4:
   * E. Caldeweyher, C. Bannwarth and S. Grimme, J. Chem. Phys., 2017,
     147, 034112. DOI: 10.1063/1.4993215
   * E. Caldeweyher, S. Ehlert, A. Hansen, H. Neugebauer, S. Spicher,
     C. Bannwarth and S. Grimme, J. Chem. Phys., 2019, 150, 154122.
     DOI: 10.1063/1.5090222
   * E. Caldeweyher, J.-M. Mewes, S. Ehlert and S. Grimme, Phys. Chem. Chem. Phys.
     2020, 22, 8499-8512. DOI: 10.1039/D0CP00502A
   
   for sTDA-xTB:
   * S. Grimme and C. Bannwarth, J. Chem. Phys., 2016, 145, 054103.
     DOI: 10.1063/1.4959605
   
   in the mass-spec context:
   * V. Asgeirsson, C. Bauer and S. Grimme, Chem. Sci., 2017, 8, 4879.
     DOI: 10.1039/c7sc00601b
   * J. Koopman and S. Grimme, ACS Omega 2019, 4, 12, 15120-15133.
     DOI: 10.1021/acsomega.9b02011
   
   for metadynamics refer to:
   * S. Grimme, J. Chem. Theory Comput., 2019, 155, 2847-2862
     DOI: 10.1021/acs.jctc.9b00143
   
   for SPH calculations refer to:
   * S. Spicher and S. Grimme, J. Chem. Theory Comput., 2021, 17, 1701-1714
     DOI: 10.1021/acs.jctc.0c01306
   
   for ONIOM refer to:
   * C. Plett, A. Katbashev, S. Ehlert, S. Grimme, M. Bursch,
     Phys. Chem. Chem. Phys., 2023, 25, 17860-17868. DOI: 10.1039/D3CP02178E
   
   for DIPRO refer to:
   * J. Kohn, N. Gildemeister, S. Grimme, D. Fazzi, A. Hansen,
     J. Chem. Phys., 2023, just accepted.
   
   for PTB refer to:
   * S. Grimme, M. Mueller, A. Hansen, J. Chem. Phys., 2023, 158, 124111.
     DOI: 10.1063/5.0137838
   
   with help from (in alphabetical order)
   P. Atkinson, C. Bannwarth, F. Bohle, G. Brandenburg, E. Caldeweyher
   M. Checinski, S. Dohm, S. Ehlert, S. Ehrlich, I. Gerasimov, C. Hölzer
   A. Katbashev, J. Kohn, J. Koopman, C. Lavigne, S. Lehtola, F. März, M. Müller,
   F. Musil, H. Neugebauer, J. Pisarek, C. Plett, P. Pracht, F. Pultar,
   J. Seibert, P. Shushkov, S. Spicher, M. Stahn, M. Steiner, T. Strunk,
   J. Stückrath, T. Rose, and J. Unsleber
   
 * started run on 2026/04/09 at 18:40:48.816     
   ID    Z sym.   atoms
    1    7 N      1, 6
    2    6 C      2-5, 7-13
    3    8 O      14, 15
    4    1 H      16-27

           -------------------------------------------------
          |                Calculation Setup                |
           -------------------------------------------------

          program call               : /home/analima/Programs/orca-6.1.0-f.0_linux_x86-64/bin/otool_xtb geo_opt_XTB.xyz --grad -c 0 -u 0 -P 1 --namespace geo_opt --input geo_opt_XTB.input.tmp --alpb WATER --acc 0.200000
          calculation namespace      : geo_opt
          coordinate file            : geo_opt_XTB.xyz
          omp threads                :                     1


           -------------------------------------------------
          |                 G F N 2 - x T B                 |
           -------------------------------------------------

        Reference                      10.1021/acs.jctc.8b01176
      * Hamiltonian:
        H0-scaling (s, p, d)           1.850000    2.230000    2.230000
        zeta-weighting                 0.500000
      * Dispersion:
        s8                             2.700000
        a1                             0.520000
        a2                             5.000000
        s9                             5.000000
      * Repulsion:
        kExp                           1.500000    1.000000
        rExp                           1.000000
      * Coulomb:
        alpha                          2.000000
        third order                    shell-resolved
        anisotropic                    true
        a3                             3.000000
        a5                             4.000000
        cn-shift                       1.200000
        cn-exp                         4.000000
        max-rad                        5.000000

      * Solvation model:               ALPB
        Solvent                        WATER
        Parameter file                 internal GFN2-xTB/ALPB
        Dielectric constant                8.0200E+01
        Reference state                gsolv [1 M gas/solution]
        Free energy shift                  1.0808E-03 Eh       6.7819E-01 kcal/mol
        Temperature                        2.9815E+02 K
        Density                            1.0000E+00 kg/L
        Solvent mass                       1.8000E+01 g/mol
        Interaction kernel             P16
        Born radius scaling (c1)           1.4744E+00
        Born radii integrator          GBOBC
        Born offset                        0.0000E+00 a0       0.0000E+00 AA
        H-bond correction              true
        Ion screening                  false
        Surface tension                    1.0000E-05 Eh       1.5569E+01 dyn/cm
        Grid points                               230 per atom
q/qsh data taken from xtbrestart
CAMM data taken from xtbrestart

          ...................................................
          :                      SETUP                      :
          :.................................................:
          :  # basis functions                  72          :
          :  # atomic orbitals                  72          :
          :  # shells                           42          :
          :  # electrons                        78          :
          :  max. iterations                   250          :
          :  Hamiltonian                  GFN2-xTB          :
          :  restarted?                       true          :
          :  GBSA solvation                   true          :
          :  PC potential                    false          :
          :  electronic temp.          300.0000000     K    :
          :  accuracy                    0.2000000          :
          :  -> integral cutoff          0.3198970E+02      :
          :  -> integral neglect         0.2000000E-08      :
          :  -> SCF convergence          0.2000000E-06 Eh   :
          :  -> wf. convergence          0.2000000E-04 e    :
          :  Broyden damping             0.4000000          :
          :  net charge                          0          :
          :  unpaired electrons                  0          :
          ...................................................

 iter      E             dE          RMSdq      gap      omega  full diag
   1    -44.3016522 -0.443017E+02  0.723E-02    3.54       0.0  T
   2    -44.3016535 -0.131879E-05  0.422E-02    3.54       1.0  T
   3    -44.3016525  0.102914E-05  0.831E-03    3.54       2.3  T
   4    -44.3016541 -0.158771E-05  0.214E-03    3.54       9.0  T
   5    -44.3016541 -0.227964E-07  0.109E-03    3.54      17.6  T
   6    -44.3016541 -0.317231E-08  0.478E-04    3.54      40.3  T
   7    -44.3016541 -0.150564E-08  0.101E-04    3.54     190.9  T
   8    -44.3016541 -0.927258E-10  0.471E-05    3.54     408.3  T

   *** convergence criteria satisfied after 8 iterations ***

         #    Occupation            Energy/Eh            Energy/eV
      -------------------------------------------------------------
         1        2.0000           -0.6977303             -18.9862
       ...           ...                  ...                  ...
        33        2.0000           -0.4190553             -11.4031
        34        2.0000           -0.4184832             -11.3875
        35        2.0000           -0.4168962             -11.3443
        36        2.0000           -0.4072556             -11.0820
        37        2.0000           -0.3831060             -10.4248
        38        2.0000           -0.3822112             -10.4005
        39        2.0000           -0.3630063              -9.8779 (HOMO)
        40                         -0.2327591              -6.3337 (LUMO)
        41                         -0.1989769              -5.4144
        42                         -0.1898210              -5.1653
        43                         -0.1583842              -4.3099
        44                         -0.0742785              -2.0212
       ...                                ...                  ...
        72                          0.7144649              19.4416
      -------------------------------------------------------------
                  HL-Gap            0.1302472 Eh            3.5442 eV
             Fermi-level           -0.2978827 Eh           -8.1058 eV

 SCC (total)                   0 d,  0 h,  0 min,  0.015 sec
 SCC setup                      ...        0 min,  0.000 sec (  2.342%)
 Dispersion                     ...        0 min,  0.000 sec (  0.696%)
 classical contributions        ...        0 min,  0.000 sec (  0.118%)
 integral evaluation            ...        0 min,  0.002 sec ( 10.441%)
 iterations                     ...        0 min,  0.008 sec ( 54.052%)
 molecular gradient             ...        0 min,  0.005 sec ( 31.614%)
 printout                       ...        0 min,  0.000 sec (  0.647%)

         :::::::::::::::::::::::::::::::::::::::::::::::::::::
         ::                     SUMMARY                     ::
         :::::::::::::::::::::::::::::::::::::::::::::::::::::
         :: total energy             -43.682714470497 Eh    ::
         :: total w/o Gsasa/hb       -43.674885737820 Eh    ::
         :: gradient norm              0.002928774562 Eh/a0 ::
         :: HOMO-LUMO gap              3.544206949127 eV    ::
         ::.................................................::
         :: SCC energy               -44.301489131207 Eh    ::
         :: -> isotropic ES            0.164732818590 Eh    ::
         :: -> anisotropic ES         -0.009838845838 Eh    ::
         :: -> anisotropic XC          0.016221736400 Eh    ::
         :: -> dispersion             -0.026259095367 Eh    ::
         :: -> Gsolv                  -0.063680337009 Eh    ::
         ::    -> Gelec               -0.055851604332 Eh    ::
         ::    -> Gsasa                0.001721277955 Eh    ::
         ::    -> Ghb                 -0.010630770329 Eh    ::
         ::    -> Gshift               0.001080759698 Eh    ::
         :: repulsion energy           0.618774660710 Eh    ::
         :: add. restraining           0.000000000000 Eh    ::
         :: total charge               0.000000000000 e     ::
         :::::::::::::::::::::::::::::::::::::::::::::::::::::


Property printout bound to 'properties.out'

           -------------------------------------------------
          | TOTAL ENERGY              -43.682714470497 Eh   |
          | GRADIENT NORM               0.002928774562 Eh/α |
          | HOMO-LUMO GAP               3.544206949127 eV   |
           -------------------------------------------------

------------------------------------------------------------------------
 * finished run on 2026/04/09 at 18:40:48.837     
------------------------------------------------------------------------
 total:
 * wall-time:     0 d,  0 h,  0 min,  0.021 sec
 *  cpu-time:     0 d,  0 h,  0 min,  0.018 sec
 * ratio c/w:     0.886 speedup
 SCF:
 * wall-time:     0 d,  0 h,  0 min,  0.015 sec
 *  cpu-time:     0 d,  0 h,  0 min,  0.013 sec
 * ratio c/w:     0.893 speedup


-------------------------   --------------------
FINAL SINGLE POINT ENERGY       -43.682714470500
-------------------------   --------------------


-------------
DIPOLE MOMENT
-------------
                                X             Y             Z
Total Dipole Moment    :     -4.61400      -2.53800       1.61300
                        -----------------------------------------
Magnitude (a.u.)       :      5.50747
Magnitude (Debye)      :     13.99887


------------------
CARTESIAN GRADIENT
------------------

   1   N   :   -0.001592489   -0.000732165    0.000671809
   2   C   :   -0.000624085    0.000043472   -0.000069841
   3   C   :    0.000265298   -0.000299926    0.000187691
   4   C   :    0.000051303   -0.000026441   -0.000287932
   5   C   :    0.000052761   -0.000143194    0.000075290
   6   N   :   -0.000084491   -0.000052885    0.000289369
   7   C   :    0.000142516    0.000282156   -0.000026880
   8   C   :    0.000091981   -0.000214145   -0.000048746
   9   C   :   -0.000148029    0.000269649    0.000168507
  10   C   :    0.000037750   -0.000101439   -0.000087607
  11   C   :    0.000127671   -0.000202964   -0.000190877
  12   C   :   -0.000095522   -0.000001009   -0.000100915
  13   C   :    0.000668016    0.000328271   -0.000664215
  14   O   :   -0.000125955    0.000059897   -0.000046119
  15   O   :   -0.000320988   -0.000001776    0.000293930
  16   H   :   -0.000366245    0.000180252   -0.000125547
  17   H   :    0.001363016    0.000396604   -0.000210817
  18   H   :    0.000125782   -0.000301045    0.000226311
  19   H   :    0.000230953    0.000078911   -0.000018919
  20   H   :    0.000028714    0.000273091   -0.000066221
  21   H   :    0.000227187    0.000055067    0.000037785
  22   H   :    0.000055551    0.000022511    0.000059919
  23   H   :   -0.000069731    0.000072382   -0.000097809
  24   H   :    0.000009671    0.000019669   -0.000052485
  25   H   :    0.000029368   -0.000026531    0.000002481
  26   H   :   -0.000034699   -0.000005499    0.000037514
  27   H   :   -0.000045304    0.000027084    0.000044321

Difference to translation invariance:
           :   -0.0000000000   -0.0000000000   -0.0000000000

Difference to rotation invariance:
           :    0.0002513336   -0.0004164165   -0.0001873009

Norm of the Cartesian gradient     ...    0.0029287746
RMS gradient                       ...    0.0003254194
MAX gradient                       ...    0.0015924889
------------------------------------------------------------------------------
                         ORCA GEOMETRY RELAXATION STEP
------------------------------------------------------------------------------

Reading the OPT-File                    .... done
Getting information on internals        .... done
Copying old internal coords+grads       .... done
Making the new internal coordinates     .... (2022 redundants) done
Validating the new internal coordinates .... (2022 redundants) done
Calculating the B-matrix                .... done
Calculating the G,G- and P matrices     .... done
Transforming gradient to internals      .... done
Projecting the internal gradient        .... done
Number of atoms                         ....  27
Number of internal coordinates          .... 138
Current Energy                          ....   -43.682714471 Eh
Current gradient norm                   ....     0.002928775 Eh/bohr
Maximum allowed component of the step   ....  0.300
Current trust radius                    ....  0.700
Updating the Hessian (BFGS)             .... done
Forming the augmented Hessian           .... done
Diagonalizing the augmented Hessian     .... done
Last element of RFO vector              ....  0.986288092
Lowest eigenvalues of augmented Hessian:
 -0.000094218  0.001380905  0.011001182  0.014282892  0.017411381
Length of the computed step             ....  0.167327098
The final length of the internal step   ....  0.167327098
Converting the step to Cartesian space:
 Initial RMS(Int)=    0.0142438285
Transforming coordinates:
 Iter   0:  RMS(Cart)=    0.0349448261 RMS(Int)=    0.0142296879
 Iter   5:  RMS(Cart)=    0.0000000125 RMS(Int)=    0.0000000091
done
Storing new coordinates                 .... done
The predicted energy change is          ....    -0.000048428
Previously predicted energy change      ....    -0.000044564
Actually observed energy change         ....    -0.000066765
Ratio of predicted to observed change   ....     1.498162109
New trust radius                        ....     0.700000000

                                .--------------------.
          ----------------------|Geometry convergence|-------------------------
          Item                value                   Tolerance       Converged
          ---------------------------------------------------------------------
          Energy change      -0.0000667648            0.0000050000      NO
          RMS gradient        0.0002286412            0.0001000000      NO
          MAX gradient        0.0012455435            0.0003000000      NO
          RMS step            0.0142438285            0.0020000000      NO
          MAX step            0.0619274743            0.0040000000      NO
          -------------------------------------------------------------------------
          ........................................................
          Max(Bonds)      0.0041      Max(Angles)    0.69
          Max(Dihed)        3.55      Max(Improp)    0.00
          ---------------------------------------------------------------------

The optimization has not yet converged - more geometry cycles are needed


    ---------------------------------------------------------------------------
                         Redundant Internal Coordinates
                            (Angstroem and degrees)

        Definition                    Value    dE/dq     Step     New-Value
    ----------------------------------------------------------------------------
     1. B(C   1,N   0)                1.4783  0.000599 -0.0017    1.4766   
     2. B(C   2,C   1)                1.5296 -0.000394  0.0014    1.5309   
     3. B(C   3,C   2)                1.4943 -0.000062  0.0000    1.4944   
     4. B(C   4,C   3)                1.3664  0.000009 -0.0000    1.3664   
     5. B(N   5,C   4)                1.3655  0.000127 -0.0004    1.3652   
     6. B(C   6,N   5)                1.3626 -0.000085  0.0002    1.3628   
     7. B(C   7,C   6)                1.3901 -0.000019 -0.0000    1.3900   
     8. B(C   8,C   7)                1.3782  0.000156 -0.0003    1.3779   
     9. B(C   9,C   8)                1.3985 -0.000089  0.0001    1.3986   
    10. B(C  10,C   9)                1.3765  0.000038  0.0000    1.3765   
    11. B(C  11,C  10)                1.3972 -0.000195  0.0004    1.3977   
    12. B(C  11,C   6)                1.4177 -0.000233  0.0004    1.4181   
    13. B(C  11,C   3)                1.4298 -0.000111  0.0002    1.4300   
    14. B(C  12,C   1)                1.5845  0.000403 -0.0014    1.5831   
    15. B(O  13,C  12)                1.2520 -0.000031  0.0002    1.2521   
    16. B(O  14,C  12)                1.2314 -0.000418  0.0004    1.2318   
    17. B(H  15,N   0)                1.0200 -0.000210  0.0008    1.0207   
    18. B(H  16,N   0)                1.0750  0.001129 -0.0041    1.0709   
    19. B(H  17,N   0)                1.0244 -0.000251  0.0008    1.0252   
    20. B(H  18,C   1)                1.0898 -0.000031 -0.0001    1.0897   
    21. B(H  19,C   2)                1.0911  0.000035 -0.0002    1.0909   
    22. B(H  20,C   2)                1.0922  0.000029  0.0001    1.0923   
    23. B(H  21,C   4)                1.0725 -0.000016  0.0000    1.0726   
    24. B(H  22,N   5)                1.0058  0.000008  0.0000    1.0058   
    25. B(H  23,C   7)                1.0792 -0.000012 -0.0000    1.0792   
    26. B(H  24,C   8)                1.0796 -0.000028  0.0001    1.0797   
    27. B(H  25,C   9)                1.0800  0.000025 -0.0001    1.0799   
    28. B(H  26,C  10)                1.0812 -0.000004 -0.0001    1.0811   
    29. A(H  16,N   0,H  17)          111.29  0.000535    0.31    111.60   
    30. A(H  15,N   0,H  17)          109.63 -0.000305    0.14    109.76   
    31. A(H  15,N   0,H  16)          110.40  0.000351   -0.69    109.71   
    32. A(C   1,N   0,H  15)          113.78  0.000228   -0.29    113.49   
    33. A(C   1,N   0,H  16)           99.35 -0.001246    0.52     99.87   
    34. A(C   1,N   0,H  17)          112.05  0.000419    0.03    112.08   
    35. A(C   2,C   1,C  12)          109.39 -0.000708   -0.08    109.31   
    36. A(C   2,C   1,H  18)          110.02  0.000164   -0.00    110.02   
    37. A(N   0,C   1,C   2)          111.74  0.000667   -0.41    111.33   
    38. A(N   0,C   1,C  12)          105.52  0.000140    0.02    105.54   
    39. A(N   0,C   1,H  18)          111.83 -0.000236    0.10    111.93   
    40. A(C  12,C   1,H  18)          108.16 -0.000075    0.42    108.58   
    41. A(C   1,C   2,C   3)          111.53  0.000101   -0.03    111.50   
    42. A(H  19,C   2,H  20)          107.44 -0.000205    0.12    107.55   
    43. A(C   3,C   2,H  20)          110.32  0.000272   -0.10    110.21   
    44. A(C   3,C   2,H  19)          110.99  0.000058   -0.03    110.97   
    45. A(C   1,C   2,H  20)          108.96 -0.000171   -0.01    108.95   
    46. A(C   1,C   2,H  19)          107.46 -0.000080    0.07    107.53   
    47. A(C   2,C   3,C   4)          127.44  0.000276   -0.02    127.42   
    48. A(C   2,C   3,C  11)          126.15 -0.000266    0.03    126.18   
    49. A(C   4,C   3,C  11)          106.37 -0.000011   -0.01    106.36   
    50. A(N   5,C   4,H  21)          121.11  0.000107   -0.03    121.08   
    51. A(C   3,C   4,H  21)          128.58 -0.000014    0.01    128.58   
    52. A(C   3,C   4,N   5)          110.31 -0.000092    0.02    110.33   
    53. A(C   6,N   5,H  22)          125.60 -0.000032    0.00    125.60   
    54. A(C   4,N   5,H  22)          125.36  0.000031   -0.01    125.35   
    55. A(C   4,N   5,C   6)          109.00 -0.000000    0.01    109.01   
    56. A(C   7,C   6,C  11)          121.69  0.000095   -0.02    121.67   
    57. A(N   5,C   6,C  11)          107.70  0.000009   -0.02    107.67   
    58. A(N   5,C   6,C   7)          130.61 -0.000104    0.04    130.65   
    59. A(C   6,C   7,C   8)          117.70 -0.000015   -0.01    117.70   
    60. A(C   8,C   7,H  23)          121.18  0.000032   -0.01    121.17   
    61. A(C   6,C   7,H  23)          121.12 -0.000016    0.01    121.13   
    62. A(C   9,C   8,H  24)          119.08  0.000086   -0.03    119.04   
    63. A(C   7,C   8,H  24)          119.63  0.000061   -0.02    119.61   
    64. A(C   7,C   8,C   9)          121.29 -0.000147    0.05    121.34   
    65. A(C  10,C   9,H  25)          119.72  0.000011   -0.01    119.71   
    66. A(C   8,C   9,H  25)          118.90 -0.000067    0.04    118.94   
    67. A(C   8,C   9,C  10)          121.38  0.000055   -0.03    121.35   
    68. A(C   9,C  10,C  11)          118.69  0.000040   -0.01    118.68   
    69. A(C  11,C  10,H  26)          121.14  0.000049   -0.01    121.13   
    70. A(C   9,C  10,H  26)          120.15 -0.000089    0.02    120.16   
    71. A(C   3,C  11,C   6)          106.62  0.000095   -0.00    106.62   
    72. A(C   6,C  11,C  10)          119.25 -0.000029    0.01    119.26   
    73. A(C   3,C  11,C  10)          134.12 -0.000066   -0.01    134.11   
    74. A(O  13,C  12,O  14)          128.93  0.000137   -0.04    128.89   
    75. A(C   1,C  12,O  14)          117.94 -0.000113    0.06    118.00   
    76. A(C   1,C  12,O  13)          113.13 -0.000025   -0.01    113.12   
    77. D(C   2,C   1,N   0,H  16)   -115.02 -0.000053    2.90   -112.11   
    78. D(C  12,C   1,N   0,H  16)      3.78 -0.000462    2.57      6.35   
    79. D(C   2,C   1,N   0,H  17)      2.61  0.000052    3.55      6.16   
    80. D(C  12,C   1,N   0,H  17)    121.40 -0.000357    3.22    124.62   
    81. D(C  12,C   1,N   0,H  15)   -113.53 -0.000243    3.20   -110.33   
    82. D(C   2,C   1,N   0,H  15)    127.68  0.000166    3.53    131.21   
    83. D(H  19,C   2,C   1,H  18)    -59.63  0.000202    0.44    -59.20   
    84. D(C   3,C   2,C   1,H  18)     62.23  0.000283    0.43     62.66   
    85. D(H  19,C   2,C   1,C  12)     59.05 -0.000222    0.89     59.94   
    86. D(C   3,C   2,C   1,C  12)   -179.09 -0.000141    0.88   -178.21   
    87. D(C   3,C   2,C   1,N   0)    -62.62 -0.000014    0.59    -62.04   
    88. D(H  19,C   2,C   1,N   0)    175.52 -0.000095    0.60    176.11   
    89. D(C   4,C   3,C   2,H  20)    154.00  0.000118   -1.08    152.92   
    90. D(C   4,C   3,C   2,H  19)     35.03  0.000161   -1.14     33.89   
    91. D(C   4,C   3,C   2,C   1)    -84.76  0.000155   -1.19    -85.95   
    92. D(C  11,C   3,C   2,H  19)   -147.57  0.000131   -1.10   -148.67   
    93. D(C  11,C   3,C   2,C   1)     92.64  0.000125   -1.15     91.49   
    94. D(H  21,C   4,C   3,C  11)    179.41  0.000027   -0.16    179.24   
    95. D(H  21,C   4,C   3,C   2)     -2.78 -0.000006   -0.13     -2.91   
    96. D(N   5,C   4,C   3,C  11)     -0.24  0.000013   -0.02     -0.26   
    97. D(N   5,C   4,C   3,C   2)    177.57 -0.000020    0.01    177.58   
    98. D(H  22,N   5,C   4,H  21)     -1.65 -0.000061    0.37     -1.29   
    99. D(H  22,N   5,C   4,C   3)    178.02 -0.000048    0.24    178.26   
   100. D(C   6,N   5,C   4,H  21)   -179.26 -0.000018    0.11   -179.15   
   101. D(C   6,N   5,C   4,C   3)      0.42 -0.000005   -0.02      0.40   
   102. D(C  11,C   6,N   5,H  22)   -178.01  0.000037   -0.21   -178.22   
   103. D(C  11,C   6,N   5,C   4)     -0.41 -0.000005    0.05     -0.36   
   104. D(C   7,C   6,N   5,C   4)    179.94  0.000013   -0.05    179.89   
   105. D(C   7,C   6,N   5,H  22)      2.34  0.000055   -0.30      2.04   
   106. D(C   8,C   7,C   6,C  11)      0.23 -0.000004    0.01      0.24   
   107. D(C   8,C   7,C   6,N   5)    179.84 -0.000024    0.12    179.96   
   108. D(H  23,C   7,C   6,C  11)    179.85 -0.000011    0.02    179.87   
   109. D(H  23,C   7,C   6,N   5)     -0.54 -0.000031    0.13     -0.42   
   110. D(H  24,C   8,C   7,H  23)      0.26  0.000024   -0.08      0.18   
   111. D(H  24,C   8,C   7,C   6)    179.88  0.000017   -0.07    179.81   
   112. D(C   9,C   8,C   7,H  23)   -179.30  0.000009   -0.03   -179.34   
   113. D(C   9,C   8,C   7,C   6)      0.31  0.000002   -0.02      0.29   
   114. D(H  25,C   9,C   8,H  24)     -0.24  0.000001    0.01     -0.23   
   115. D(H  25,C   9,C   8,C   7)    179.33  0.000015   -0.04    179.30   
   116. D(C  10,C   9,C   8,H  24)   -180.00 -0.000009    0.05   -179.95   
   117. D(C  10,C   9,C   8,C   7)     -0.43  0.000006    0.00     -0.43   
   118. D(H  26,C  10,C   9,H  25)     -1.66 -0.000002    0.04     -1.61   
   119. D(H  26,C  10,C   9,C   8)    178.10  0.000007    0.00    178.11   
   120. D(C  11,C  10,C   9,H  25)   -179.78 -0.000021    0.08   -179.71   
   121. D(C  11,C  10,C   9,C   8)     -0.02 -0.000011    0.03      0.01   
   122. D(C   6,C  11,C  10,H  26)   -177.55 -0.000006   -0.02   -177.57   
   123. D(C   6,C  11,C  10,C   9)      0.55  0.000010   -0.05      0.50   
   124. D(C   3,C  11,C  10,C   9)    179.72  0.000014   -0.05    179.68   
   125. D(C  10,C  11,C   6,C   7)     -0.68 -0.000002    0.03     -0.65   
   126. D(C  10,C  11,C   6,N   5)    179.64  0.000015   -0.06    179.58   
   127. D(C   3,C  11,C   6,C   7)    179.95 -0.000004    0.03    179.98   
   128. D(C   3,C  11,C   6,N   5)      0.26  0.000012   -0.06      0.20   
   129. D(C  10,C  11,C   3,C   4)   -179.26 -0.000018    0.05   -179.21   
   130. D(C   3,C  11,C  10,H  26)      1.62 -0.000002   -0.02      1.60   
   131. D(C  10,C  11,C   3,C   2)      2.90 -0.000001    0.02      2.91   
   132. D(C   6,C  11,C   3,C   4)     -0.01 -0.000015    0.05      0.03   
   133. D(C   6,C  11,C   3,C   2)   -177.86  0.000002    0.02   -177.84   
   134. D(O  14,C  12,C   1,C   2)    -63.21  0.000283   -2.19    -65.40   
   135. D(O  14,C  12,C   1,N   0)    176.44 -0.000212   -1.66    174.79   
   136. D(O  13,C  12,C   1,H  18)   -123.72 -0.000101   -2.08   -125.80   
   137. D(O  13,C  12,C   1,C   2)    116.45  0.000156   -2.27    114.18   
   138. D(O  13,C  12,C   1,N   0)     -3.90 -0.000339   -1.74     -5.64   
    ----------------------------------------------------------------------------

Geometry step timings:
Preparation and reading OPT file:      0.000 s ( 0.506 %)
Internal coordinates            :      0.000 s ( 0.551 %)
B/P matrices and projection     :      0.001 s (41.498 %)
Hessian update/contruction      :      0.000 s ( 8.732 %)
Making the step                 :      0.001 s (34.007 %)
Converting the step to Cartesian:      0.000 s ( 3.814 %)
Storing new data                :      0.000 s ( 0.597 %)
Checking convergence            :      0.000 s ( 0.689 %)
Final printing                  :      0.000 s ( 9.559 %)
Total time                      :      0.002 s

Time for energy+gradient        :      0.025 s
Time for complete geometry iter :      0.027 s

         *************************************************************
         *                GEOMETRY OPTIMIZATION CYCLE  19            *
         *************************************************************
---------------------------------
CARTESIAN COORDINATES (ANGSTROEM)
---------------------------------
  N     1.821864    0.121259    1.415951
  C     2.386888   -0.145583    0.078126
  C     1.461240    0.365182   -1.029162
  C     0.137539   -0.327662   -0.999456
  C    -0.192433   -1.513496   -1.592728
  N    -1.482277   -1.849080   -1.297125
  C    -2.023812   -0.878622   -0.508272
  C    -3.293775   -0.765639    0.045478
  C    -3.560408    0.345945    0.814763
  C    -2.591816    1.331947    1.028651
  C    -1.331041    1.226856    0.486315
  C    -1.026924    0.106539   -0.292041
  C     3.752874    0.653073    0.027880
  O     3.942296    1.366992    1.038936
  O     4.469725    0.510855   -0.963690
  H     1.831248   -0.693000    2.031427
  H     2.523129    0.849334    1.769472
  H     0.872879    0.505584    1.363881
  H     2.598005   -1.204165   -0.070839
  H     1.966630    0.200671   -1.981778
  H     1.326127    1.442498   -0.909656
  H     0.413491   -2.140267   -2.217547
  H    -1.964015   -2.664038   -1.636789
  H    -4.046538   -1.519589   -0.126484
  H    -4.537851    0.466595    1.257324
  H    -2.846220    2.192884    1.628841
  H    -0.606824    2.014926    0.638525

----------------------------
CARTESIAN COORDINATES (A.U.)
----------------------------
  NO LB    ZA    FRAG    MASS        X           Y           Z
   0 N   7.0000    0    14.007    3.442824    0.229147    2.675760
   1 C   6.0000    0    12.011    4.510565   -0.275112    0.147636
   2 C   6.0000    0    12.011    2.761343    0.690095   -1.944835
   3 C   6.0000    0    12.011    0.259911   -0.619192   -1.888699
   4 C   6.0000    0    12.011   -0.363646   -2.860094   -3.009820
   5 N   7.0000    0    14.007   -2.801098   -3.494254   -2.451212
   6 C   6.0000    0    12.011   -3.824451   -1.660355   -0.960495
   7 C   6.0000    0    12.011   -6.224333   -1.446848    0.085940
   8 C   6.0000    0    12.011   -6.728195    0.653741    1.539679
   9 C   6.0000    0    12.011   -4.897823    2.517016    1.943868
  10 C   6.0000    0    12.011   -2.515303    2.318423    0.919001
  11 C   6.0000    0    12.011   -1.940605    0.201329   -0.551877
  12 C   6.0000    0    12.011    7.091904    1.234128    0.052686
  13 O   8.0000    0    15.999    7.449860    2.583240    1.963305
  14 O   8.0000    0    15.999    8.446555    0.965377   -1.821110
  15 H   1.0000    0     1.008    3.460557   -1.309580    3.838841
  16 H   1.0000    0     1.008    4.768024    1.605009    3.343817
  17 H   1.0000    0     1.008    1.649502    0.955416    2.577361
  18 H   1.0000    0     1.008    4.909519   -2.275543   -0.133866
  19 H   1.0000    0     1.008    3.716392    0.379213   -3.745018
  20 H   1.0000    0     1.008    2.506017    2.725926   -1.719001
  21 H   1.0000    0     1.008    0.781385   -4.044518   -4.190556
  22 H   1.0000    0     1.008   -3.711451   -5.034301   -3.093083
  23 H   1.0000    0     1.008   -7.646849   -2.871606   -0.239020
  24 H   1.0000    0     1.008   -8.575296    0.881736    2.375997
  25 H   1.0000    0     1.008   -5.378577    4.143950    3.078064
  26 H   1.0000    0     1.008   -1.146732    3.807658    1.206637

      -----------------------------------------------------------      
     |                   =====================                   |     
     |                           x T B                           |     
     |                   =====================                   |     
     |                         S. Grimme                         |     
     |          Mulliken Center for Theoretical Chemistry        |     
     |                    University of Bonn                     |     
      -----------------------------------------------------------      

   * xtb version 6.7.1 (edcfbbe) compiled by 'albert@albert-system' on 2024-07-22

   xtb is free software: you can redistribute it and/or modify it under
   the terms of the GNU Lesser General Public License as published by
   the Free Software Foundation, either version 3 of the License, or
   (at your option) any later version.
   
   xtb is distributed in the hope that it will be useful,
   but WITHOUT ANY WARRANTY; without even the implied warranty of
   MERCHANTABILITY or FITNESS FOR A PARTICULAR PURPOSE.  See the
   GNU Lesser General Public License for more details.
   
   Cite this work as:
   * C. Bannwarth, E. Caldeweyher, S. Ehlert, A. Hansen, P. Pracht,
     J. Seibert, S. Spicher, S. Grimme, WIREs Comput. Mol. Sci., 2020, 11,
     e01493. DOI: 10.1002/wcms.1493
   
   for GFN2-xTB:
   * C. Bannwarth, S. Ehlert and S. Grimme., J. Chem. Theory Comput., 2019,
     15, 1652-1671. DOI: 10.1021/acs.jctc.8b01176
   for GFN1-xTB:
   * S. Grimme, C. Bannwarth, P. Shushkov, J. Chem. Theory Comput., 2017,
     13, 1989-2009. DOI: 10.1021/acs.jctc.7b00118
   for GFN0-xTB:
   * P. Pracht, E. Caldeweyher, S. Ehlert, S. Grimme, ChemRxiv, 2019, preprint.
     DOI: 10.26434/chemrxiv.8326202.v1
   for GFN-FF:
   * S. Spicher and S. Grimme, Angew. Chem. Int. Ed., 2020, 59, 15665-15673.
     DOI: 10.1002/anie.202004239
   
   for ALPB and GBSA implicit solvation:
   * S. Ehlert, M. Stahn, S. Spicher, S. Grimme, J. Chem. Theory Comput.,
     2021, 17, 4250-4261. DOI: 10.1021/acs.jctc.1c00471
   
   for ddCOSMO and CPCM-X implicit solvation:
   * M. Stahn, S. Ehlert, S. Grimme, J. Phys. Chem. A,
     2023, XX, XXXX-XXXX. DOI: 10.1021/acs.jpca.3c04382
   
   for DFT-D4:
   * E. Caldeweyher, C. Bannwarth and S. Grimme, J. Chem. Phys., 2017,
     147, 034112. DOI: 10.1063/1.4993215
   * E. Caldeweyher, S. Ehlert, A. Hansen, H. Neugebauer, S. Spicher,
     C. Bannwarth and S. Grimme, J. Chem. Phys., 2019, 150, 154122.
     DOI: 10.1063/1.5090222
   * E. Caldeweyher, J.-M. Mewes, S. Ehlert and S. Grimme, Phys. Chem. Chem. Phys.
     2020, 22, 8499-8512. DOI: 10.1039/D0CP00502A
   
   for sTDA-xTB:
   * S. Grimme and C. Bannwarth, J. Chem. Phys., 2016, 145, 054103.
     DOI: 10.1063/1.4959605
   
   in the mass-spec context:
   * V. Asgeirsson, C. Bauer and S. Grimme, Chem. Sci., 2017, 8, 4879.
     DOI: 10.1039/c7sc00601b
   * J. Koopman and S. Grimme, ACS Omega 2019, 4, 12, 15120-15133.
     DOI: 10.1021/acsomega.9b02011
   
   for metadynamics refer to:
   * S. Grimme, J. Chem. Theory Comput., 2019, 155, 2847-2862
     DOI: 10.1021/acs.jctc.9b00143
   
   for SPH calculations refer to:
   * S. Spicher and S. Grimme, J. Chem. Theory Comput., 2021, 17, 1701-1714
     DOI: 10.1021/acs.jctc.0c01306
   
   for ONIOM refer to:
   * C. Plett, A. Katbashev, S. Ehlert, S. Grimme, M. Bursch,
     Phys. Chem. Chem. Phys., 2023, 25, 17860-17868. DOI: 10.1039/D3CP02178E
   
   for DIPRO refer to:
   * J. Kohn, N. Gildemeister, S. Grimme, D. Fazzi, A. Hansen,
     J. Chem. Phys., 2023, just accepted.
   
   for PTB refer to:
   * S. Grimme, M. Mueller, A. Hansen, J. Chem. Phys., 2023, 158, 124111.
     DOI: 10.1063/5.0137838
   
   with help from (in alphabetical order)
   P. Atkinson, C. Bannwarth, F. Bohle, G. Brandenburg, E. Caldeweyher
   M. Checinski, S. Dohm, S. Ehlert, S. Ehrlich, I. Gerasimov, C. Hölzer
   A. Katbashev, J. Kohn, J. Koopman, C. Lavigne, S. Lehtola, F. März, M. Müller,
   F. Musil, H. Neugebauer, J. Pisarek, C. Plett, P. Pracht, F. Pultar,
   J. Seibert, P. Shushkov, S. Spicher, M. Stahn, M. Steiner, T. Strunk,
   J. Stückrath, T. Rose, and J. Unsleber
   
 * started run on 2026/04/09 at 18:40:48.843     
   ID    Z sym.   atoms
    1    7 N      1, 6
    2    6 C      2-5, 7-13
    3    8 O      14, 15
    4    1 H      16-27

           -------------------------------------------------
          |                Calculation Setup                |
           -------------------------------------------------

          program call               : /home/analima/Programs/orca-6.1.0-f.0_linux_x86-64/bin/otool_xtb geo_opt_XTB.xyz --grad -c 0 -u 0 -P 1 --namespace geo_opt --input geo_opt_XTB.input.tmp --alpb WATER --acc 0.200000
          calculation namespace      : geo_opt
          coordinate file            : geo_opt_XTB.xyz
          omp threads                :                     1


           -------------------------------------------------
          |                 G F N 2 - x T B                 |
           -------------------------------------------------

        Reference                      10.1021/acs.jctc.8b01176
      * Hamiltonian:
        H0-scaling (s, p, d)           1.850000    2.230000    2.230000
        zeta-weighting                 0.500000
      * Dispersion:
        s8                             2.700000
        a1                             0.520000
        a2                             5.000000
        s9                             5.000000
      * Repulsion:
        kExp                           1.500000    1.000000
        rExp                           1.000000
      * Coulomb:
        alpha                          2.000000
        third order                    shell-resolved
        anisotropic                    true
        a3                             3.000000
        a5                             4.000000
        cn-shift                       1.200000
        cn-exp                         4.000000
        max-rad                        5.000000

      * Solvation model:               ALPB
        Solvent                        WATER
        Parameter file                 internal GFN2-xTB/ALPB
        Dielectric constant                8.0200E+01
        Reference state                gsolv [1 M gas/solution]
        Free energy shift                  1.0808E-03 Eh       6.7819E-01 kcal/mol
        Temperature                        2.9815E+02 K
        Density                            1.0000E+00 kg/L
        Solvent mass                       1.8000E+01 g/mol
        Interaction kernel             P16
        Born radius scaling (c1)           1.4744E+00
        Born radii integrator          GBOBC
        Born offset                        0.0000E+00 a0       0.0000E+00 AA
        H-bond correction              true
        Ion screening                  false
        Surface tension                    1.0000E-05 Eh       1.5569E+01 dyn/cm
        Grid points                               230 per atom
q/qsh data taken from xtbrestart
CAMM data taken from xtbrestart

          ...................................................
          :                      SETUP                      :
          :.................................................:
          :  # basis functions                  72          :
          :  # atomic orbitals                  72          :
          :  # shells                           42          :
          :  # electrons                        78          :
          :  max. iterations                   250          :
          :  Hamiltonian                  GFN2-xTB          :
          :  restarted?                       true          :
          :  GBSA solvation                   true          :
          :  PC potential                    false          :
          :  electronic temp.          300.0000000     K    :
          :  accuracy                    0.2000000          :
          :  -> integral cutoff          0.3198970E+02      :
          :  -> integral neglect         0.2000000E-08      :
          :  -> SCF convergence          0.2000000E-06 Eh   :
          :  -> wf. convergence          0.2000000E-04 e    :
          :  Broyden damping             0.4000000          :
          :  net charge                          0          :
          :  unpaired electrons                  0          :
          ...................................................

 iter      E             dE          RMSdq      gap      omega  full diag
   1    -44.3017269 -0.443017E+02  0.103E-01    3.54       0.0  T
   2    -44.3017299 -0.298125E-05  0.603E-02    3.54       1.0  T
   3    -44.3017261  0.377500E-05  0.147E-02    3.54       1.3  T
   4    -44.3017313 -0.520831E-05  0.306E-03    3.54       6.3  T
   5    -44.3017314 -0.324358E-07  0.166E-03    3.54      11.6  T
   6    -44.3017314 -0.115095E-07  0.692E-04    3.54      27.8  T
   7    -44.3017314 -0.244910E-08  0.177E-04    3.54     108.8  T
   8    -44.3017314 -0.251283E-09  0.829E-05    3.54     232.0  T

   *** convergence criteria satisfied after 8 iterations ***

         #    Occupation            Energy/Eh            Energy/eV
      -------------------------------------------------------------
         1        2.0000           -0.6973207             -18.9751
       ...           ...                  ...                  ...
        33        2.0000           -0.4191619             -11.4060
        34        2.0000           -0.4181572             -11.3786
        35        2.0000           -0.4169947             -11.3470
        36        2.0000           -0.4066012             -11.0642
        37        2.0000           -0.3833981             -10.4328
        38        2.0000           -0.3820073             -10.3949
        39        2.0000           -0.3632689              -9.8850 (HOMO)
        40                         -0.2330238              -6.3409 (LUMO)
        41                         -0.1993689              -5.4251
        42                         -0.1897404              -5.1631
        43                         -0.1585857              -4.3153
        44                         -0.0747187              -2.0332
       ...                                ...                  ...
        72                          0.7135861              19.4177
      -------------------------------------------------------------
                  HL-Gap            0.1302451 Eh            3.5441 eV
             Fermi-level           -0.2981463 Eh           -8.1130 eV

 SCC (total)                   0 d,  0 h,  0 min,  0.017 sec
 SCC setup                      ...        0 min,  0.001 sec (  3.050%)
 Dispersion                     ...        0 min,  0.000 sec (  0.966%)
 classical contributions        ...        0 min,  0.000 sec (  0.186%)
 integral evaluation            ...        0 min,  0.003 sec ( 16.754%)
 iterations                     ...        0 min,  0.008 sec ( 46.942%)
 molecular gradient             ...        0 min,  0.005 sec ( 31.650%)
 printout                       ...        0 min,  0.000 sec (  0.373%)

         :::::::::::::::::::::::::::::::::::::::::::::::::::::
         ::                     SUMMARY                     ::
         :::::::::::::::::::::::::::::::::::::::::::::::::::::
         :: total energy             -43.682768435145 Eh    ::
         :: total w/o Gsasa/hb       -43.674996294308 Eh    ::
         :: gradient norm              0.001655881197 Eh/a0 ::
         :: HOMO-LUMO gap              3.544149906342 eV    ::
         ::.................................................::
         :: SCC energy               -44.301566489775 Eh    ::
         :: -> isotropic ES            0.165720521617 Eh    ::
         :: -> anisotropic ES         -0.010019149577 Eh    ::
         :: -> anisotropic XC          0.016230835337 Eh    ::
         :: -> dispersion             -0.026302775734 Eh    ::
         :: -> Gsolv                  -0.063989747925 Eh    ::
         ::    -> Gelec               -0.056217607087 Eh    ::
         ::    -> Gsasa                0.001739429680 Eh    ::
         ::    -> Ghb                 -0.010592330216 Eh    ::
         ::    -> Gshift               0.001080759698 Eh    ::
         :: repulsion energy           0.618798054629 Eh    ::
         :: add. restraining           0.000000000000 Eh    ::
         :: total charge              -0.000000000000 e     ::
         :::::::::::::::::::::::::::::::::::::::::::::::::::::


Property printout bound to 'properties.out'

           -------------------------------------------------
          | TOTAL ENERGY              -43.682768435145 Eh   |
          | GRADIENT NORM               0.001655881197 Eh/α |
          | HOMO-LUMO GAP               3.544149906342 eV   |
           -------------------------------------------------

------------------------------------------------------------------------
 * finished run on 2026/04/09 at 18:40:48.867     
------------------------------------------------------------------------
 total:
 * wall-time:     0 d,  0 h,  0 min,  0.023 sec
 *  cpu-time:     0 d,  0 h,  0 min,  0.022 sec
 * ratio c/w:     0.932 speedup
 SCF:
 * wall-time:     0 d,  0 h,  0 min,  0.017 sec
 *  cpu-time:     0 d,  0 h,  0 min,  0.016 sec
 * ratio c/w:     0.916 speedup


-------------------------   --------------------
FINAL SINGLE POINT ENERGY       -43.682768435150
-------------------------   --------------------


-------------
DIPOLE MOMENT
-------------
                                X             Y             Z
Total Dipole Moment    :     -4.67200      -2.55300       1.57100
                        -----------------------------------------
Magnitude (a.u.)       :      5.55098
Magnitude (Debye)      :     14.10948


------------------
CARTESIAN GRADIENT
------------------

   1   N   :   -0.000199507    0.000360162   -0.000627416
   2   C   :   -0.000159702    0.000044235    0.000575930
   3   C   :    0.000130662   -0.000278283    0.000153011
   4   C   :    0.000003255    0.000132836   -0.000162953
   5   C   :   -0.000103089   -0.000083683    0.000216480
   6   N   :    0.000212898   -0.000127690    0.000049856
   7   C   :   -0.000175912    0.000183835    0.000128618
   8   C   :   -0.000013828   -0.000033579    0.000063278
   9   C   :    0.000067796   -0.000073863   -0.000078462
  10   C   :    0.000024747    0.000037678    0.000044396
  11   C   :    0.000093661   -0.000061134   -0.000128388
  12   C   :    0.000041309    0.000149266   -0.000156587
  13   C   :    0.000093407   -0.000080458   -0.000862139
  14   O   :   -0.000234914    0.000048731    0.000449203
  15   O   :   -0.000074095    0.000023407    0.000193722
  16   H   :   -0.000017718   -0.000015579    0.000029362
  17   H   :    0.000345002   -0.000163710   -0.000035463
  18   H   :    0.000009304   -0.000205947    0.000070546
  19   H   :    0.000013939   -0.000016351    0.000099145
  20   H   :    0.000032639    0.000169003   -0.000034277
  21   H   :    0.000007492    0.000058532    0.000076936
  22   H   :   -0.000000351    0.000018677   -0.000027820
  23   H   :   -0.000043051    0.000027196   -0.000062145
  24   H   :    0.000008924    0.000016109   -0.000031897
  25   H   :   -0.000025512    0.000001931   -0.000007772
  26   H   :    0.000003170    0.000012447   -0.000002636
  27   H   :   -0.000040529   -0.000143765    0.000067474

Difference to translation invariance:
           :   -0.0000000000    0.0000000000   -0.0000000000

Difference to rotation invariance:
           :    0.0001701893   -0.0005386093   -0.0001756798

Norm of the Cartesian gradient     ...    0.0016558812
RMS gradient                       ...    0.0001839868
MAX gradient                       ...    0.0008621392
------------------------------------------------------------------------------
                         ORCA GEOMETRY RELAXATION STEP
------------------------------------------------------------------------------

Reading the OPT-File                    .... done
Getting information on internals        .... done
Copying old internal coords+grads       .... done
Making the new internal coordinates     .... (2022 redundants) done
Validating the new internal coordinates .... (2022 redundants) done
Calculating the B-matrix                .... done
Calculating the G,G- and P matrices     .... done
Transforming gradient to internals      .... done
Projecting the internal gradient        .... done
Number of atoms                         ....  27
Number of internal coordinates          .... 138
Current Energy                          ....   -43.682768435 Eh
Current gradient norm                   ....     0.001655881 Eh/bohr
Maximum allowed component of the step   ....  0.300
Current trust radius                    ....  0.700
Updating the Hessian (BFGS)             .... done
Forming the augmented Hessian           .... done
Diagonalizing the augmented Hessian     .... done
Last element of RFO vector              ....  0.997579309
Lowest eigenvalues of augmented Hessian:
 -0.000014791  0.001167355  0.011529999  0.013445939  0.017529049
Length of the computed step             ....  0.069706664
The final length of the internal step   ....  0.069706664
Converting the step to Cartesian space:
 Initial RMS(Int)=    0.0059338253
Transforming coordinates:
 Iter   0:  RMS(Cart)=    0.0111660284 RMS(Int)=    0.5347583510
done
Storing new coordinates                 .... done
The predicted energy change is          ....    -0.000007431
Previously predicted energy change      ....    -0.000048428
Actually observed energy change         ....    -0.000053965
Ratio of predicted to observed change   ....     1.114332295
New trust radius                        ....     0.700000000

                                .--------------------.
          ----------------------|Geometry convergence|-------------------------
          Item                value                   Tolerance       Converged
          ---------------------------------------------------------------------
          Energy change      -0.0000539647            0.0000050000      NO
          RMS gradient        0.0001158571            0.0001000000      NO
          MAX gradient        0.0005925027            0.0003000000      NO
          RMS step            0.0059338253            0.0020000000      NO
          MAX step            0.0231700949            0.0040000000      NO
          -------------------------------------------------------------------------
          ........................................................
          Max(Bonds)      0.0007      Max(Angles)    0.11
          Max(Dihed)        1.33      Max(Improp)    0.00
          ---------------------------------------------------------------------

The optimization has not yet converged - more geometry cycles are needed


    ---------------------------------------------------------------------------
                         Redundant Internal Coordinates
                            (Angstroem and degrees)

        Definition                    Value    dE/dq     Step     New-Value
    ----------------------------------------------------------------------------
     1. B(C   1,N   0)                1.4766 -0.000578  0.0001    1.4767   
     2. B(C   2,C   1)                1.5309 -0.000239  0.0005    1.5314   
     3. B(C   3,C   2)                1.4944 -0.000064  0.0000    1.4944   
     4. B(C   4,C   3)                1.3664 -0.000003  0.0001    1.3665   
     5. B(N   5,C   4)                1.3652 -0.000056 -0.0001    1.3651   
     6. B(C   6,N   5)                1.3628  0.000112 -0.0001    1.3628   
     7. B(C   7,C   6)                1.3900 -0.000057  0.0000    1.3901   
     8. B(C   8,C   7)                1.3779 -0.000072  0.0000    1.3779   
     9. B(C   9,C   8)                1.3986  0.000037 -0.0000    1.3986   
    10. B(C  10,C   9)                1.3765 -0.000006  0.0000    1.3765   
    11. B(C  11,C  10)                1.3977 -0.000191  0.0002    1.3978   
    12. B(C  11,C   6)                1.4181 -0.000026  0.0001    1.4182   
    13. B(C  11,C   3)                1.4300 -0.000119  0.0000    1.4301   
    14. B(C  12,C   1)                1.5831 -0.000180 -0.0002    1.5829   
    15. B(O  13,C  12)                1.2521  0.000352 -0.0001    1.2520   
    16. B(O  14,C  12)                1.2318 -0.000198  0.0002    1.2320   
    17. B(H  15,N   0)                1.0207  0.000026  0.0000    1.0208   
    18. B(H  16,N   0)                1.0709  0.000105 -0.0007    1.0702   
    19. B(H  17,N   0)                1.0252 -0.000090  0.0004    1.0255   
    20. B(H  18,C   1)                1.0897  0.000004  0.0001    1.0897   
    21. B(H  19,C   2)                1.0909  0.000021 -0.0001    1.0908   
    22. B(H  20,C   2)                1.0923  0.000065 -0.0001    1.0923   
    23. B(H  21,C   4)                1.0726  0.000004 -0.0000    1.0726   
    24. B(H  22,N   5)                1.0058  0.000020 -0.0000    1.0058   
    25. B(H  23,C   7)                1.0792 -0.000012 -0.0000    1.0792   
    26. B(H  24,C   8)                1.0797  0.000021 -0.0000    1.0797   
    27. B(H  25,C   9)                1.0799  0.000008 -0.0000    1.0798   
    28. B(H  26,C  10)                1.0811 -0.000123  0.0002    1.0812   
    29. A(H  16,N   0,H  17)          111.60  0.000267   -0.05    111.55   
    30. A(H  15,N   0,H  17)          109.77 -0.000086    0.06    109.82   
    31. A(H  15,N   0,H  16)          109.71 -0.000008   -0.09    109.62   
    32. A(C   1,N   0,H  15)          113.49 -0.000016   -0.00    113.49   
    33. A(C   1,N   0,H  16)           99.87 -0.000319    0.11     99.98   
    34. A(C   1,N   0,H  17)          112.08  0.000160   -0.03    112.06   
    35. A(C   2,C   1,C  12)          109.29 -0.000071    0.02    109.32   
    36. A(C   2,C   1,H  18)          110.02  0.000107   -0.08    109.94   
    37. A(N   0,C   1,C   2)          111.32  0.000059   -0.05    111.28   
    38. A(N   0,C   1,C  12)          105.53 -0.000147    0.06    105.59   
    39. A(N   0,C   1,H  18)          111.94 -0.000016    0.01    111.94   
    40. A(C  12,C   1,H  18)          108.58  0.000056    0.02    108.60   
    41. A(C   1,C   2,C   3)          111.50 -0.000053    0.01    111.51   
    42. A(H  19,C   2,H  20)          107.55 -0.000020    0.04    107.59   
    43. A(C   3,C   2,H  20)          110.21 -0.000021   -0.01    110.20   
    44. A(C   3,C   2,H  19)          110.97  0.000094   -0.05    110.91   
    45. A(C   1,C   2,H  20)          108.95 -0.000052    0.04    108.99   
    46. A(C   1,C   2,H  19)          107.53  0.000052   -0.02    107.51   
    47. A(C   2,C   3,C   4)          127.42  0.000222   -0.04    127.38   
    48. A(C   2,C   3,C  11)          126.18 -0.000204    0.05    126.23   
    49. A(C   4,C   3,C  11)          106.36 -0.000019   -0.00    106.36   
    50. A(N   5,C   4,H  21)          121.08 -0.000002   -0.01    121.07   
    51. A(C   3,C   4,H  21)          128.58 -0.000016    0.01    128.59   
    52. A(C   3,C   4,N   5)          110.33  0.000019    0.00    110.33   
    53. A(C   6,N   5,H  22)          125.60 -0.000014    0.00    125.61   
    54. A(C   4,N   5,H  22)          125.35  0.000015   -0.01    125.35   
    55. A(C   4,N   5,C   6)          109.01 -0.000002    0.00    109.01   
    56. A(C   7,C   6,C  11)          121.67  0.000062   -0.01    121.66   
    57. A(N   5,C   6,C  11)          107.67 -0.000083    0.00    107.68   
    58. A(N   5,C   6,C   7)          130.65  0.000021    0.01    130.66   
    59. A(C   6,C   7,C   8)          117.70 -0.000056    0.01    117.70   
    60. A(C   8,C   7,H  23)          121.17  0.000042   -0.01    121.16   
    61. A(C   6,C   7,H  23)          121.13  0.000015    0.00    121.13   
    62. A(C   9,C   8,H  24)          119.04  0.000001   -0.01    119.03   
    63. A(C   7,C   8,H  24)          119.62 -0.000014    0.00    119.62   
    64. A(C   7,C   8,C   9)          121.34  0.000013    0.01    121.35   
    65. A(C  10,C   9,H  25)          119.71  0.000006    0.00    119.71   
    66. A(C   8,C   9,H  25)          118.94  0.000023    0.01    118.95   
    67. A(C   8,C   9,C  10)          121.35 -0.000030   -0.01    121.34   
    68. A(C   9,C  10,C  11)          118.68  0.000025    0.01    118.69   
    69. A(C  11,C  10,H  26)          121.13 -0.000021   -0.00    121.13   
    70. A(C   9,C  10,H  26)          120.16 -0.000003   -0.00    120.16   
    71. A(C   3,C  11,C   6)          106.62  0.000085   -0.01    106.62   
    72. A(C   6,C  11,C  10)          119.26 -0.000014   -0.00    119.26   
    73. A(C   3,C  11,C  10)          134.11 -0.000071    0.00    134.12   
    74. A(O  13,C  12,O  14)          128.89  0.000251   -0.06    128.83   
    75. A(C   1,C  12,O  14)          118.00  0.000341   -0.04    117.96   
    76. A(C   1,C  12,O  13)          113.11 -0.000593    0.11    113.23   
    77. D(C   2,C   1,N   0,H  16)   -112.12 -0.000107    1.23   -110.89   
    78. D(C  12,C   1,N   0,H  16)      6.35 -0.000249    1.30      7.65   
    79. D(C   2,C   1,N   0,H  17)      6.16  0.000091    1.22      7.38   
    80. D(C  12,C   1,N   0,H  17)    124.63 -0.000050    1.29    125.92   
    81. D(C  12,C   1,N   0,H  15)   -110.32 -0.000049    1.33   -109.00   
    82. D(C   2,C   1,N   0,H  15)    131.21  0.000092    1.25    132.46   
    83. D(H  19,C   2,C   1,H  18)    -59.20 -0.000049    0.08    -59.12   
    84. D(C   3,C   2,C   1,H  18)     62.65  0.000069    0.00     62.66   
    85. D(H  19,C   2,C   1,C  12)     59.93  0.000040    0.09     60.02   
    86. D(C   3,C   2,C   1,C  12)   -178.21  0.000159    0.01   -178.21   
    87. D(C   3,C   2,C   1,N   0)    -62.03 -0.000029    0.09    -61.94   
    88. D(H  19,C   2,C   1,N   0)    176.12 -0.000148    0.17    176.29   
    89. D(C   4,C   3,C   2,H  20)    152.92  0.000106   -0.43    152.50   
    90. D(C   4,C   3,C   2,H  19)     33.89  0.000085   -0.44     33.46   
    91. D(C   4,C   3,C   2,C   1)    -85.95 -0.000009   -0.37    -86.32   
    92. D(C  11,C   3,C   2,H  19)   -148.67  0.000043   -0.28   -148.95   
    93. D(C  11,C   3,C   2,C   1)     91.49 -0.000052   -0.22     91.26   
    94. D(H  21,C   4,C   3,C  11)    179.24 -0.000006   -0.02    179.22   
    95. D(H  21,C   4,C   3,C   2)     -2.92 -0.000047    0.09     -2.82   
    96. D(N   5,C   4,C   3,C  11)     -0.26  0.000013   -0.04     -0.30   
    97. D(N   5,C   4,C   3,C   2)    177.58 -0.000028    0.08    177.66   
    98. D(H  22,N   5,C   4,H  21)     -1.29 -0.000016    0.08     -1.21   
    99. D(H  22,N   5,C   4,C   3)    178.26 -0.000034    0.10    178.36   
   100. D(C   6,N   5,C   4,H  21)   -179.15  0.000012   -0.00   -179.15   
   101. D(C   6,N   5,C   4,C   3)      0.40 -0.000006    0.02      0.42   
   102. D(C  11,C   6,N   5,H  22)   -178.22  0.000023   -0.06   -178.28   
   103. D(C  11,C   6,N   5,C   4)     -0.37 -0.000004    0.02     -0.35   
   104. D(C   7,C   6,N   5,C   4)    179.89  0.000009   -0.04    179.85   
   105. D(C   7,C   6,N   5,H  22)      2.03  0.000037   -0.12      1.92   
   106. D(C   8,C   7,C   6,C  11)      0.24 -0.000012    0.04      0.28   
   107. D(C   8,C   7,C   6,N   5)    179.96 -0.000027    0.09    180.05   
   108. D(H  23,C   7,C   6,C  11)    179.87 -0.000018    0.05    179.92   
   109. D(H  23,C   7,C   6,N   5)     -0.42 -0.000033    0.11     -0.31   
   110. D(H  24,C   8,C   7,H  23)      0.18  0.000003   -0.02      0.16   
   111. D(H  24,C   8,C   7,C   6)    179.81 -0.000003   -0.01    179.80   
   112. D(C   9,C   8,C   7,H  23)   -179.34 -0.000012    0.02   -179.32   
   113. D(C   9,C   8,C   7,C   6)      0.29 -0.000018    0.03      0.32   
   114. D(H  25,C   9,C   8,H  24)     -0.23  0.000010   -0.02     -0.24   
   115. D(H  25,C   9,C   8,C   7)    179.30  0.000025   -0.06    179.24   
   116. D(C  10,C   9,C   8,H  24)   -179.95  0.000007   -0.01   -179.96   
   117. D(C  10,C   9,C   8,C   7)     -0.43  0.000022   -0.05     -0.47   
   118. D(H  26,C  10,C   9,H  25)     -1.61  0.000043   -0.07     -1.68   
   119. D(H  26,C  10,C   9,C   8)    178.11  0.000046   -0.08    178.03   
   120. D(C  11,C  10,C   9,H  25)   -179.71  0.000001    0.01   -179.70   
   121. D(C  11,C  10,C   9,C   8)      0.01  0.000003    0.00      0.01   
   122. D(C   6,C  11,C  10,H  26)   -177.57 -0.000076    0.13   -177.44   
   123. D(C   6,C  11,C  10,C   9)      0.50 -0.000032    0.06      0.56   
   124. D(C   3,C  11,C  10,C   9)    179.67  0.000018   -0.04    179.63   
   125. D(C  10,C  11,C   6,C   7)     -0.65  0.000037   -0.08     -0.72   
   126. D(C  10,C  11,C   6,N   5)    179.58  0.000049   -0.12    179.46   
   127. D(C   3,C  11,C   6,C   7)    179.98  0.000000    0.00    179.98   
   128. D(C   3,C  11,C   6,N   5)      0.20  0.000012   -0.04      0.16   
   129. D(C  10,C  11,C   3,C   4)   -179.21 -0.000062    0.15   -179.06   
   130. D(C   3,C  11,C  10,H  26)      1.60 -0.000025    0.03      1.63   
   131. D(C  10,C  11,C   3,C   2)      2.91 -0.000033    0.02      2.93   
   132. D(C   6,C  11,C   3,C   4)      0.03 -0.000016    0.05      0.09   
   133. D(C   6,C  11,C   3,C   2)   -177.84  0.000013   -0.08   -177.92   
   134. D(O  14,C  12,C   1,C   2)    -65.40 -0.000054   -0.99    -66.38   
   135. D(O  14,C  12,C   1,N   0)    174.79 -0.000004   -1.00    173.79   
   136. D(O  13,C  12,C   1,H  18)   -125.80  0.000101   -1.09   -126.89   
   137. D(O  13,C  12,C   1,C   2)    114.18 -0.000020   -1.03    113.15   
   138. D(O  13,C  12,C   1,N   0)     -5.63  0.000030   -1.05     -6.68   
    ----------------------------------------------------------------------------

Geometry step timings:
Preparation and reading OPT file:      0.000 s ( 0.506 %)
Internal coordinates            :      0.000 s ( 0.597 %)
B/P matrices and projection     :      0.001 s (41.314 %)
Hessian update/contruction      :      0.000 s ( 9.053 %)
Making the step                 :      0.001 s (34.053 %)
Converting the step to Cartesian:      0.000 s ( 3.447 %)
Storing new data                :      0.000 s ( 0.597 %)
Checking convergence            :      0.000 s ( 0.689 %)
Final printing                  :      0.000 s ( 9.697 %)
Total time                      :      0.002 s

Time for energy+gradient        :      0.028 s
Time for complete geometry iter :      0.030 s

         *************************************************************
         *                GEOMETRY OPTIMIZATION CYCLE  20            *
         *************************************************************
---------------------------------
CARTESIAN COORDINATES (ANGSTROEM)
---------------------------------
  N     1.819733    0.122910    1.416116
  C     2.387227   -0.145763    0.079571
  C     1.462426    0.363623   -1.029694
  C     0.137995   -0.327907   -0.999483
  C    -0.193781   -1.511285   -1.596765
  N    -1.483744   -1.846425   -1.301473
  C    -2.023759   -0.878065   -0.509138
  C    -3.293454   -0.765095    0.045321
  C    -3.558973    0.345096    0.817014
  C    -2.589904    1.330254    1.032316
  C    -1.329266    1.225089    0.489623
  C    -1.025850    0.105617   -0.290541
  C     3.754084    0.651037    0.029432
  O     3.935790    1.382873    1.028855
  O     4.480038    0.491241   -0.953094
  H     1.846902   -0.684880    2.039573
  H     2.505737    0.867646    1.762649
  H     0.863002    0.488211    1.361877
  H     2.596672   -1.204870   -0.068397
  H     1.967939    0.195216   -1.981492
  H     1.328044    1.441319   -0.913399
  H     0.410931   -2.136774   -2.224035
  H    -1.966143   -2.660359   -1.642637
  H    -4.046887   -1.518112   -0.127728
  H    -4.536231    0.465678    1.259996
  H    -2.843688    2.190529    1.633643
  H    -0.604840    2.013197    0.641889

----------------------------
CARTESIAN COORDINATES (A.U.)
----------------------------
  NO LB    ZA    FRAG    MASS        X           Y           Z
   0 N   7.0000    0    14.007    3.438796    0.232266    2.676072
   1 C   6.0000    0    12.011    4.511205   -0.275453    0.150368
   2 C   6.0000    0    12.011    2.763585    0.687149   -1.945840
   3 C   6.0000    0    12.011    0.260774   -0.619655   -1.888750
   4 C   6.0000    0    12.011   -0.366194   -2.855915   -3.017448
   5 N   7.0000    0    14.007   -2.803870   -3.489238   -2.459428
   6 C   6.0000    0    12.011   -3.824351   -1.659302   -0.962131
   7 C   6.0000    0    12.011   -6.223726   -1.445820    0.085644
   8 C   6.0000    0    12.011   -6.725485    0.652136    1.543932
   9 C   6.0000    0    12.011   -4.894209    2.513816    1.950795
  10 C   6.0000    0    12.011   -2.511948    2.315083    0.925253
  11 C   6.0000    0    12.011   -1.938575    0.199588   -0.549042
  12 C   6.0000    0    12.011    7.094190    1.230282    0.055618
  13 O   8.0000    0    15.999    7.437565    2.613251    1.944255
  14 O   8.0000    0    15.999    8.466045    0.928312   -1.801087
  15 H   1.0000    0     1.008    3.490139   -1.294236    3.854235
  16 H   1.0000    0     1.008    4.735157    1.639613    3.330924
  17 H   1.0000    0     1.008    1.630837    0.922586    2.573574
  18 H   1.0000    0     1.008    4.906999   -2.276875   -0.129252
  19 H   1.0000    0     1.008    3.718866    0.368905   -3.744478
  20 H   1.0000    0     1.008    2.509639    2.723698   -1.726075
  21 H   1.0000    0     1.008    0.776547   -4.037917   -4.202817
  22 H   1.0000    0     1.008   -3.715471   -5.027350   -3.104133
  23 H   1.0000    0     1.008   -7.647508   -2.868816   -0.241371
  24 H   1.0000    0     1.008   -8.572234    0.880003    2.381048
  25 H   1.0000    0     1.008   -5.373791    4.139500    3.087139
  26 H   1.0000    0     1.008   -1.142982    3.804391    1.212995

      -----------------------------------------------------------      
     |                   =====================                   |     
     |                           x T B                           |     
     |                   =====================                   |     
     |                         S. Grimme                         |     
     |          Mulliken Center for Theoretical Chemistry        |     
     |                    University of Bonn                     |     
      -----------------------------------------------------------      

   * xtb version 6.7.1 (edcfbbe) compiled by 'albert@albert-system' on 2024-07-22

   xtb is free software: you can redistribute it and/or modify it under
   the terms of the GNU Lesser General Public License as published by
   the Free Software Foundation, either version 3 of the License, or
   (at your option) any later version.
   
   xtb is distributed in the hope that it will be useful,
   but WITHOUT ANY WARRANTY; without even the implied warranty of
   MERCHANTABILITY or FITNESS FOR A PARTICULAR PURPOSE.  See the
   GNU Lesser General Public License for more details.
   
   Cite this work as:
   * C. Bannwarth, E. Caldeweyher, S. Ehlert, A. Hansen, P. Pracht,
     J. Seibert, S. Spicher, S. Grimme, WIREs Comput. Mol. Sci., 2020, 11,
     e01493. DOI: 10.1002/wcms.1493
   
   for GFN2-xTB:
   * C. Bannwarth, S. Ehlert and S. Grimme., J. Chem. Theory Comput., 2019,
     15, 1652-1671. DOI: 10.1021/acs.jctc.8b01176
   for GFN1-xTB:
   * S. Grimme, C. Bannwarth, P. Shushkov, J. Chem. Theory Comput., 2017,
     13, 1989-2009. DOI: 10.1021/acs.jctc.7b00118
   for GFN0-xTB:
   * P. Pracht, E. Caldeweyher, S. Ehlert, S. Grimme, ChemRxiv, 2019, preprint.
     DOI: 10.26434/chemrxiv.8326202.v1
   for GFN-FF:
   * S. Spicher and S. Grimme, Angew. Chem. Int. Ed., 2020, 59, 15665-15673.
     DOI: 10.1002/anie.202004239
   
   for ALPB and GBSA implicit solvation:
   * S. Ehlert, M. Stahn, S. Spicher, S. Grimme, J. Chem. Theory Comput.,
     2021, 17, 4250-4261. DOI: 10.1021/acs.jctc.1c00471
   
   for ddCOSMO and CPCM-X implicit solvation:
   * M. Stahn, S. Ehlert, S. Grimme, J. Phys. Chem. A,
     2023, XX, XXXX-XXXX. DOI: 10.1021/acs.jpca.3c04382
   
   for DFT-D4:
   * E. Caldeweyher, C. Bannwarth and S. Grimme, J. Chem. Phys., 2017,
     147, 034112. DOI: 10.1063/1.4993215
   * E. Caldeweyher, S. Ehlert, A. Hansen, H. Neugebauer, S. Spicher,
     C. Bannwarth and S. Grimme, J. Chem. Phys., 2019, 150, 154122.
     DOI: 10.1063/1.5090222
   * E. Caldeweyher, J.-M. Mewes, S. Ehlert and S. Grimme, Phys. Chem. Chem. Phys.
     2020, 22, 8499-8512. DOI: 10.1039/D0CP00502A
   
   for sTDA-xTB:
   * S. Grimme and C. Bannwarth, J. Chem. Phys., 2016, 145, 054103.
     DOI: 10.1063/1.4959605
   
   in the mass-spec context:
   * V. Asgeirsson, C. Bauer and S. Grimme, Chem. Sci., 2017, 8, 4879.
     DOI: 10.1039/c7sc00601b
   * J. Koopman and S. Grimme, ACS Omega 2019, 4, 12, 15120-15133.
     DOI: 10.1021/acsomega.9b02011
   
   for metadynamics refer to:
   * S. Grimme, J. Chem. Theory Comput., 2019, 155, 2847-2862
     DOI: 10.1021/acs.jctc.9b00143
   
   for SPH calculations refer to:
   * S. Spicher and S. Grimme, J. Chem. Theory Comput., 2021, 17, 1701-1714
     DOI: 10.1021/acs.jctc.0c01306
   
   for ONIOM refer to:
   * C. Plett, A. Katbashev, S. Ehlert, S. Grimme, M. Bursch,
     Phys. Chem. Chem. Phys., 2023, 25, 17860-17868. DOI: 10.1039/D3CP02178E
   
   for DIPRO refer to:
   * J. Kohn, N. Gildemeister, S. Grimme, D. Fazzi, A. Hansen,
     J. Chem. Phys., 2023, just accepted.
   
   for PTB refer to:
   * S. Grimme, M. Mueller, A. Hansen, J. Chem. Phys., 2023, 158, 124111.
     DOI: 10.1063/5.0137838
   
   with help from (in alphabetical order)
   P. Atkinson, C. Bannwarth, F. Bohle, G. Brandenburg, E. Caldeweyher
   M. Checinski, S. Dohm, S. Ehlert, S. Ehrlich, I. Gerasimov, C. Hölzer
   A. Katbashev, J. Kohn, J. Koopman, C. Lavigne, S. Lehtola, F. März, M. Müller,
   F. Musil, H. Neugebauer, J. Pisarek, C. Plett, P. Pracht, F. Pultar,
   J. Seibert, P. Shushkov, S. Spicher, M. Stahn, M. Steiner, T. Strunk,
   J. Stückrath, T. Rose, and J. Unsleber
   
 * started run on 2026/04/09 at 18:40:48.874     
   ID    Z sym.   atoms
    1    7 N      1, 6
    2    6 C      2-5, 7-13
    3    8 O      14, 15
    4    1 H      16-27

           -------------------------------------------------
          |                Calculation Setup                |
           -------------------------------------------------

          program call               : /home/analima/Programs/orca-6.1.0-f.0_linux_x86-64/bin/otool_xtb geo_opt_XTB.xyz --grad -c 0 -u 0 -P 1 --namespace geo_opt --input geo_opt_XTB.input.tmp --alpb WATER --acc 0.200000
          calculation namespace      : geo_opt
          coordinate file            : geo_opt_XTB.xyz
          omp threads                :                     1


           -------------------------------------------------
          |                 G F N 2 - x T B                 |
           -------------------------------------------------

        Reference                      10.1021/acs.jctc.8b01176
      * Hamiltonian:
        H0-scaling (s, p, d)           1.850000    2.230000    2.230000
        zeta-weighting                 0.500000
      * Dispersion:
        s8                             2.700000
        a1                             0.520000
        a2                             5.000000
        s9                             5.000000
      * Repulsion:
        kExp                           1.500000    1.000000
        rExp                           1.000000
      * Coulomb:
        alpha                          2.000000
        third order                    shell-resolved
        anisotropic                    true
        a3                             3.000000
        a5                             4.000000
        cn-shift                       1.200000
        cn-exp                         4.000000
        max-rad                        5.000000

      * Solvation model:               ALPB
        Solvent                        WATER
        Parameter file                 internal GFN2-xTB/ALPB
        Dielectric constant                8.0200E+01
        Reference state                gsolv [1 M gas/solution]
        Free energy shift                  1.0808E-03 Eh       6.7819E-01 kcal/mol
        Temperature                        2.9815E+02 K
        Density                            1.0000E+00 kg/L
        Solvent mass                       1.8000E+01 g/mol
        Interaction kernel             P16
        Born radius scaling (c1)           1.4744E+00
        Born radii integrator          GBOBC
        Born offset                        0.0000E+00 a0       0.0000E+00 AA
        H-bond correction              true
        Ion screening                  false
        Surface tension                    1.0000E-05 Eh       1.5569E+01 dyn/cm
        Grid points                               230 per atom
q/qsh data taken from xtbrestart
CAMM data taken from xtbrestart

          ...................................................
          :                      SETUP                      :
          :.................................................:
          :  # basis functions                  72          :
          :  # atomic orbitals                  72          :
          :  # shells                           42          :
          :  # electrons                        78          :
          :  max. iterations                   250          :
          :  Hamiltonian                  GFN2-xTB          :
          :  restarted?                       true          :
          :  GBSA solvation                   true          :
          :  PC potential                    false          :
          :  electronic temp.          300.0000000     K    :
          :  accuracy                    0.2000000          :
          :  -> integral cutoff          0.3198970E+02      :
          :  -> integral neglect         0.2000000E-08      :
          :  -> SCF convergence          0.2000000E-06 Eh   :
          :  -> wf. convergence          0.2000000E-04 e    :
          :  Broyden damping             0.4000000          :
          :  net charge                          0          :
          :  unpaired electrons                  0          :
          ...................................................

 iter      E             dE          RMSdq      gap      omega  full diag
   1    -44.3016213 -0.443016E+02  0.408E-02    3.54       0.0  T
   2    -44.3016218 -0.548723E-06  0.236E-02    3.54       1.0  T
   3    -44.3016218  0.372128E-07  0.315E-03    3.54       6.1  T
   4    -44.3016219 -0.168006E-06  0.144E-03    3.54      13.3  T
   5    -44.3016220 -0.260688E-07  0.619E-04    3.54      31.1  T
   6    -44.3016220 -0.478295E-09  0.285E-04    3.54      67.4  T
   7    -44.3016220 -0.605446E-09  0.619E-05    3.54     311.1  T
   8    -44.3016220 -0.262048E-10  0.315E-05    3.54     611.0  T

   *** convergence criteria satisfied after 8 iterations ***

         #    Occupation            Energy/Eh            Energy/eV
      -------------------------------------------------------------
         1        2.0000           -0.6970420             -18.9675
       ...           ...                  ...                  ...
        33        2.0000           -0.4191220             -11.4049
        34        2.0000           -0.4180237             -11.3750
        35        2.0000           -0.4168925             -11.3442
        36        2.0000           -0.4062580             -11.0548
        37        2.0000           -0.3834675             -10.4347
        38        2.0000           -0.3818768             -10.3914
        39        2.0000           -0.3633313              -9.8867 (HOMO)
        40                         -0.2330961              -6.3429 (LUMO)
        41                         -0.1994326              -5.4268
        42                         -0.1896391              -5.1603
        43                         -0.1586386              -4.3168
        44                         -0.0748191              -2.0359
       ...                                ...                  ...
        72                          0.7133187              19.4104
      -------------------------------------------------------------
                  HL-Gap            0.1302351 Eh            3.5439 eV
             Fermi-level           -0.2982137 Eh           -8.1148 eV

 SCC (total)                   0 d,  0 h,  0 min,  0.016 sec
 SCC setup                      ...        0 min,  0.001 sec (  3.222%)
 Dispersion                     ...        0 min,  0.000 sec (  1.101%)
 classical contributions        ...        0 min,  0.000 sec (  0.194%)
 integral evaluation            ...        0 min,  0.002 sec ( 12.614%)
 iterations                     ...        0 min,  0.008 sec ( 48.069%)
 molecular gradient             ...        0 min,  0.005 sec ( 34.205%)
 printout                       ...        0 min,  0.000 sec (  0.494%)

         :::::::::::::::::::::::::::::::::::::::::::::::::::::
         ::                     SUMMARY                     ::
         :::::::::::::::::::::::::::::::::::::::::::::::::::::
         :: total energy             -43.682775192835 Eh    ::
         :: total w/o Gsasa/hb       -43.674990537699 Eh    ::
         :: gradient norm              0.001521637687 Eh/a0 ::
         :: HOMO-LUMO gap              3.543878753555 eV    ::
         ::.................................................::
         :: SCC energy               -44.301457453706 Eh    ::
         :: -> isotropic ES            0.166403535400 Eh    ::
         :: -> anisotropic ES         -0.010079736316 Eh    ::
         :: -> anisotropic XC          0.016237822486 Eh    ::
         :: -> dispersion             -0.026302884366 Eh    ::
         :: -> Gsolv                  -0.064323356653 Eh    ::
         ::    -> Gelec               -0.056538701517 Eh    ::
         ::    -> Gsasa                0.001746407317 Eh    ::
         ::    -> Ghb                 -0.010611822151 Eh    ::
         ::    -> Gshift               0.001080759698 Eh    ::
         :: repulsion energy           0.618682260871 Eh    ::
         :: add. restraining           0.000000000000 Eh    ::
         :: total charge               0.000000000000 e     ::
         :::::::::::::::::::::::::::::::::::::::::::::::::::::


Property printout bound to 'properties.out'

           -------------------------------------------------
          | TOTAL ENERGY              -43.682775192835 Eh   |
          | GRADIENT NORM               0.001521637687 Eh/α |
          | HOMO-LUMO GAP               3.543878753555 eV   |
           -------------------------------------------------

------------------------------------------------------------------------
 * finished run on 2026/04/09 at 18:40:48.896     
------------------------------------------------------------------------
 total:
 * wall-time:     0 d,  0 h,  0 min,  0.022 sec
 *  cpu-time:     0 d,  0 h,  0 min,  0.021 sec
 * ratio c/w:     0.932 speedup
 SCF:
 * wall-time:     0 d,  0 h,  0 min,  0.016 sec
 *  cpu-time:     0 d,  0 h,  0 min,  0.015 sec
 * ratio c/w:     0.916 speedup


-------------------------   --------------------
FINAL SINGLE POINT ENERGY       -43.682775192830
-------------------------   --------------------


-------------
DIPOLE MOMENT
-------------
                                X             Y             Z
Total Dipole Moment    :     -4.69500      -2.54600       1.57200
                        -----------------------------------------
Magnitude (a.u.)       :      5.56743
Magnitude (Debye)      :     14.15129


------------------
CARTESIAN GRADIENT
------------------

   1   N   :   -0.000189629   -0.000417487   -0.000503390
   2   C   :   -0.000202022    0.000379902    0.000465584
   3   C   :    0.000044196   -0.000284047    0.000003897
   4   C   :   -0.000005268    0.000150572   -0.000040863
   5   C   :   -0.000113558   -0.000061489    0.000140974
   6   N   :    0.000203696   -0.000083291    0.000027396
   7   C   :   -0.000141537    0.000105346    0.000079262
   8   C   :   -0.000030274   -0.000019478    0.000041648
   9   C   :    0.000115139   -0.000061691   -0.000084886
  10   C   :   -0.000049442    0.000072826    0.000089567
  11   C   :   -0.000014049   -0.000127999   -0.000089547
  12   C   :    0.000064526    0.000072203   -0.000163668
  13   C   :   -0.000067305   -0.000369422   -0.000666859
  14   O   :    0.000284412    0.000329693    0.000328575
  15   O   :    0.000029320    0.000092569    0.000264397
  16   H   :   -0.000048813    0.000040072    0.000047295
  17   H   :    0.000272484    0.000140076    0.000005932
  18   H   :   -0.000064419   -0.000119429    0.000024349
  19   H   :   -0.000030204   -0.000025397    0.000069153
  20   H   :    0.000004570    0.000110885   -0.000014394
  21   H   :   -0.000045014    0.000026326    0.000040995
  22   H   :   -0.000020288    0.000005865   -0.000036990
  23   H   :   -0.000027573    0.000025494   -0.000050981
  24   H   :    0.000013872    0.000011762   -0.000010440
  25   H   :   -0.000017225    0.000019882   -0.000008957
  26   H   :    0.000010034    0.000004682   -0.000009550
  27   H   :    0.000024370   -0.000018423    0.000051501

Difference to translation invariance:
           :    0.0000000000   -0.0000000000    0.0000000000

Difference to rotation invariance:
           :    0.0001832030   -0.0005401911   -0.0002849741

Norm of the Cartesian gradient     ...    0.0015216377
RMS gradient                       ...    0.0001690709
MAX gradient                       ...    0.0006668592
------------------------------------------------------------------------------
                         ORCA GEOMETRY RELAXATION STEP
------------------------------------------------------------------------------

Reading the OPT-File                    .... done
Getting information on internals        .... done
Copying old internal coords+grads       .... done
Making the new internal coordinates     .... (2022 redundants) done
Validating the new internal coordinates .... (2022 redundants) done
Calculating the B-matrix                .... done
Calculating the G,G- and P matrices     .... done
Transforming gradient to internals      .... done
Projecting the internal gradient        .... done
Number of atoms                         ....  27
Number of internal coordinates          .... 138
Current Energy                          ....   -43.682775193 Eh
Current gradient norm                   ....     0.001521638 Eh/bohr
Maximum allowed component of the step   ....  0.300
Current trust radius                    ....  0.700
Updating the Hessian (BFGS)             .... done
Forming the augmented Hessian           .... done
Diagonalizing the augmented Hessian     .... done
Last element of RFO vector              ....  0.999864428
Lowest eigenvalues of augmented Hessian:
 -0.000005183  0.001511355  0.011692391  0.011944066  0.017629973
Length of the computed step             ....  0.016468149
The final length of the internal step   ....  0.016468149
Converting the step to Cartesian space:
 Initial RMS(Int)=    0.0014018619
Transforming coordinates:
 Iter   0:  RMS(Cart)=    0.0034624822 RMS(Int)=    0.0014015251
done
Storing new coordinates                 .... done
The predicted energy change is          ....    -0.000002592
Previously predicted energy change      ....    -0.000007431
Actually observed energy change         ....    -0.000006758
Ratio of predicted to observed change   ....     0.909365920
New trust radius                        ....     0.700000000

                                .--------------------.
          ----------------------|Geometry convergence|-------------------------
          Item                value                   Tolerance       Converged
          ---------------------------------------------------------------------
          Energy change      -0.0000067577            0.0000050000      NO
          RMS gradient        0.0000918430            0.0001000000      YES
          MAX gradient        0.0004934708            0.0003000000      NO
          RMS step            0.0014018619            0.0020000000      YES
          MAX step            0.0051039194            0.0040000000      NO
          -------------------------------------------------------------------------
          ........................................................
          Max(Bonds)      0.0009      Max(Angles)    0.10
          Max(Dihed)        0.29      Max(Improp)    0.00
          ---------------------------------------------------------------------

The optimization has not yet converged - more geometry cycles are needed


    ---------------------------------------------------------------------------
                         Redundant Internal Coordinates
                            (Angstroem and degrees)

        Definition                    Value    dE/dq     Step     New-Value
    ----------------------------------------------------------------------------
     1. B(C   1,N   0)                1.4767 -0.000449  0.0005    1.4772   
     2. B(C   2,C   1)                1.5314 -0.000032  0.0001    1.5315   
     3. B(C   3,C   2)                1.4944 -0.000043  0.0001    1.4945   
     4. B(C   4,C   3)                1.3665  0.000025 -0.0001    1.3664   
     5. B(N   5,C   4)                1.3651 -0.000087  0.0001    1.3652   
     6. B(C   6,N   5)                1.3628  0.000077 -0.0001    1.3627   
     7. B(C   7,C   6)                1.3901 -0.000034  0.0000    1.3901   
     8. B(C   8,C   7)                1.3779 -0.000045  0.0000    1.3779   
     9. B(C   9,C   8)                1.3986 -0.000006 -0.0000    1.3986   
    10. B(C  10,C   9)                1.3765  0.000010 -0.0000    1.3765   
    11. B(C  11,C  10)                1.3978 -0.000085  0.0001    1.3979   
    12. B(C  11,C   6)                1.4182 -0.000009  0.0000    1.4182   
    13. B(C  11,C   3)                1.4301 -0.000095  0.0001    1.4302   
    14. B(C  12,C   1)                1.5829  0.000246 -0.0002    1.5828   
    15. B(O  13,C  12)                1.2520  0.000493 -0.0003    1.2516   
    16. B(O  14,C  12)                1.2320 -0.000202  0.0002    1.2323   
    17. B(H  15,N   0)                1.0208 -0.000008  0.0000    1.0208   
    18. B(H  16,N   0)                1.0702  0.000277 -0.0009    1.0693   
    19. B(H  17,N   0)                1.0255  0.000016  0.0001    1.0256   
    20. B(H  18,C   1)                1.0897  0.000008  0.0000    1.0897   
    21. B(H  19,C   2)                1.0908 -0.000001  0.0000    1.0908   
    22. B(H  20,C   2)                1.0923  0.000036 -0.0001    1.0922   
    23. B(H  21,C   4)                1.0726  0.000006 -0.0000    1.0726   
    24. B(H  22,N   5)                1.0058  0.000011  0.0000    1.0058   
    25. B(H  23,C   7)                1.0792 -0.000016  0.0000    1.0792   
    26. B(H  24,C   8)                1.0797  0.000015 -0.0000    1.0797   
    27. B(H  25,C   9)                1.0798 -0.000004  0.0000    1.0799   
    28. B(H  26,C  10)                1.0812  0.000009 -0.0000    1.0812   
    29. A(H  16,N   0,H  17)          111.55  0.000122   -0.08    111.46   
    30. A(H  15,N   0,H  17)          109.82 -0.000085    0.02    109.84   
    31. A(H  15,N   0,H  16)          109.63  0.000021    0.03    109.66   
    32. A(C   1,N   0,H  15)          113.49  0.000104   -0.03    113.46   
    33. A(C   1,N   0,H  16)           99.98 -0.000189    0.10    100.09   
    34. A(C   1,N   0,H  17)          112.05  0.000029   -0.04    112.01   
    35. A(C   2,C   1,C  12)          109.33 -0.000041    0.05    109.39   
    36. A(C   2,C   1,H  18)          109.94  0.000010   -0.00    109.94   
    37. A(N   0,C   1,C   2)          111.29 -0.000099    0.00    111.29   
    38. A(N   0,C   1,C  12)          105.60  0.000253   -0.04    105.56   
    39. A(N   0,C   1,H  18)          111.94 -0.000092    0.01    111.94   
    40. A(C  12,C   1,H  18)          108.60 -0.000022   -0.01    108.59   
    41. A(C   1,C   2,C   3)          111.51 -0.000022    0.00    111.51   
    42. A(H  19,C   2,H  20)          107.59  0.000010    0.02    107.62   
    43. A(C   3,C   2,H  20)          110.21 -0.000089    0.03    110.24   
    44. A(C   3,C   2,H  19)          110.91  0.000057   -0.05    110.86   
    45. A(C   1,C   2,H  20)          108.99  0.000001    0.03    109.02   
    46. A(C   1,C   2,H  19)          107.51  0.000046   -0.04    107.47   
    47. A(C   2,C   3,C   4)          127.38  0.000143   -0.03    127.35   
    48. A(C   2,C   3,C  11)          126.23 -0.000116    0.02    126.25   
    49. A(C   4,C   3,C  11)          106.36 -0.000028    0.01    106.36   
    50. A(N   5,C   4,H  21)          121.07 -0.000029   -0.00    121.07   
    51. A(C   3,C   4,H  21)          128.59  0.000006    0.00    128.60   
    52. A(C   3,C   4,N   5)          110.33  0.000023   -0.00    110.33   
    53. A(C   6,N   5,H  22)          125.61 -0.000010    0.00    125.61   
    54. A(C   4,N   5,H  22)          125.35  0.000003   -0.00    125.35   
    55. A(C   4,N   5,C   6)          109.01  0.000006   -0.00    109.01   
    56. A(C   7,C   6,C  11)          121.66  0.000029   -0.01    121.65   
    57. A(N   5,C   6,C  11)          107.68 -0.000064    0.01    107.69   
    58. A(N   5,C   6,C   7)          130.66  0.000035   -0.01    130.66   
    59. A(C   6,C   7,C   8)          117.70 -0.000036    0.01    117.71   
    60. A(C   8,C   7,H  23)          121.16  0.000026   -0.01    121.16   
    61. A(C   6,C   7,H  23)          121.13  0.000010    0.00    121.13   
    62. A(C   9,C   8,H  24)          119.03 -0.000034    0.01    119.04   
    63. A(C   7,C   8,H  24)          119.62 -0.000015    0.00    119.62   
    64. A(C   7,C   8,C   9)          121.35  0.000049   -0.01    121.34   
    65. A(C  10,C   9,H  25)          119.71  0.000019   -0.01    119.71   
    66. A(C   8,C   9,H  25)          118.95  0.000044   -0.01    118.94   
    67. A(C   8,C   9,C  10)          121.34 -0.000063    0.01    121.35   
    68. A(C   9,C  10,C  11)          118.69  0.000044   -0.01    118.68   
    69. A(C  11,C  10,H  26)          121.13 -0.000019    0.00    121.13   
    70. A(C   9,C  10,H  26)          120.16 -0.000025    0.00    120.16   
    71. A(C   3,C  11,C   6)          106.62  0.000063   -0.01    106.60   
    72. A(C   6,C  11,C  10)          119.26 -0.000023    0.00    119.27   
    73. A(C   3,C  11,C  10)          134.12 -0.000040    0.01    134.13   
    74. A(O  13,C  12,O  14)          128.82 -0.000318    0.03    128.86   
    75. A(C   1,C  12,O  14)          117.95  0.000099   -0.03    117.93   
    76. A(C   1,C  12,O  13)          113.22  0.000220   -0.01    113.21   
    77. D(C   2,C   1,N   0,H  16)   -110.89 -0.000037   -0.21   -111.10   
    78. D(C  12,C   1,N   0,H  16)      7.64  0.000012   -0.19      7.45   
    79. D(C   2,C   1,N   0,H  17)      7.38  0.000011   -0.27      7.11   
    80. D(C  12,C   1,N   0,H  17)    125.91  0.000060   -0.25    125.67   
    81. D(C  12,C   1,N   0,H  15)   -108.99  0.000053   -0.27   -109.27   
    82. D(C   2,C   1,N   0,H  15)    132.47  0.000003   -0.29    132.18   
    83. D(H  19,C   2,C   1,H  18)    -59.12 -0.000079   -0.03    -59.15   
    84. D(C   3,C   2,C   1,H  18)     62.66  0.000009   -0.12     62.54   
    85. D(H  19,C   2,C   1,C  12)     60.02 -0.000125   -0.01     60.01   
    86. D(C   3,C   2,C   1,C  12)   -178.21 -0.000037   -0.10   -178.31   
    87. D(C   3,C   2,C   1,N   0)    -61.94  0.000190   -0.13    -62.07   
    88. D(H  19,C   2,C   1,N   0)    176.29  0.000102   -0.04    176.24   
    89. D(C   4,C   3,C   2,H  20)    152.50  0.000053   -0.21    152.29   
    90. D(C   4,C   3,C   2,H  19)     33.46  0.000062   -0.23     33.23   
    91. D(C   4,C   3,C   2,C   1)    -86.32 -0.000021   -0.14    -86.47   
    92. D(C  11,C   3,C   2,H  19)   -148.95  0.000042   -0.12   -149.07   
    93. D(C  11,C   3,C   2,C   1)     91.26 -0.000041   -0.03     91.23   
    94. D(H  21,C   4,C   3,C  11)    179.22 -0.000017    0.02    179.24   
    95. D(H  21,C   4,C   3,C   2)     -2.81 -0.000037    0.11     -2.70   
    96. D(N   5,C   4,C   3,C  11)     -0.30 -0.000003   -0.02     -0.33   
    97. D(N   5,C   4,C   3,C   2)    177.67 -0.000023    0.07    177.73   
    98. D(H  22,N   5,C   4,H  21)     -1.21 -0.000010    0.02     -1.18   
    99. D(H  22,N   5,C   4,C   3)    178.36 -0.000023    0.06    178.42   
   100. D(C   6,N   5,C   4,H  21)   -179.15  0.000016   -0.03   -179.18   
   101. D(C   6,N   5,C   4,C   3)      0.42  0.000004    0.01      0.42   
   102. D(C  11,C   6,N   5,H  22)   -178.28  0.000023   -0.05   -178.33   
   103. D(C  11,C   6,N   5,C   4)     -0.35 -0.000003    0.01     -0.34   
   104. D(C   7,C   6,N   5,C   4)    179.85  0.000004   -0.02    179.83   
   105. D(C   7,C   6,N   5,H  22)      1.92  0.000030   -0.08      1.84   
   106. D(C   8,C   7,C   6,C  11)      0.28 -0.000003    0.02      0.30   
   107. D(C   8,C   7,C   6,N   5)   -179.95 -0.000011    0.05   -179.90   
   108. D(H  23,C   7,C   6,C  11)    179.91 -0.000006    0.03    179.94   
   109. D(H  23,C   7,C   6,N   5)     -0.31 -0.000014    0.06     -0.25   
   110. D(H  24,C   8,C   7,H  23)      0.16 -0.000005    0.00      0.16   
   111. D(H  24,C   8,C   7,C   6)    179.80 -0.000008    0.01    179.81   
   112. D(C   9,C   8,C   7,H  23)   -179.32 -0.000012    0.03   -179.29   
   113. D(C   9,C   8,C   7,C   6)      0.32 -0.000015    0.04      0.35   
   114. D(H  25,C   9,C   8,H  24)     -0.24  0.000007   -0.02     -0.26   
   115. D(H  25,C   9,C   8,C   7)    179.24  0.000014   -0.05    179.20   
   116. D(C  10,C   9,C   8,H  24)   -179.96  0.000008   -0.02   -179.97   
   117. D(C  10,C   9,C   8,C   7)     -0.47  0.000015   -0.04     -0.51   
   118. D(H  26,C  10,C   9,H  25)     -1.68  0.000026   -0.07     -1.75   
   119. D(H  26,C  10,C   9,C   8)    178.03  0.000025   -0.07    177.96   
   120. D(C  11,C  10,C   9,H  25)   -179.70  0.000004   -0.00   -179.70   
   121. D(C  11,C  10,C   9,C   8)      0.01  0.000004   -0.01      0.01   
   122. D(C   6,C  11,C  10,H  26)   -177.44 -0.000044    0.12   -177.31   
   123. D(C   6,C  11,C  10,C   9)      0.56 -0.000022    0.06      0.62   
   124. D(C   3,C  11,C  10,C   9)    179.63  0.000015   -0.03    179.59   
   125. D(C  10,C  11,C   6,C   7)     -0.72  0.000022   -0.07     -0.79   
   126. D(C  10,C  11,C   6,N   5)    179.46  0.000028   -0.09    179.36   
   127. D(C   3,C  11,C   6,C   7)    179.98 -0.000005    0.01    179.98   
   128. D(C   3,C  11,C   6,N   5)      0.16  0.000001   -0.02      0.14   
   129. D(C  10,C  11,C   3,C   4)   -179.06 -0.000032    0.11   -178.95   
   130. D(C   3,C  11,C  10,H  26)      1.63 -0.000007    0.03      1.66   
   131. D(C  10,C  11,C   3,C   2)      2.94 -0.000019    0.02      2.96   
   132. D(C   6,C  11,C   3,C   4)      0.09  0.000001    0.03      0.11   
   133. D(C   6,C  11,C   3,C   2)   -177.91  0.000014   -0.07   -177.98   
   134. D(O  14,C  12,C   1,C   2)    -66.39 -0.000060    0.20    -66.18   
   135. D(O  14,C  12,C   1,N   0)    173.79 -0.000065    0.21    174.00   
   136. D(O  13,C  12,C   1,H  18)   -126.89  0.000007    0.19   -126.70   
   137. D(O  13,C  12,C   1,C   2)    113.15  0.000032    0.17    113.32   
   138. D(O  13,C  12,C   1,N   0)     -6.68  0.000027    0.18     -6.50   
    ----------------------------------------------------------------------------

Geometry step timings:
Preparation and reading OPT file:      0.000 s ( 0.461 %)
Internal coordinates            :      0.000 s ( 0.599 %)
B/P matrices and projection     :      0.001 s (41.429 %)
Hessian update/contruction      :      0.000 s ( 8.940 %)
Making the step                 :      0.001 s (34.240 %)
Converting the step to Cartesian:      0.000 s ( 3.318 %)
Storing new data                :      0.000 s ( 0.553 %)
Checking convergence            :      0.000 s ( 0.691 %)
Final printing                  :      0.000 s ( 9.770 %)
Total time                      :      0.002 s

Time for energy+gradient        :      0.027 s
Time for complete geometry iter :      0.029 s

         *************************************************************
         *                GEOMETRY OPTIMIZATION CYCLE  21            *
         *************************************************************
---------------------------------
CARTESIAN COORDINATES (ANGSTROEM)
---------------------------------
  N     1.821234    0.126789    1.417166
  C     2.387416   -0.145442    0.080182
  C     1.462424    0.363424   -1.029351
  C     0.137924   -0.328151   -0.998659
  C    -0.194038   -1.510475   -1.597780
  N    -1.484153   -1.845809   -1.303032
  C    -2.023958   -0.878489   -0.509421
  C    -3.293841   -0.765921    0.044774
  C    -3.559724    0.343678    0.817240
  C    -2.590953    1.329028    1.032918
  C    -1.330067    1.224428    0.490720
  C    -1.026060    0.104948   -0.289403
  C     3.755476    0.648852    0.028876
  O     3.939896    1.378782    1.028764
  O     4.478992    0.489128   -0.955751
  H     1.843445   -0.681507    2.040232
  H     2.509431    0.867803    1.764611
  H     0.866636    0.497669    1.362103
  H     2.595156   -1.205125   -0.066083
  H     1.967756    0.192812   -1.980853
  H     1.328542    1.441276   -0.914786
  H     0.410735   -2.135432   -2.225518
  H    -1.966432   -2.659587   -1.644768
  H    -4.047211   -1.518873   -0.128948
  H    -4.537073    0.463757    1.260100
  H    -2.845226    2.189178    1.634236
  H    -0.606328    2.013258    0.642431

----------------------------
CARTESIAN COORDINATES (A.U.)
----------------------------
  NO LB    ZA    FRAG    MASS        X           Y           Z
   0 N   7.0000    0    14.007    3.441634    0.239596    2.678056
   1 C   6.0000    0    12.011    4.511563   -0.274846    0.151521
   2 C   6.0000    0    12.011    2.763581    0.686772   -1.945192
   3 C   6.0000    0    12.011    0.260639   -0.620115   -1.887193
   4 C   6.0000    0    12.011   -0.366679   -2.854383   -3.019367
   5 N   7.0000    0    14.007   -2.804642   -3.488074   -2.462373
   6 C   6.0000    0    12.011   -3.824726   -1.660103   -0.962665
   7 C   6.0000    0    12.011   -6.224457   -1.447381    0.084610
   8 C   6.0000    0    12.011   -6.726903    0.649457    1.544360
   9 C   6.0000    0    12.011   -4.896191    2.511500    1.951932
  10 C   6.0000    0    12.011   -2.513463    2.313834    0.927327
  11 C   6.0000    0    12.011   -1.938972    0.198323   -0.546893
  12 C   6.0000    0    12.011    7.096821    1.226153    0.054567
  13 O   8.0000    0    15.999    7.445324    2.605521    1.944082
  14 O   8.0000    0    15.999    8.464069    0.924318   -1.806108
  15 H   1.0000    0     1.008    3.483606   -1.287861    3.855481
  16 H   1.0000    0     1.008    4.742137    1.639910    3.334632
  17 H   1.0000    0     1.008    1.637704    0.940458    2.574002
  18 H   1.0000    0     1.008    4.904134   -2.277356   -0.124880
  19 H   1.0000    0     1.008    3.718521    0.364361   -3.743269
  20 H   1.0000    0     1.008    2.510581    2.723616   -1.728694
  21 H   1.0000    0     1.008    0.776176   -4.035381   -4.205619
  22 H   1.0000    0     1.008   -3.716018   -5.025891   -3.108161
  23 H   1.0000    0     1.008   -7.648121   -2.870254   -0.243676
  24 H   1.0000    0     1.008   -8.573824    0.876373    2.381244
  25 H   1.0000    0     1.008   -5.376698    4.136946    3.088258
  26 H   1.0000    0     1.008   -1.145794    3.804506    1.214019

      -----------------------------------------------------------      
     |                   =====================                   |     
     |                           x T B                           |     
     |                   =====================                   |     
     |                         S. Grimme                         |     
     |          Mulliken Center for Theoretical Chemistry        |     
     |                    University of Bonn                     |     
      -----------------------------------------------------------      

   * xtb version 6.7.1 (edcfbbe) compiled by 'albert@albert-system' on 2024-07-22

   xtb is free software: you can redistribute it and/or modify it under
   the terms of the GNU Lesser General Public License as published by
   the Free Software Foundation, either version 3 of the License, or
   (at your option) any later version.
   
   xtb is distributed in the hope that it will be useful,
   but WITHOUT ANY WARRANTY; without even the implied warranty of
   MERCHANTABILITY or FITNESS FOR A PARTICULAR PURPOSE.  See the
   GNU Lesser General Public License for more details.
   
   Cite this work as:
   * C. Bannwarth, E. Caldeweyher, S. Ehlert, A. Hansen, P. Pracht,
     J. Seibert, S. Spicher, S. Grimme, WIREs Comput. Mol. Sci., 2020, 11,
     e01493. DOI: 10.1002/wcms.1493
   
   for GFN2-xTB:
   * C. Bannwarth, S. Ehlert and S. Grimme., J. Chem. Theory Comput., 2019,
     15, 1652-1671. DOI: 10.1021/acs.jctc.8b01176
   for GFN1-xTB:
   * S. Grimme, C. Bannwarth, P. Shushkov, J. Chem. Theory Comput., 2017,
     13, 1989-2009. DOI: 10.1021/acs.jctc.7b00118
   for GFN0-xTB:
   * P. Pracht, E. Caldeweyher, S. Ehlert, S. Grimme, ChemRxiv, 2019, preprint.
     DOI: 10.26434/chemrxiv.8326202.v1
   for GFN-FF:
   * S. Spicher and S. Grimme, Angew. Chem. Int. Ed., 2020, 59, 15665-15673.
     DOI: 10.1002/anie.202004239
   
   for ALPB and GBSA implicit solvation:
   * S. Ehlert, M. Stahn, S. Spicher, S. Grimme, J. Chem. Theory Comput.,
     2021, 17, 4250-4261. DOI: 10.1021/acs.jctc.1c00471
   
   for ddCOSMO and CPCM-X implicit solvation:
   * M. Stahn, S. Ehlert, S. Grimme, J. Phys. Chem. A,
     2023, XX, XXXX-XXXX. DOI: 10.1021/acs.jpca.3c04382
   
   for DFT-D4:
   * E. Caldeweyher, C. Bannwarth and S. Grimme, J. Chem. Phys., 2017,
     147, 034112. DOI: 10.1063/1.4993215
   * E. Caldeweyher, S. Ehlert, A. Hansen, H. Neugebauer, S. Spicher,
     C. Bannwarth and S. Grimme, J. Chem. Phys., 2019, 150, 154122.
     DOI: 10.1063/1.5090222
   * E. Caldeweyher, J.-M. Mewes, S. Ehlert and S. Grimme, Phys. Chem. Chem. Phys.
     2020, 22, 8499-8512. DOI: 10.1039/D0CP00502A
   
   for sTDA-xTB:
   * S. Grimme and C. Bannwarth, J. Chem. Phys., 2016, 145, 054103.
     DOI: 10.1063/1.4959605
   
   in the mass-spec context:
   * V. Asgeirsson, C. Bauer and S. Grimme, Chem. Sci., 2017, 8, 4879.
     DOI: 10.1039/c7sc00601b
   * J. Koopman and S. Grimme, ACS Omega 2019, 4, 12, 15120-15133.
     DOI: 10.1021/acsomega.9b02011
   
   for metadynamics refer to:
   * S. Grimme, J. Chem. Theory Comput., 2019, 155, 2847-2862
     DOI: 10.1021/acs.jctc.9b00143
   
   for SPH calculations refer to:
   * S. Spicher and S. Grimme, J. Chem. Theory Comput., 2021, 17, 1701-1714
     DOI: 10.1021/acs.jctc.0c01306
   
   for ONIOM refer to:
   * C. Plett, A. Katbashev, S. Ehlert, S. Grimme, M. Bursch,
     Phys. Chem. Chem. Phys., 2023, 25, 17860-17868. DOI: 10.1039/D3CP02178E
   
   for DIPRO refer to:
   * J. Kohn, N. Gildemeister, S. Grimme, D. Fazzi, A. Hansen,
     J. Chem. Phys., 2023, just accepted.
   
   for PTB refer to:
   * S. Grimme, M. Mueller, A. Hansen, J. Chem. Phys., 2023, 158, 124111.
     DOI: 10.1063/5.0137838
   
   with help from (in alphabetical order)
   P. Atkinson, C. Bannwarth, F. Bohle, G. Brandenburg, E. Caldeweyher
   M. Checinski, S. Dohm, S. Ehlert, S. Ehrlich, I. Gerasimov, C. Hölzer
   A. Katbashev, J. Kohn, J. Koopman, C. Lavigne, S. Lehtola, F. März, M. Müller,
   F. Musil, H. Neugebauer, J. Pisarek, C. Plett, P. Pracht, F. Pultar,
   J. Seibert, P. Shushkov, S. Spicher, M. Stahn, M. Steiner, T. Strunk,
   J. Stückrath, T. Rose, and J. Unsleber
   
 * started run on 2026/04/09 at 18:40:48.903     
   ID    Z sym.   atoms
    1    7 N      1, 6
    2    6 C      2-5, 7-13
    3    8 O      14, 15
    4    1 H      16-27

           -------------------------------------------------
          |                Calculation Setup                |
           -------------------------------------------------

          program call               : /home/analima/Programs/orca-6.1.0-f.0_linux_x86-64/bin/otool_xtb geo_opt_XTB.xyz --grad -c 0 -u 0 -P 1 --namespace geo_opt --input geo_opt_XTB.input.tmp --alpb WATER --acc 0.200000
          calculation namespace      : geo_opt
          coordinate file            : geo_opt_XTB.xyz
          omp threads                :                     1


           -------------------------------------------------
          |                 G F N 2 - x T B                 |
           -------------------------------------------------

        Reference                      10.1021/acs.jctc.8b01176
      * Hamiltonian:
        H0-scaling (s, p, d)           1.850000    2.230000    2.230000
        zeta-weighting                 0.500000
      * Dispersion:
        s8                             2.700000
        a1                             0.520000
        a2                             5.000000
        s9                             5.000000
      * Repulsion:
        kExp                           1.500000    1.000000
        rExp                           1.000000
      * Coulomb:
        alpha                          2.000000
        third order                    shell-resolved
        anisotropic                    true
        a3                             3.000000
        a5                             4.000000
        cn-shift                       1.200000
        cn-exp                         4.000000
        max-rad                        5.000000

      * Solvation model:               ALPB
        Solvent                        WATER
        Parameter file                 internal GFN2-xTB/ALPB
        Dielectric constant                8.0200E+01
        Reference state                gsolv [1 M gas/solution]
        Free energy shift                  1.0808E-03 Eh       6.7819E-01 kcal/mol
        Temperature                        2.9815E+02 K
        Density                            1.0000E+00 kg/L
        Solvent mass                       1.8000E+01 g/mol
        Interaction kernel             P16
        Born radius scaling (c1)           1.4744E+00
        Born radii integrator          GBOBC
        Born offset                        0.0000E+00 a0       0.0000E+00 AA
        H-bond correction              true
        Ion screening                  false
        Surface tension                    1.0000E-05 Eh       1.5569E+01 dyn/cm
        Grid points                               230 per atom
q/qsh data taken from xtbrestart
CAMM data taken from xtbrestart

          ...................................................
          :                      SETUP                      :
          :.................................................:
          :  # basis functions                  72          :
          :  # atomic orbitals                  72          :
          :  # shells                           42          :
          :  # electrons                        78          :
          :  max. iterations                   250          :
          :  Hamiltonian                  GFN2-xTB          :
          :  restarted?                       true          :
          :  GBSA solvation                   true          :
          :  PC potential                    false          :
          :  electronic temp.          300.0000000     K    :
          :  accuracy                    0.2000000          :
          :  -> integral cutoff          0.3198970E+02      :
          :  -> integral neglect         0.2000000E-08      :
          :  -> SCF convergence          0.2000000E-06 Eh   :
          :  -> wf. convergence          0.2000000E-04 e    :
          :  Broyden damping             0.4000000          :
          :  net charge                          0          :
          :  unpaired electrons                  0          :
          ...................................................

 iter      E             dE          RMSdq      gap      omega  full diag
   1    -44.3016288 -0.443016E+02  0.880E-03    3.54       0.0  T
   2    -44.3016289 -0.711882E-07  0.513E-03    3.54       3.8  T
   3    -44.3016289  0.246637E-08  0.998E-04    3.54      19.3  T
   4    -44.3016289 -0.436123E-08  0.397E-04    3.54      48.5  T
   5    -44.3016289 -0.319624E-08  0.124E-04    3.54     155.3  T
   6    -44.3016289 -0.456595E-10  0.647E-05    3.54     297.5  T

   *** convergence criteria satisfied after 6 iterations ***

         #    Occupation            Energy/Eh            Energy/eV
      -------------------------------------------------------------
         1        2.0000           -0.6970553             -18.9678
       ...           ...                  ...                  ...
        33        2.0000           -0.4190816             -11.4038
        34        2.0000           -0.4180069             -11.3745
        35        2.0000           -0.4168756             -11.3438
        36        2.0000           -0.4062198             -11.0538
        37        2.0000           -0.3834361             -10.4338
        38        2.0000           -0.3818090             -10.3896
        39        2.0000           -0.3633151              -9.8863 (HOMO)
        40                         -0.2330889              -6.3427 (LUMO)
        41                         -0.1994069              -5.4261
        42                         -0.1895777              -5.1587
        43                         -0.1586240              -4.3164
        44                         -0.0748443              -2.0366
       ...                                ...                  ...
        72                          0.7131886              19.4068
      -------------------------------------------------------------
                  HL-Gap            0.1302262 Eh            3.5436 eV
             Fermi-level           -0.2982020 Eh           -8.1145 eV

 SCC (total)                   0 d,  0 h,  0 min,  0.014 sec
 SCC setup                      ...        0 min,  0.001 sec (  3.765%)
 Dispersion                     ...        0 min,  0.000 sec (  1.188%)
 classical contributions        ...        0 min,  0.000 sec (  0.229%)
 integral evaluation            ...        0 min,  0.003 sec ( 19.298%)
 iterations                     ...        0 min,  0.006 sec ( 42.955%)
 molecular gradient             ...        0 min,  0.005 sec ( 32.117%)
 printout                       ...        0 min,  0.000 sec (  0.363%)

         :::::::::::::::::::::::::::::::::::::::::::::::::::::
         ::                     SUMMARY                     ::
         :::::::::::::::::::::::::::::::::::::::::::::::::::::
         :: total energy             -43.682778195293 Eh    ::
         :: total w/o Gsasa/hb       -43.674990130111 Eh    ::
         :: gradient norm              0.000622060978 Eh/a0 ::
         :: HOMO-LUMO gap              3.543635754564 eV    ::
         ::.................................................::
         :: SCC energy               -44.301464613462 Eh    ::
         :: -> isotropic ES            0.166444311444 Eh    ::
         :: -> anisotropic ES         -0.010077570522 Eh    ::
         :: -> anisotropic XC          0.016236944892 Eh    ::
         :: -> dispersion             -0.026297764030 Eh    ::
         :: -> Gsolv                  -0.064340578924 Eh    ::
         ::    -> Gelec               -0.056552513742 Eh    ::
         ::    -> Gsasa                0.001744693332 Eh    ::
         ::    -> Ghb                 -0.010613518212 Eh    ::
         ::    -> Gshift               0.001080759698 Eh    ::
         :: repulsion energy           0.618686418169 Eh    ::
         :: add. restraining           0.000000000000 Eh    ::
         :: total charge               0.000000000000 e     ::
         :::::::::::::::::::::::::::::::::::::::::::::::::::::


Property printout bound to 'properties.out'

           -------------------------------------------------
          | TOTAL ENERGY              -43.682778195293 Eh   |
          | GRADIENT NORM               0.000622060978 Eh/α |
          | HOMO-LUMO GAP               3.543635754564 eV   |
           -------------------------------------------------

------------------------------------------------------------------------
 * finished run on 2026/04/09 at 18:40:48.924     
------------------------------------------------------------------------
 total:
 * wall-time:     0 d,  0 h,  0 min,  0.020 sec
 *  cpu-time:     0 d,  0 h,  0 min,  0.019 sec
 * ratio c/w:     0.922 speedup
 SCF:
 * wall-time:     0 d,  0 h,  0 min,  0.014 sec
 *  cpu-time:     0 d,  0 h,  0 min,  0.013 sec
 * ratio c/w:     0.907 speedup


-------------------------   --------------------
FINAL SINGLE POINT ENERGY       -43.682778195290
-------------------------   --------------------


-------------
DIPOLE MOMENT
-------------
                                X             Y             Z
Total Dipole Moment    :     -4.69600      -2.53400       1.57700
                        -----------------------------------------
Magnitude (a.u.)       :      5.56422
Magnitude (Debye)      :     14.14311


------------------
CARTESIAN GRADIENT
------------------

   1   N   :    0.000224624    0.000028416   -0.000234256
   2   C   :    0.000009329    0.000171167    0.000200813
   3   C   :   -0.000017885   -0.000063478   -0.000034845
   4   C   :    0.000029291   -0.000010541   -0.000060955
   5   C   :   -0.000050776    0.000001505    0.000075278
   6   N   :    0.000121979   -0.000047274    0.000037719
   7   C   :   -0.000088659    0.000023899    0.000004787
   8   C   :   -0.000023830   -0.000012669    0.000016850
   9   C   :    0.000071837   -0.000026335   -0.000039969
  10   C   :   -0.000048191    0.000033269    0.000048397
  11   C   :   -0.000013485    0.000000284    0.000003385
  12   C   :    0.000018485    0.000051546   -0.000065281
  13   C   :   -0.000080707   -0.000218591   -0.000164013
  14   O   :   -0.000040062    0.000058555    0.000164582
  15   O   :    0.000080994    0.000036060    0.000011956
  16   H   :   -0.000010434   -0.000004342    0.000047681
  17   H   :   -0.000029551   -0.000040777    0.000021744
  18   H   :   -0.000060022   -0.000015657    0.000005189
  19   H   :    0.000004114   -0.000045357    0.000025857
  20   H   :   -0.000010559    0.000040567    0.000005261
  21   H   :   -0.000053119    0.000013078    0.000016833
  22   H   :   -0.000018436   -0.000002821   -0.000025736
  23   H   :   -0.000027605    0.000010945   -0.000052019
  24   H   :    0.000005750    0.000006225   -0.000001270
  25   H   :   -0.000009295    0.000012123   -0.000013059
  26   H   :    0.000011731    0.000001244   -0.000009235
  27   H   :    0.000004481   -0.000001042    0.000014305

Difference to translation invariance:
           :    0.0000000000    0.0000000000    0.0000000000

Difference to rotation invariance:
           :    0.0001824804   -0.0005346982   -0.0002542394

Norm of the Cartesian gradient     ...    0.0006220610
RMS gradient                       ...    0.0000691179
MAX gradient                       ...    0.0002342558
------------------------------------------------------------------------------
                         ORCA GEOMETRY RELAXATION STEP
------------------------------------------------------------------------------

Reading the OPT-File                    .... done
Getting information on internals        .... done
Copying old internal coords+grads       .... done
Making the new internal coordinates     .... (2022 redundants) done
Validating the new internal coordinates .... (2022 redundants) done
Calculating the B-matrix                .... done
Calculating the G,G- and P matrices     .... done
Transforming gradient to internals      .... done
Projecting the internal gradient        .... done
Number of atoms                         ....  27
Number of internal coordinates          .... 138
Current Energy                          ....   -43.682778195 Eh
Current gradient norm                   ....     0.000622061 Eh/bohr
Maximum allowed component of the step   ....  0.300
Current trust radius                    ....  0.700
Updating the Hessian (BFGS)             .... done
Forming the augmented Hessian           .... done
Diagonalizing the augmented Hessian     .... done
Last element of RFO vector              ....  0.999960006
Lowest eigenvalues of augmented Hessian:
 -0.000001152  0.001466298  0.010449998  0.011808477  0.017551490
Length of the computed step             ....  0.008943871
The final length of the internal step   ....  0.008943871
Converting the step to Cartesian space:
 Initial RMS(Int)=    0.0007613529
Transforming coordinates:
 Iter   0:  RMS(Cart)=    0.0020462063 RMS(Int)=    0.0007612871
done
Storing new coordinates                 .... done
The predicted energy change is          ....    -0.000000576
Previously predicted energy change      ....    -0.000002592
Actually observed energy change         ....    -0.000003002
Ratio of predicted to observed change   ....     1.158332153
New trust radius                        ....     0.700000000

                                .--------------------.
          ----------------------|Geometry convergence|-------------------------
          Item                value                   Tolerance       Converged
          ---------------------------------------------------------------------
          Energy change      -0.0000030025            0.0000050000      YES
          RMS gradient        0.0000420441            0.0001000000      YES
          MAX gradient        0.0002085271            0.0003000000      YES
          RMS step            0.0007613529            0.0020000000      YES
          MAX step            0.0027115523            0.0040000000      YES
          -------------------------------------------------------------------------
          ........................................................
          Max(Bonds)      0.0003      Max(Angles)    0.03
          Max(Dihed)        0.16      Max(Improp)    0.00
          ---------------------------------------------------------------------

                    ***********************HURRAY********************
                    ***        THE OPTIMIZATION HAS CONVERGED     ***
                    *************************************************


    ---------------------------------------------------------------------------
                         Redundant Internal Coordinates

                          --- Optimized Parameters ---  
                            (Angstroem and degrees)

        Definition                    OldVal   dE/dq     Step     FinalVal
    ----------------------------------------------------------------------------
     1. B(C   1,N   0)                1.4772 -0.000209  0.0003    1.4776   
     2. B(C   2,C   1)                1.5315  0.000098 -0.0001    1.5314   
     3. B(C   3,C   2)                1.4945  0.000008  0.0000    1.4945   
     4. B(C   4,C   3)                1.3664 -0.000001 -0.0000    1.3664   
     5. B(N   5,C   4)                1.3652 -0.000043  0.0001    1.3652   
     6. B(C   6,N   5)                1.3627  0.000041 -0.0001    1.3626   
     7. B(C   7,C   6)                1.3901 -0.000010  0.0000    1.3901   
     8. B(C   8,C   7)                1.3779 -0.000015  0.0000    1.3779   
     9. B(C   9,C   8)                1.3986 -0.000006  0.0000    1.3986   
    10. B(C  10,C   9)                1.3765  0.000009 -0.0000    1.3765   
    11. B(C  11,C  10)                1.3979  0.000031 -0.0000    1.3979   
    12. B(C  11,C   6)                1.4182  0.000031 -0.0000    1.4182   
    13. B(C  11,C   3)                1.4302  0.000024 -0.0000    1.4302   
    14. B(C  12,C   1)                1.5828 -0.000093  0.0001    1.5828   
    15. B(O  13,C  12)                1.2516  0.000157 -0.0002    1.2514   
    16. B(O  14,C  12)                1.2323  0.000037  0.0000    1.2323   
    17. B(H  15,N   0)                1.0208  0.000028 -0.0000    1.0208   
    18. B(H  16,N   0)                1.0693 -0.000038 -0.0001    1.0692   
    19. B(H  17,N   0)                1.0256  0.000049 -0.0001    1.0255   
    20. B(H  18,C   1)                1.0897  0.000040 -0.0001    1.0896   
    21. B(H  19,C   2)                1.0908 -0.000015  0.0000    1.0908   
    22. B(H  20,C   2)                1.0922  0.000021 -0.0001    1.0921   
    23. B(H  21,C   4)                1.0726  0.000006 -0.0000    1.0725   
    24. B(H  22,N   5)                1.0058  0.000023 -0.0000    1.0058   
    25. B(H  23,C   7)                1.0792 -0.000008  0.0000    1.0792   
    26. B(H  24,C   8)                1.0797  0.000005 -0.0000    1.0797   
    27. B(H  25,C   9)                1.0799 -0.000007  0.0000    1.0799   
    28. B(H  26,C  10)                1.0812  0.000004 -0.0000    1.0812   
    29. A(H  16,N   0,H  17)          111.46  0.000002   -0.03    111.43   
    30. A(H  15,N   0,H  17)          109.84 -0.000030    0.02    109.85   
    31. A(H  15,N   0,H  16)          109.66 -0.000036    0.02    109.68   
    32. A(C   1,N   0,H  15)          113.46  0.000039   -0.00    113.46   
    33. A(C   1,N   0,H  16)          100.09  0.000037    0.01    100.09   
    34. A(C   1,N   0,H  17)          112.01 -0.000008   -0.01    112.00   
    35. A(C   2,C   1,C  12)          109.38  0.000108   -0.02    109.36   
    36. A(C   2,C   1,H  18)          109.94  0.000005   -0.01    109.93   
    37. A(N   0,C   1,C   2)          111.28 -0.000009    0.01    111.29   
    38. A(N   0,C   1,C  12)          105.55 -0.000103    0.01    105.56   
    39. A(N   0,C   1,H  18)          111.95  0.000008    0.01    111.96   
    40. A(C  12,C   1,H  18)          108.60 -0.000010   -0.01    108.59   
    41. A(C   1,C   2,C   3)          111.51  0.000006   -0.00    111.50   
    42. A(H  19,C   2,H  20)          107.62  0.000026    0.00    107.62   
    43. A(C   3,C   2,H  20)          110.24 -0.000083    0.03    110.27   
    44. A(C   3,C   2,H  19)          110.86  0.000013   -0.02    110.84   
    45. A(C   1,C   2,H  20)          109.02  0.000028    0.01    109.03   
    46. A(C   1,C   2,H  19)          107.47  0.000014   -0.02    107.45   
    47. A(C   2,C   3,C   4)          127.35  0.000076   -0.02    127.33   
    48. A(C   2,C   3,C  11)          126.25 -0.000063    0.02    126.27   
    49. A(C   4,C   3,C  11)          106.36 -0.000012    0.00    106.37   
    50. A(N   5,C   4,H  21)          121.07 -0.000032    0.01    121.08   
    51. A(C   3,C   4,H  21)          128.60  0.000009   -0.00    128.59   
    52. A(C   3,C   4,N   5)          110.33  0.000023   -0.00    110.33   
    53. A(C   6,N   5,H  22)          125.61 -0.000008    0.00    125.61   
    54. A(C   4,N   5,H  22)          125.35 -0.000003    0.00    125.35   
    55. A(C   4,N   5,C   6)          109.01  0.000011   -0.00    109.01   
    56. A(C   7,C   6,C  11)          121.65  0.000004   -0.00    121.65   
    57. A(N   5,C   6,C  11)          107.69 -0.000026    0.01    107.70   
    58. A(N   5,C   6,C   7)          130.66  0.000022   -0.00    130.65   
    59. A(C   6,C   7,C   8)          117.71 -0.000014    0.00    117.71   
    60. A(C   8,C   7,H  23)          121.16  0.000007   -0.00    121.15   
    61. A(C   6,C   7,H  23)          121.13  0.000007   -0.00    121.13   
    62. A(C   9,C   8,H  24)          119.04 -0.000025    0.00    119.04   
    63. A(C   7,C   8,H  24)          119.62 -0.000018    0.00    119.62   
    64. A(C   7,C   8,C   9)          121.34  0.000043   -0.01    121.33   
    65. A(C  10,C   9,H  25)          119.71  0.000002    0.00    119.71   
    66. A(C   8,C   9,H  25)          118.94  0.000027   -0.01    118.94   
    67. A(C   8,C   9,C  10)          121.35 -0.000029    0.01    121.35   
    68. A(C   9,C  10,C  11)          118.68  0.000009   -0.00    118.67   
    69. A(C  11,C  10,H  26)          121.13 -0.000000   -0.00    121.13   
    70. A(C   9,C  10,H  26)          120.16 -0.000009    0.00    120.16   
    71. A(C   3,C  11,C   6)          106.60  0.000005   -0.00    106.60   
    72. A(C   6,C  11,C  10)          119.27 -0.000012    0.00    119.27   
    73. A(C   3,C  11,C  10)          134.13  0.000008    0.00    134.13   
    74. A(O  13,C  12,O  14)          128.86 -0.000002    0.01    128.87   
    75. A(C   1,C  12,O  14)          117.93  0.000183   -0.03    117.89   
    76. A(C   1,C  12,O  13)          113.21 -0.000182    0.03    113.24   
    77. D(C   2,C   1,N   0,H  16)   -111.10 -0.000033   -0.11   -111.21   
    78. D(C  12,C   1,N   0,H  16)      7.46  0.000031   -0.12      7.34   
    79. D(C   2,C   1,N   0,H  17)      7.11 -0.000013   -0.15      6.96   
    80. D(C  12,C   1,N   0,H  17)    125.67  0.000051   -0.16    125.51   
    81. D(C  12,C   1,N   0,H  15)   -109.27  0.000035   -0.15   -109.41   
    82. D(C   2,C   1,N   0,H  15)    132.18 -0.000029   -0.14    132.04   
    83. D(H  19,C   2,C   1,H  18)    -59.15 -0.000029    0.00    -59.15   
    84. D(C   3,C   2,C   1,H  18)     62.54 -0.000001   -0.04     62.50   
    85. D(H  19,C   2,C   1,C  12)     60.01  0.000028   -0.02     59.99   
    86. D(C   3,C   2,C   1,C  12)   -178.31  0.000056   -0.06   -178.36   
    87. D(C   3,C   2,C   1,N   0)    -62.07 -0.000008   -0.06    -62.12   
    88. D(H  19,C   2,C   1,N   0)    176.24 -0.000037   -0.01    176.23   
    89. D(C   4,C   3,C   2,H  20)    152.29  0.000017   -0.11    152.18   
    90. D(C   4,C   3,C   2,H  19)     33.23  0.000030   -0.12     33.11   
    91. D(C   4,C   3,C   2,C   1)    -86.47 -0.000000   -0.08    -86.55   
    92. D(C  11,C   3,C   2,H  19)   -149.07  0.000032   -0.10   -149.17   
    93. D(C  11,C   3,C   2,C   1)     91.23  0.000001   -0.06     91.17   
    94. D(H  21,C   4,C   3,C  11)    179.24 -0.000016    0.04    179.28   
    95. D(H  21,C   4,C   3,C   2)     -2.70 -0.000017    0.07     -2.63   
    96. D(N   5,C   4,C   3,C  11)     -0.33 -0.000007    0.01     -0.32   
    97. D(N   5,C   4,C   3,C   2)    177.74 -0.000008    0.03    177.77   
    98. D(H  22,N   5,C   4,H  21)     -1.18 -0.000011    0.02     -1.16   
    99. D(H  22,N   5,C   4,C   3)    178.42 -0.000019    0.05    178.47   
   100. D(C   6,N   5,C   4,H  21)   -179.18  0.000014   -0.04   -179.22   
   101. D(C   6,N   5,C   4,C   3)      0.42  0.000006   -0.01      0.41   
   102. D(C  11,C   6,N   5,H  22)   -178.33  0.000023   -0.06   -178.38   
   103. D(C  11,C   6,N   5,C   4)     -0.34 -0.000002    0.01     -0.33   
   104. D(C   7,C   6,N   5,C   4)    179.83 -0.000000   -0.00    179.83   
   105. D(C   7,C   6,N   5,H  22)      1.84  0.000025   -0.07      1.78   
   106. D(C   8,C   7,C   6,C  11)      0.29  0.000002   -0.00      0.29   
   107. D(C   8,C   7,C   6,N   5)   -179.90 -0.000000    0.01   -179.89   
   108. D(H  23,C   7,C   6,C  11)    179.94  0.000001    0.00    179.94   
   109. D(H  23,C   7,C   6,N   5)     -0.25 -0.000002    0.02     -0.23   
   110. D(H  24,C   8,C   7,H  23)      0.16 -0.000006    0.01      0.18   
   111. D(H  24,C   8,C   7,C   6)    179.81 -0.000008    0.02    179.83   
   112. D(C   9,C   8,C   7,H  23)   -179.29 -0.000005    0.02   -179.28   
   113. D(C   9,C   8,C   7,C   6)      0.35 -0.000006    0.02      0.37   
   114. D(H  25,C   9,C   8,H  24)     -0.26  0.000004   -0.01     -0.27   
   115. D(H  25,C   9,C   8,C   7)    179.20  0.000002   -0.02    179.18   
   116. D(C  10,C   9,C   8,H  24)   -179.97  0.000006   -0.02   -179.99   
   117. D(C  10,C   9,C   8,C   7)     -0.51  0.000004   -0.02     -0.53   
   118. D(H  26,C  10,C   9,H  25)     -1.75  0.000007   -0.03     -1.78   
   119. D(H  26,C  10,C   9,C   8)    177.96  0.000006   -0.03    177.93   
   120. D(C  11,C  10,C   9,H  25)   -179.70  0.000004   -0.01   -179.71   
   121. D(C  11,C  10,C   9,C   8)      0.01  0.000002   -0.01      0.00   
   122. D(C   6,C  11,C  10,H  26)   -177.31 -0.000010    0.05   -177.27   
   123. D(C   6,C  11,C  10,C   9)      0.62 -0.000006    0.03      0.65   
   124. D(C   3,C  11,C  10,C   9)    179.59  0.000005   -0.02    179.57   
   125. D(C  10,C  11,C   6,C   7)     -0.79  0.000004   -0.02     -0.81   
   126. D(C  10,C  11,C   6,N   5)    179.36  0.000006   -0.03    179.33   
   127. D(C   3,C  11,C   6,C   7)    179.98 -0.000004    0.01    179.99   
   128. D(C   3,C  11,C   6,N   5)      0.14 -0.000002    0.00      0.14   
   129. D(C  10,C  11,C   3,C   4)   -178.95 -0.000004    0.04   -178.91   
   130. D(C   3,C  11,C  10,H  26)      1.66  0.000001    0.00      1.66   
   131. D(C  10,C  11,C   3,C   2)      2.96 -0.000007    0.02      2.98   
   132. D(C   6,C  11,C   3,C   4)      0.11  0.000006   -0.01      0.11   
   133. D(C   6,C  11,C   3,C   2)   -177.98  0.000002   -0.02   -178.00   
   134. D(O  14,C  12,C   1,C   2)    -66.18 -0.000016    0.11    -66.07   
   135. D(O  14,C  12,C   1,N   0)    174.00 -0.000004    0.10    174.10   
   136. D(O  13,C  12,C   1,H  18)   -126.70  0.000045    0.09   -126.61   
   137. D(O  13,C  12,C   1,C   2)    113.32 -0.000019    0.11    113.42   
   138. D(O  13,C  12,C   1,N   0)     -6.50 -0.000008    0.10     -6.41   
    ----------------------------------------------------------------------------

Geometry step timings:
Preparation and reading OPT file:      0.000 s ( 0.508 %)
Internal coordinates            :      0.000 s ( 0.554 %)
B/P matrices and projection     :      0.001 s (41.505 %)
Hessian update/contruction      :      0.000 s ( 8.680 %)
Making the step                 :      0.001 s (34.395 %)
Converting the step to Cartesian:      0.000 s ( 3.278 %)
Storing new data                :      0.000 s ( 0.554 %)
Checking convergence            :      0.000 s ( 0.831 %)
Final printing                  :      0.000 s ( 9.695 %)
Total time                      :      0.002 s
                 *******************************************************
                 *** FINAL ENERGY EVALUATION AT THE STATIONARY POINT ***
                 ***               (AFTER   21 CYCLES)               ***
                 *******************************************************
---------------------------------
CARTESIAN COORDINATES (ANGSTROEM)
---------------------------------
  N     1.821250    0.128916    1.417970
  C     2.387071   -0.145260    0.080844
  C     1.462571    0.363196   -1.029140
  C     0.137926   -0.328117   -0.998374
  C    -0.194025   -1.509999   -1.598374
  N    -1.484321   -1.845314   -1.304129
  C    -2.023993   -0.878568   -0.509832
  C    -3.294003   -0.766195    0.044160
  C    -3.559995    0.342884    0.817366
  C    -2.591206    1.328130    1.033517
  C    -1.330238    1.223823    0.491502
  C    -1.026056    0.104582   -0.288886
  C     3.755836    0.647864    0.028223
  O     3.942562    1.377350    1.027777
  O     4.477534    0.487435   -0.957670
  H     1.840810   -0.679391    2.041035
  H     2.511241    0.868107    1.765399
  H     0.867967    0.502864    1.362458
  H     2.593947   -1.205158   -0.064480
  H     1.968099    0.191156   -1.980309
  H     1.329441    1.441204   -0.915765
  H     0.411036   -2.134803   -2.225966
  H    -1.966433   -2.659134   -1.645904
  H    -4.047405   -1.518990   -0.130214
  H    -4.537314    0.462631    1.260347
  H    -2.845627    2.187999    1.635196
  H    -0.606675    2.012792    0.643246

----------------------------
CARTESIAN COORDINATES (A.U.)
----------------------------
  NO LB    ZA    FRAG    MASS        X           Y           Z
   0 N   7.0000    0    14.007    3.441663    0.243615    2.679576
   1 C   6.0000    0    12.011    4.510910   -0.274503    0.152773
   2 C   6.0000    0    12.011    2.763858    0.686340   -1.944792
   3 C   6.0000    0    12.011    0.260643   -0.620051   -1.886654
   4 C   6.0000    0    12.011   -0.366654   -2.853484   -3.020488
   5 N   7.0000    0    14.007   -2.804960   -3.487139   -2.464446
   6 C   6.0000    0    12.011   -3.824792   -1.660253   -0.963443
   7 C   6.0000    0    12.011   -6.224764   -1.447898    0.083451
   8 C   6.0000    0    12.011   -6.727416    0.647957    1.544597
   9 C   6.0000    0    12.011   -4.896670    2.509802    1.953063
  10 C   6.0000    0    12.011   -2.513786    2.312689    0.928805
  11 C   6.0000    0    12.011   -1.938965    0.197631   -0.545915
  12 C   6.0000    0    12.011    7.097502    1.224285    0.053334
  13 O   8.0000    0    15.999    7.450363    2.602814    1.942216
  14 O   8.0000    0    15.999    8.461314    0.921118   -1.809733
  15 H   1.0000    0     1.008    3.478626   -1.283863    3.856997
  16 H   1.0000    0     1.008    4.745559    1.640484    3.336121
  17 H   1.0000    0     1.008    1.640220    0.950275    2.574673
  18 H   1.0000    0     1.008    4.901850   -2.277419   -0.121850
  19 H   1.0000    0     1.008    3.719169    0.361233   -3.742242
  20 H   1.0000    0     1.008    2.512280    2.723480   -1.730544
  21 H   1.0000    0     1.008    0.776745   -4.034193   -4.206466
  22 H   1.0000    0     1.008   -3.716020   -5.025034   -3.110307
  23 H   1.0000    0     1.008   -7.648487   -2.870475   -0.246069
  24 H   1.0000    0     1.008   -8.574281    0.874245    2.381710
  25 H   1.0000    0     1.008   -5.377455    4.134718    3.090072
  26 H   1.0000    0     1.008   -1.146449    3.803625    1.215559

      -----------------------------------------------------------      
     |                   =====================                   |     
     |                           x T B                           |     
     |                   =====================                   |     
     |                         S. Grimme                         |     
     |          Mulliken Center for Theoretical Chemistry        |     
     |                    University of Bonn                     |     
      -----------------------------------------------------------      

   * xtb version 6.7.1 (edcfbbe) compiled by 'albert@albert-system' on 2024-07-22

   xtb is free software: you can redistribute it and/or modify it under
   the terms of the GNU Lesser General Public License as published by
   the Free Software Foundation, either version 3 of the License, or
   (at your option) any later version.
   
   xtb is distributed in the hope that it will be useful,
   but WITHOUT ANY WARRANTY; without even the implied warranty of
   MERCHANTABILITY or FITNESS FOR A PARTICULAR PURPOSE.  See the
   GNU Lesser General Public License for more details.
   
   Cite this work as:
   * C. Bannwarth, E. Caldeweyher, S. Ehlert, A. Hansen, P. Pracht,
     J. Seibert, S. Spicher, S. Grimme, WIREs Comput. Mol. Sci., 2020, 11,
     e01493. DOI: 10.1002/wcms.1493
   
   for GFN2-xTB:
   * C. Bannwarth, S. Ehlert and S. Grimme., J. Chem. Theory Comput., 2019,
     15, 1652-1671. DOI: 10.1021/acs.jctc.8b01176
   for GFN1-xTB:
   * S. Grimme, C. Bannwarth, P. Shushkov, J. Chem. Theory Comput., 2017,
     13, 1989-2009. DOI: 10.1021/acs.jctc.7b00118
   for GFN0-xTB:
   * P. Pracht, E. Caldeweyher, S. Ehlert, S. Grimme, ChemRxiv, 2019, preprint.
     DOI: 10.26434/chemrxiv.8326202.v1
   for GFN-FF:
   * S. Spicher and S. Grimme, Angew. Chem. Int. Ed., 2020, 59, 15665-15673.
     DOI: 10.1002/anie.202004239
   
   for ALPB and GBSA implicit solvation:
   * S. Ehlert, M. Stahn, S. Spicher, S. Grimme, J. Chem. Theory Comput.,
     2021, 17, 4250-4261. DOI: 10.1021/acs.jctc.1c00471
   
   for ddCOSMO and CPCM-X implicit solvation:
   * M. Stahn, S. Ehlert, S. Grimme, J. Phys. Chem. A,
     2023, XX, XXXX-XXXX. DOI: 10.1021/acs.jpca.3c04382
   
   for DFT-D4:
   * E. Caldeweyher, C. Bannwarth and S. Grimme, J. Chem. Phys., 2017,
     147, 034112. DOI: 10.1063/1.4993215
   * E. Caldeweyher, S. Ehlert, A. Hansen, H. Neugebauer, S. Spicher,
     C. Bannwarth and S. Grimme, J. Chem. Phys., 2019, 150, 154122.
     DOI: 10.1063/1.5090222
   * E. Caldeweyher, J.-M. Mewes, S. Ehlert and S. Grimme, Phys. Chem. Chem. Phys.
     2020, 22, 8499-8512. DOI: 10.1039/D0CP00502A
   
   for sTDA-xTB:
   * S. Grimme and C. Bannwarth, J. Chem. Phys., 2016, 145, 054103.
     DOI: 10.1063/1.4959605
   
   in the mass-spec context:
   * V. Asgeirsson, C. Bauer and S. Grimme, Chem. Sci., 2017, 8, 4879.
     DOI: 10.1039/c7sc00601b
   * J. Koopman and S. Grimme, ACS Omega 2019, 4, 12, 15120-15133.
     DOI: 10.1021/acsomega.9b02011
   
   for metadynamics refer to:
   * S. Grimme, J. Chem. Theory Comput., 2019, 155, 2847-2862
     DOI: 10.1021/acs.jctc.9b00143
   
   for SPH calculations refer to:
   * S. Spicher and S. Grimme, J. Chem. Theory Comput., 2021, 17, 1701-1714
     DOI: 10.1021/acs.jctc.0c01306
   
   for ONIOM refer to:
   * C. Plett, A. Katbashev, S. Ehlert, S. Grimme, M. Bursch,
     Phys. Chem. Chem. Phys., 2023, 25, 17860-17868. DOI: 10.1039/D3CP02178E
   
   for DIPRO refer to:
   * J. Kohn, N. Gildemeister, S. Grimme, D. Fazzi, A. Hansen,
     J. Chem. Phys., 2023, just accepted.
   
   for PTB refer to:
   * S. Grimme, M. Mueller, A. Hansen, J. Chem. Phys., 2023, 158, 124111.
     DOI: 10.1063/5.0137838
   
   with help from (in alphabetical order)
   P. Atkinson, C. Bannwarth, F. Bohle, G. Brandenburg, E. Caldeweyher
   M. Checinski, S. Dohm, S. Ehlert, S. Ehrlich, I. Gerasimov, C. Hölzer
   A. Katbashev, J. Kohn, J. Koopman, C. Lavigne, S. Lehtola, F. März, M. Müller,
   F. Musil, H. Neugebauer, J. Pisarek, C. Plett, P. Pracht, F. Pultar,
   J. Seibert, P. Shushkov, S. Spicher, M. Stahn, M. Steiner, T. Strunk,
   J. Stückrath, T. Rose, and J. Unsleber
   
 * started run on 2026/04/09 at 18:40:48.931     
   ID    Z sym.   atoms
    1    7 N      1, 6
    2    6 C      2-5, 7-13
    3    8 O      14, 15
    4    1 H      16-27

           -------------------------------------------------
          |                Calculation Setup                |
           -------------------------------------------------

          program call               : /home/analima/Programs/orca-6.1.0-f.0_linux_x86-64/bin/otool_xtb geo_opt_XTB.xyz --grad -c 0 -u 0 -P 1 --namespace geo_opt --input geo_opt_XTB.input.tmp --alpb WATER --acc 0.200000
          calculation namespace      : geo_opt
          coordinate file            : geo_opt_XTB.xyz
          omp threads                :                     1


           -------------------------------------------------
          |                 G F N 2 - x T B                 |
           -------------------------------------------------

        Reference                      10.1021/acs.jctc.8b01176
      * Hamiltonian:
        H0-scaling (s, p, d)           1.850000    2.230000    2.230000
        zeta-weighting                 0.500000
      * Dispersion:
        s8                             2.700000
        a1                             0.520000
        a2                             5.000000
        s9                             5.000000
      * Repulsion:
        kExp                           1.500000    1.000000
        rExp                           1.000000
      * Coulomb:
        alpha                          2.000000
        third order                    shell-resolved
        anisotropic                    true
        a3                             3.000000
        a5                             4.000000
        cn-shift                       1.200000
        cn-exp                         4.000000
        max-rad                        5.000000

      * Solvation model:               ALPB
        Solvent                        WATER
        Parameter file                 internal GFN2-xTB/ALPB
        Dielectric constant                8.0200E+01
        Reference state                gsolv [1 M gas/solution]
        Free energy shift                  1.0808E-03 Eh       6.7819E-01 kcal/mol
        Temperature                        2.9815E+02 K
        Density                            1.0000E+00 kg/L
        Solvent mass                       1.8000E+01 g/mol
        Interaction kernel             P16
        Born radius scaling (c1)           1.4744E+00
        Born radii integrator          GBOBC
        Born offset                        0.0000E+00 a0       0.0000E+00 AA
        H-bond correction              true
        Ion screening                  false
        Surface tension                    1.0000E-05 Eh       1.5569E+01 dyn/cm
        Grid points                               230 per atom
q/qsh data taken from xtbrestart
CAMM data taken from xtbrestart

          ...................................................
          :                      SETUP                      :
          :.................................................:
          :  # basis functions                  72          :
          :  # atomic orbitals                  72          :
          :  # shells                           42          :
          :  # electrons                        78          :
          :  max. iterations                   250          :
          :  Hamiltonian                  GFN2-xTB          :
          :  restarted?                       true          :
          :  GBSA solvation                   true          :
          :  PC potential                    false          :
          :  electronic temp.          300.0000000     K    :
          :  accuracy                    0.2000000          :
          :  -> integral cutoff          0.3198970E+02      :
          :  -> integral neglect         0.2000000E-08      :
          :  -> SCF convergence          0.2000000E-06 Eh   :
          :  -> wf. convergence          0.2000000E-04 e    :
          :  Broyden damping             0.4000000          :
          :  net charge                          0          :
          :  unpaired electrons                  0          :
          ...................................................

 iter      E             dE          RMSdq      gap      omega  full diag
   1    -44.3016924 -0.443017E+02  0.434E-03    3.54       0.0  T
   2    -44.3016925 -0.149248E-07  0.253E-03    3.54       7.6  T
   3    -44.3016925  0.474505E-08  0.670E-04    3.54      28.7  T
   4    -44.3016925 -0.643160E-08  0.212E-04    3.54      90.9  T
   5    -44.3016925 -0.758611E-09  0.704E-05    3.54     273.5  T
   6    -44.3016925 -0.198739E-10  0.376E-05    3.54     512.1  T

   *** convergence criteria satisfied after 6 iterations ***

         #    Occupation            Energy/Eh            Energy/eV
      -------------------------------------------------------------
         1        2.0000           -0.6970456             -18.9676
       ...           ...                  ...                  ...
        33        2.0000           -0.4190691             -11.4034
        34        2.0000           -0.4179990             -11.3743
        35        2.0000           -0.4168626             -11.3434
        36        2.0000           -0.4062045             -11.0534
        37        2.0000           -0.3834215             -10.4334
        38        2.0000           -0.3817767             -10.3887
        39        2.0000           -0.3633028              -9.8860 (HOMO)
        40                         -0.2330859              -6.3426 (LUMO)
        41                         -0.1993926              -5.4257
        42                         -0.1895140              -5.1569
        43                         -0.1586121              -4.3161
        44                         -0.0748398              -2.0365
       ...                                ...                  ...
        72                          0.7132143              19.4075
      -------------------------------------------------------------
                  HL-Gap            0.1302170 Eh            3.5434 eV
             Fermi-level           -0.2981944 Eh           -8.1143 eV

 SCC (total)                   0 d,  0 h,  0 min,  0.013 sec
 SCC setup                      ...        0 min,  0.000 sec (  2.790%)
 Dispersion                     ...        0 min,  0.000 sec (  1.091%)
 classical contributions        ...        0 min,  0.000 sec (  0.158%)
 integral evaluation            ...        0 min,  0.002 sec ( 12.731%)
 iterations                     ...        0 min,  0.006 sec ( 46.270%)
 molecular gradient             ...        0 min,  0.005 sec ( 36.486%)
 printout                       ...        0 min,  0.000 sec (  0.401%)

         :::::::::::::::::::::::::::::::::::::::::::::::::::::
         ::                     SUMMARY                     ::
         :::::::::::::::::::::::::::::::::::::::::::::::::::::
         :: total energy             -43.682778935912 Eh    ::
         :: total w/o Gsasa/hb       -43.674988646757 Eh    ::
         :: gradient norm              0.000224662546 Eh/a0 ::
         :: HOMO-LUMO gap              3.543383746693 eV    ::
         ::.................................................::
         :: SCC energy               -44.301528292894 Eh    ::
         :: -> isotropic ES            0.166491775094 Eh    ::
         :: -> anisotropic ES         -0.010082841791 Eh    ::
         :: -> anisotropic XC          0.016234971707 Eh    ::
         :: -> dispersion             -0.026296818792 Eh    ::
         :: -> Gsolv                  -0.064367995874 Eh    ::
         ::    -> Gelec               -0.056577706719 Eh    ::
         ::    -> Gsasa                0.001743789906 Eh    ::
         ::    -> Ghb                 -0.010614838759 Eh    ::
         ::    -> Gshift               0.001080759698 Eh    ::
         :: repulsion energy           0.618749356982 Eh    ::
         :: add. restraining           0.000000000000 Eh    ::
         :: total charge               0.000000000000 e     ::
         :::::::::::::::::::::::::::::::::::::::::::::::::::::


Property printout bound to 'properties.out'

           -------------------------------------------------
          | TOTAL ENERGY              -43.682778935912 Eh   |
          | GRADIENT NORM               0.000224662546 Eh/α |
          | HOMO-LUMO GAP               3.543383746693 eV   |
           -------------------------------------------------

------------------------------------------------------------------------
 * finished run on 2026/04/09 at 18:40:48.949     
------------------------------------------------------------------------
 total:
 * wall-time:     0 d,  0 h,  0 min,  0.018 sec
 *  cpu-time:     0 d,  0 h,  0 min,  0.016 sec
 * ratio c/w:     0.908 speedup
 SCF:
 * wall-time:     0 d,  0 h,  0 min,  0.013 sec
 *  cpu-time:     0 d,  0 h,  0 min,  0.011 sec
 * ratio c/w:     0.879 speedup


-------------------------   --------------------
FINAL SINGLE POINT ENERGY       -43.682778935910
-------------------------   --------------------


-------------
DIPOLE MOMENT
-------------
                                X             Y             Z
Total Dipole Moment    :     -4.69700      -2.52700       1.58100
                        -----------------------------------------
Magnitude (a.u.)       :      5.56301
Magnitude (Debye)      :     14.14005

                                *** OPTIMIZATION RUN DONE ***


--------------------------------
SUGGESTED CITATIONS FOR THIS RUN
--------------------------------

Below you find a list of papers that are relevant to this ORCA run
We neither can nor want to force you to cite these papers, but we appreciate if you do
You receive ORCA, which is the product of decades of hard work by many enthusiastic individuals, for free
The only thing we kindly ask in return is that you cite our papers,
We deeply appreciate it, if you show your appreciation for ORCA by not just citing the generic ORCA reference.

Please note that relegating all ORCA citations to the supporting information does *not* help us.
SI sections are not indexed - citations you put there will not count into any citation statistics
But we need these citations in order to attract the funding resources that allow us to do what we are doing

Therefore, if you are a happy ORCA user, please consider citing a few of the papers listed below in the main body of your paper

In addition to the list printed below, the program has created the file geo_opt.bibtex that contains the list in bibtex format
You can import this file easily into all common literature databanks and citation aid programs


List of essential papers. We consider these as the minimum necessary citations

  1. Bannwarth, C.; Ehlert, S.; Grimme, S.
     GFN2-xTB—An Accurate and Broadly Parametrized Self-Consistent Tight-Binding Quantum Chemical Method with Multipole Electrostatics and Density-Dependent Dispersion Contributions
     J. Chem. Theory Comput. 2019 15(3), 1652-1671
     doi.org/10.1021/acs.jctc.8b01176
  2. Neese, F.
     Software update: the ORCA program system, version 6.0
     WIRES Comput. Molec. Sci. 2025 15(1), e70019
     doi.org/10.1002/wcms.7019

List of papers to cite with high priority. The work reported in these papers was absolutely
necessary for this run to complete.
Our perspective: the developers of density functionals and basis sets usually get cited in chemistry papers
Good! But without the algorithms to do something with them, the functionals or basis sets would not do anything.
Hence, in our opinion, the algorithm design and method developments papers are equally worthy of getting cited

  1. Bannwarth, C.; Caldeweyher, E.; Ehlert, S.; Hansen, A.; Pracht, P.; Seibert, J.; Spicher, S.; Grimme, S.
     Extended tight-binding quantum chemistry methods
     WIRES Comput. Molec. Sci. 2020 11(2), e1493
     doi.org/10.1002/wcms.1493

List of suggested additional citations. These are papers that are important in the 'surrounding' of 
of this run, or papers that preceded the highly important papers. If you like your results we are grateful for a citation.

  1. Neese, F.
     The ORCA program system
     WIRES Comput. Molec. Sci. 2012 2(1), 73-78
     doi.org/10.1002/wcms.81
  2. Neese, F.
     Software update: the ORCA program system, version 4.0
     WIRES Comput. Molec. Sci. 2018 8(1), 1-6
     doi.org/10.1002/wcms.1327
  3. Neese, F.; Wennmohs, F.; Becker, U.; Riplinger, C.
     The ORCA quantum chemistry program package
     J. Chem. Phys. 2020 152(22), 224108
     doi.org/10.1063/5.0004608
  4. Neese, F.
     Software update: The ORCA program system—Version 5.0
     WIRES Comput. Molec. Sci. 2022 12(1), e1606
     doi.org/10.1002/wcms.1606

List of optional additional citations

  1. Neese, F.
     Approximate second-order SCF convergence for spin unrestricted wavefunctions
     Chem. Phys. Lett. 2000 325(1-3), 93-98
     doi.org/10.1016/s0009-2614(00)00662-x

Timings for individual modules:

Sum of individual times          ...        0.588 sec (=   0.010 min)
Geometry relaxation              ...        0.060 sec (=   0.001 min)  10.2 %
XTB module                       ...        0.528 sec (=   0.009 min)  89.8 %
                             ****ORCA TERMINATED NORMALLY****
TOTAL RUN TIME: 0 days 0 hours 0 minutes 0 seconds 659 msec
