27
zwitterion conformer 2
N       1.85308687     0.40561209     1.42827057
C       2.31700460     0.02451599     0.14768719
C       1.43296884     0.35229450    -0.99576333
C       0.11890941    -0.28619826    -0.89905255
C      -0.13538844    -1.53934843    -1.48363293
N      -1.39797216    -1.91112026    -1.21712028
C      -1.99348062    -0.95489873    -0.47994968
C      -3.28209799    -0.85284136     0.03111772
C      -3.61465627     0.27954553     0.74253448
C      -2.71093779     1.29961508     0.95634336
C      -1.45253713     1.14131554     0.42701672
C      -1.05720927     0.04309752    -0.28705410
C       3.71183605     0.54812491    -0.06452887
O       4.67381194     0.02854281     0.58470595
O       3.93376365     1.58759648    -0.96258647
H       0.84806849     0.36401304     1.62409841
H       2.35835403    -0.25723159     2.12028218
H       2.28257286     1.34202872     1.69062105
H       2.44889046    -1.09928285     0.12043501
H       1.95145162     0.09535180    -1.96285887
H       1.33055563     1.47631327    -1.05345853
H       0.54014975    -2.14908383    -2.06466471
H      -1.85526992    -2.81671906    -1.53473019
H      -3.97858322    -1.63967209    -0.13379733
H      -4.60498670     0.42100663     1.17073140
H      -3.01361316     2.17909234     1.52496701
H      -0.70469151     1.91833020     0.57038678
