17
Coordinates from ORCA-job geo_opt_tzvp E -492.697239403518
  N      -2.264370      0.462156     -0.361380
  C      -1.606982      0.554087      0.987107
  C      -0.105844      0.272461      1.055050
  O       0.431889      0.406575      2.170517
  N       0.547670     -0.100322     -0.052671
  C       1.969560     -0.415736     -0.090396
  C       2.360992     -0.869263     -1.521168
  O       3.572398     -1.184473     -1.683765
  O       1.436592     -0.881944     -2.390990
  H      -2.203355     -0.481365     -0.769028
  H      -1.867100      1.131799     -1.035031
  H      -3.266896      0.683328     -0.278385
  H      -1.781124      1.569853      1.359763
  H      -2.120935     -0.155548      1.645944
  H       0.116694     -0.235708     -0.974236
  H       2.572172      0.462649      0.187946
  H       2.208638     -1.218549      0.623605
17
Coordinates from ORCA-job geo_opt_tzvp E -492.697248871758
  N      -2.259897      0.462565     -0.361846
  C      -1.606904      0.553775      0.987450
  C      -0.106474      0.272585      1.056698
  O       0.431016      0.408332      2.171196
  N       0.546197     -0.101623     -0.050608
  C       1.967716     -0.415341     -0.090836
  C       2.357947     -0.869079     -1.521688
  O       3.568936     -1.182278     -1.685656
  O       1.433326     -0.884107     -2.390011
  H      -2.195410     -0.480236     -0.770684
  H      -1.861955      1.133802     -1.033460
  H      -3.263125      0.681592     -0.281571
  H      -1.782281      1.569256      1.360720
  H      -2.121868     -0.156825      1.644704
  H       0.113585     -0.238858     -0.971132
  H       2.569972      0.463926      0.186213
  H       2.209217     -1.217486      0.623394
17
Coordinates from ORCA-job geo_opt_tzvp E -492.697250208367
  N      -2.258594      0.463256     -0.362130
  C      -1.607055      0.553747      0.987328
  C      -0.106533      0.273071      1.057582
  O       0.431079      0.410682      2.171395
  N       0.545846     -0.103212     -0.049259
  C       1.967150     -0.415837     -0.091001
  C       2.356983     -0.869405     -1.522007
  O       3.568225     -1.180334     -1.686742
  O       1.432478     -0.884608     -2.389884
  H      -2.192184     -0.478852     -0.772218
  H      -1.861255      1.135912     -1.032710
  H      -3.262288      0.680499     -0.282691
  H      -1.783142      1.568819      1.361448
  H      -2.122374     -0.157319      1.643916
  H       0.112101     -0.242580     -0.968830
  H       2.569209      0.463805      0.185536
  H       2.210354     -1.217644      0.623149
17
Coordinates from ORCA-job geo_opt_tzvp E -492.697239544531
  N      -2.256479      0.464629     -0.362729
  C      -1.607455      0.553227      0.987128
  C      -0.106663      0.273496      1.059313
  O       0.431001      0.413509      2.172188
  N       0.545610     -0.104900     -0.047091
  C       1.966674     -0.415124     -0.091647
  C       2.356344     -0.865522     -1.523737
  O       3.566635     -1.179288     -1.688062
  O       1.429523     -0.891675     -2.388036
  H      -2.187462     -0.476257     -0.775164
  H      -1.859651      1.139512     -1.031430
  H      -3.260847      0.679449     -0.284852
  H      -1.784736      1.567339      1.363363
  H      -2.123415     -0.158929      1.642215
  H       0.109992     -0.246518     -0.965293
  H       2.568080      0.464758      0.185886
  H       2.212849     -1.217707      0.620830
17
Coordinates from ORCA-job geo_opt_tzvp E -492.697250985445
  N      -2.258265      0.463051     -0.362272
  C      -1.607145      0.554095      0.987153
  C      -0.106570      0.273129      1.058246
  O       0.431171      0.411890      2.171748
  N       0.545768     -0.104166     -0.048436
  C       1.966962     -0.416422     -0.090988
  C       2.356946     -0.868002     -1.522640
  O       3.568326     -1.178434     -1.687567
  O       1.432049     -0.884411     -2.389980
  H      -2.192450     -0.479379     -0.771761
  H      -1.860272      1.134839     -1.033357
  H      -3.261892      0.680961     -0.283531
  H      -1.782957      1.569300      1.361028
  H      -2.122882     -0.156330      1.644145
  H       0.111304     -0.243833     -0.967625
  H       2.569043      0.462844      0.186746
  H       2.210865     -1.219133      0.621974
17
Coordinates from ORCA-job geo_opt_tzvp E -492.697251116916
  N      -2.258510      0.463173     -0.362261
  C      -1.607148      0.554147      0.987054
  C      -0.106464      0.273496      1.058097
  O       0.431300      0.412407      2.171595
  N       0.545821     -0.104455     -0.048436
  C       1.967020     -0.416664     -0.090936
  C       2.357159     -0.867941     -1.522660
  O       3.568725     -1.177850     -1.687591
  O       1.432231     -0.884591     -2.390020
  H      -2.192840     -0.479229     -0.771847
  H      -1.860679      1.134988     -1.033416
  H      -3.262126      0.681069     -0.283333
  H      -1.783056      1.569260      1.361140
  H      -2.122685     -0.156387      1.644080
  H       0.111200     -0.244326     -0.967501
  H       2.569088      0.462492      0.187140
  H       2.210964     -1.219588      0.621780
