17
Coordinates from ORCA-job geo_opt_tzvp E -492.697251116916
  N          -2.25850970419230      0.46317328333002     -0.36226130670960
  C          -1.60714813018752      0.55414697227770      0.98705352185048
  C          -0.10646389476486      0.27349594766758      1.05809652017418
  O           0.43130033755648      0.41240699530241      2.17159478927211
  N           0.54582141480740     -0.10445497166732     -0.04843592192674
  C           1.96701982546116     -0.41666446034304     -0.09093604911096
  C           2.35715934890301     -0.86794129092640     -1.52265962677325
  O           3.56872458969819     -1.17785009458952     -1.68759118970419
  O           1.43223082762834     -0.88459149541762     -2.39001994601129
  H          -2.19284024632716     -0.47922909973882     -0.77184663646683
  H          -1.86067882457807      1.13498833022336     -1.03341646993404
  H          -3.26212607288099      0.68106948202338     -0.28333346154094
  H          -1.78305619201636      1.56925958491421      1.36113962153375
  H          -2.12268515200607     -0.15638726744421      1.64407965557497
  H           0.11119972345249     -0.24432609702188     -0.96750059770170
  H           2.56908777803025      0.46249233952787      0.18713962889296
  H           2.21096437141600     -1.21958815811773      0.62177982858110
