17
zwitterion conformer 3
N      -2.26436995     0.46215614    -0.36137975
C      -1.60698179     0.55408669     0.98710716
C      -0.10584396     0.27246073     1.05504999
O       0.43188903     0.40657470     2.17051668
N       0.54767017    -0.10032171    -0.05267108
C       1.96955954    -0.41573597    -0.09039570
C       2.36099248    -0.86926309    -1.52116849
O       3.57239845    -1.18447276    -1.68376548
O       1.43659157    -0.88194379    -2.39098976
H      -2.20335482    -0.48136489    -0.76902762
H      -1.86709969     1.13179930    -1.03503055
H      -3.26689566     0.68332829    -0.27838531
H      -1.78112413     1.56985255     1.35976310
H      -2.12093532    -0.15554826     1.64594401
H       0.11669439    -0.23570804    -0.97423591
H       2.57217169     0.46264863     0.18794600
H       2.20863800    -1.21854852     0.62360507
