20
Coordinates from ORCA-job geo_opt_tzvp E -549.038263659993
  N       1.385734     -1.708820     -0.346067
  C       1.517685     -0.299439     -0.705021
  C       0.183674      0.240639     -1.295507
  C      -0.978372      0.192999     -0.350857
  C      -1.984072     -0.752298     -0.274460
  N      -2.799223     -0.348643      0.761428
  C      -2.279357      0.801613      1.272670
  N      -1.176174      1.162659      0.625913
  C       2.010391      0.589921      0.442649
  O       2.087246      0.254810      1.615129
  O       2.387801      1.817275      0.003820
  H       0.686625     -1.799587      0.398326
  H       2.265119     -2.041042      0.059332
  H       2.274739     -0.212171     -1.501127
  H      -0.038464     -0.371939     -2.180551
  H       0.343418      1.273282     -1.636858
  H      -2.190129     -1.645543     -0.854220
  H      -3.641895     -0.820243      1.079132
  H      -2.740539      1.332072      2.101377
  H       2.685791      2.334455      0.784891
20
Coordinates from ORCA-job geo_opt_tzvp E -549.038273870331
  N       1.386809     -1.707944     -0.345809
  C       1.517822     -0.299155     -0.704670
  C       0.183791      0.239963     -1.295541
  C      -0.978250      0.192589     -0.350980
  C      -1.984340     -0.752112     -0.274122
  N      -2.798954     -0.347604      0.761347
  C      -2.278149      0.801597      1.272614
  N      -1.175404      1.161862      0.625503
  C       2.009450      0.590126      0.443055
  O       2.086747      0.255105      1.614784
  O       2.385656      1.816942      0.005163
  H       0.686087     -1.801591      0.396802
  H       2.266110     -2.041967      0.058405
  H       2.275345     -0.211134     -1.500513
  H      -0.037937     -0.373000     -2.180520
  H       0.343285      1.272601     -1.637395
  H      -2.191038     -1.645207     -0.853846
  H      -3.642087     -0.818607      1.079177
  H      -2.738552      1.332320      2.101535
  H       2.683609      2.335218      0.785011
20
Coordinates from ORCA-job geo_opt_tzvp E -549.038277894880
  N       1.387774     -1.707109     -0.345130
  C       1.518100     -0.299127     -0.703946
  C       0.184117      0.239194     -1.295379
  C      -0.978090      0.192048     -0.351060
  C      -1.985264     -0.751635     -0.274524
  N      -2.798726     -0.347031      0.761500
  C      -2.277324      0.801589      1.272616
  N      -1.174347      1.160688      0.625663
  C       2.009304      0.590625      0.443675
  O       2.087519      0.255622      1.615020
  O       2.383339      1.817156      0.006037
  H       0.685006     -1.804073      0.394808
  H       2.266502     -2.043604      0.057676
  H       2.275907     -0.210636     -1.499599
  H      -0.037084     -0.373931     -2.180404
  H       0.343413      1.271824     -1.637517
  H      -2.192938     -1.644108     -0.854849
  H      -3.642027     -0.817615      1.079499
  H      -2.736902      1.332489      2.101874
  H       2.681720      2.337635      0.784039
20
Coordinates from ORCA-job geo_opt_tzvp E -549.038278723587
  N       1.387785     -1.706464     -0.343977
  C       1.518030     -0.298966     -0.703315
  C       0.184059      0.239043     -1.295035
  C      -0.978282      0.191623     -0.350893
  C      -1.985947     -0.751734     -0.275090
  N      -2.799750     -0.347001      0.760622
  C      -2.277200      0.800400      1.273425
  N      -1.174065      1.159524      0.626639
  C       2.009524      0.591673      0.443832
  O       2.089446      0.256594      1.615172
  O       2.384149      1.817461      0.005118
  H       0.683987     -1.804365      0.394707
  H       2.266150     -2.043894      0.058567
  H       2.275759     -0.210673     -1.499073
  H      -0.036813     -0.374053     -2.180145
  H       0.343145      1.271725     -1.637094
  H      -2.193989     -1.643589     -0.856237
  H      -3.643628     -0.817127      1.077769
  H      -2.736441      1.330870      2.103149
  H       2.684080      2.338952      0.781858
20
Coordinates from ORCA-job geo_opt_tzvp E -549.038278821496
  N       1.387437     -1.706565     -0.343263
  C       1.518276     -0.299450     -0.703097
  C       0.184491      0.238956     -1.294915
  C      -0.977896      0.191528     -0.350829
  C      -1.986194     -0.751284     -0.275819
  N      -2.799682     -0.346969      0.760363
  C      -2.276464      0.799846      1.274060
  N      -1.173048      1.158842      0.627503
  C       2.010634      0.591697      0.443600
  O       2.090086      0.257157      1.615295
  O       2.382633      1.818167      0.004486
  H       0.682850     -1.804460      0.394588
  H       2.265377     -2.044683      0.059492
  H       2.275931     -0.211728     -1.498969
  H      -0.036450     -0.373916     -2.180146
  H       0.343763      1.271673     -1.636741
  H      -2.194739     -1.642512     -0.857749
  H      -3.643772     -0.816941      1.077178
  H      -2.735341      1.329935      2.104228
  H       2.682107      2.340707      0.780736
