20
Coordinates from ORCA-job geo_opt_tzvp E -549.038278821496
  N           1.38743696845499     -1.70656542721056     -0.34326345506590
  C           1.51827560688116     -0.29944970674912     -0.70309703860354
  C           0.18449080342982      0.23895569431993     -1.29491506384897
  C          -0.97789580455760      0.19152844292740     -0.35082929139389
  C          -1.98619352651960     -0.75128414760416     -0.27581908709639
  N          -2.79968215913671     -0.34696909608668      0.76036260365501
  C          -2.27646426658422      0.79984634524897      1.27405988441561
  N          -1.17304765756722      1.15884211189458      0.62750256668007
  C           2.01063397177463      0.59169707989141      0.44360047644957
  O           2.09008617600731      0.25715665795855      1.61529502693896
  O           2.38263297693365      1.81816738736697      0.00448606645336
  H           0.68285035081752     -1.80445968913470      0.39458822246590
  H           2.26537660427197     -2.04468330927836      0.05949249783628
  H           2.27593110840246     -0.21172796615796     -1.49896865227286
  H          -0.03644961489448     -0.37391634282365     -2.18014640573278
  H           0.34376313758504      1.27167332638451     -1.63674104809736
  H          -2.19473856399076     -1.64251216333639     -0.85774891366815
  H          -3.64377234447594     -0.81694145377499      1.07717750655802
  H          -2.73534112399051      1.32993531415864      2.10422787515901
  H           2.68210738715850      2.34070695200561      0.78073621916804
