20
neutral_epsilon conformer 1
N       1.38573411    -1.70881969    -0.34606663
C       1.51768539    -0.29943924    -0.70502096
C       0.18367401     0.24063915    -1.29550659
C      -0.97837185     0.19299865    -0.35085733
C      -1.98407177    -0.75229804    -0.27446031
N      -2.79922259    -0.34864265     0.76142809
C      -2.27935701     0.80161344     1.27267020
N      -1.17617365     1.16265850     0.62591252
C       2.01039118     0.58992125     0.44264936
O       2.08724604     0.25480980     1.61512879
O       2.38780122     1.81727479     0.00382026
H       0.68662487    -1.79958729     0.39832625
H       2.26511938    -2.04104236     0.05933226
H       2.27473933    -0.21217127    -1.50112714
H      -0.03846413    -0.37193927    -2.18055068
H       0.34341757     1.27328208    -1.63685800
H      -2.19012924    -1.64554261    -0.85421951
H      -3.64189521    -0.82024274     1.07913173
H      -2.74053871     1.33207201     2.10137679
H       2.68579109     2.33445550     0.78489089
