20
Coordinates from ORCA-job geo_opt_tzvp E -549.053291779812
  N           1.59054387116050      0.98204545229803     -0.94496183401891
  C           1.67546918463438     -0.31427268345787     -0.18335839468814
  C           0.44414382089103     -1.19465881412681     -0.45319098496276
  C          -0.85880088778970     -0.51200498451862     -0.16303169761531
  C          -1.90667293646483     -0.90795213676191      0.64132241854080
  N          -2.85457786609921      0.08851819886359      0.53609849030089
  C          -2.37316581365802      1.04379388321098     -0.29986779114042
  N          -1.16638669346459      0.71273200960081     -0.74855537818132
  C           1.91100461193330      0.05074582042262      1.31965873408030
  O           1.84784775269396     -0.89715500988619      2.14189172103829
  O           2.18541490558026      1.26822125506807      1.55382534108690
  H           2.08278022552808      0.96538380595295     -1.84408235158151
  H           2.00667816792648      1.68556405677855     -0.29447145870917
  H           0.57453963214241      1.22156720147744     -1.09491594049993
  H           2.57734554567547     -0.83770621984345     -0.53038109458264
  H           0.53881978679872     -2.09701590619085      0.16313494997120
  H           0.47165402550568     -1.51879642839656     -1.50698478361724
  H          -2.05930506588550     -1.78589378577309      1.25908555750440
  H          -3.76092180207814      0.10230781456526      0.99715840937114
  H          -2.92641045503027      1.94457649071705     -0.54837389229657
