20
Coordinates from ORCA-job geo_opt_tzvp E -549.053276510875
  N       1.590644      0.986445     -0.938437
  C       1.674228     -0.317584     -0.186223
  C       0.442466     -1.196001     -0.462527
  C      -0.860004     -0.512974     -0.171627
  C      -1.894413     -0.895615      0.656175
  N      -2.847049      0.096511      0.545715
  C      -2.380266      1.036348     -0.316755
  N      -1.179168      0.699650     -0.777589
  C       1.905543      0.038927      1.319522
  O       1.852571     -0.915792      2.135640
  O       2.165281      1.259447      1.562362
  H       2.103739      0.983353     -1.825900
  H       1.987928      1.684286     -0.268358
  H       0.578326      1.220334     -1.107772
  H       2.576374     -0.837875     -0.536189
  H       0.535187     -2.100402      0.150988
  H       0.471151     -1.515343     -1.517438
  H      -2.035475     -1.761270      1.293759
  H      -3.746477      0.117470      1.019561
  H      -2.940587      1.930087     -0.574906
20
Coordinates from ORCA-job geo_opt_tzvp E -549.053281359824
  N       1.590009      0.985114     -0.939481
  C       1.674278     -0.316898     -0.185694
  C       0.442723     -1.195611     -0.460862
  C      -0.859711     -0.512721     -0.169921
  C      -1.896306     -0.897213      0.654154
  N      -2.847951      0.095352      0.543935
  C      -2.378423      1.037605     -0.313689
  N      -1.176206      0.702243     -0.771473
  C       1.906181      0.040965      1.319316
  O       1.853055     -0.912340      2.135887
  O       2.168211      1.260334      1.560875
  H       2.101273      0.980581     -1.827943
  H       1.988036      1.684537     -0.271541
  H       0.577202      1.218443     -1.107934
  H       2.576520     -0.837607     -0.535377
  H       0.535879     -2.099975      0.152774
  H       0.471269     -1.515317     -1.515807
  H      -2.039652     -1.765063      1.288185
  H      -3.749006      0.115009      1.015029
  H      -2.937382      1.932562     -0.570430
20
Coordinates from ORCA-job geo_opt_tzvp E -549.053267073244
  N       1.589154      0.983799     -0.940652
  C       1.675654     -0.316090     -0.185866
  C       0.443869     -1.195380     -0.457420
  C      -0.858475     -0.512368     -0.166637
  C      -1.899269     -0.899855      0.650721
  N      -2.848770      0.094236      0.541351
  C      -2.375100      1.039577     -0.309715
  N      -1.171792      0.704850     -0.763839
  C       1.911927      0.042400      1.318046
  O       1.851461     -0.908240      2.135926
  O       2.163794      1.262727      1.559876
  H       2.092412      0.976739     -1.833642
  H       1.993763      1.684339     -0.278136
  H       0.574799      1.218919     -1.101441
  H       2.577197     -0.837527     -0.536933
  H       0.538001     -2.099028      0.157231
  H       0.471552     -1.517029     -1.511988
  H      -2.046391     -1.770938      1.279384
  H      -3.752045      0.112431      1.008490
  H      -2.931744      1.936438     -0.564757
20
Coordinates from ORCA-job geo_opt_tzvp E -549.053283378148
  N       1.587560      0.984168     -0.939851
  C       1.675086     -0.315042     -0.184549
  C       0.443442     -1.195108     -0.454639
  C      -0.859356     -0.512276     -0.165260
  C      -1.902990     -0.901516      0.647789
  N      -2.851578      0.093369      0.538219
  C      -2.375630      1.040093     -0.309925
  N      -1.171565      0.705343     -0.761971
  C       1.913005      0.044014      1.319098
  O       1.861655     -0.907901      2.136111
  O       2.179311      1.261633      1.558281
  H       2.086244      0.975731     -1.835435
  H       1.996089      1.685115     -0.280496
  H       0.572247      1.220677     -1.095942
  H       2.576528     -0.836471     -0.535992
  H       0.537872     -2.097976      0.161071
  H       0.471456     -1.518395     -1.508738
  H      -2.052123     -1.773992      1.274049
  H      -3.756055      0.110858      1.003001
  H      -2.931199      1.937677     -0.564822
20
Coordinates from ORCA-job geo_opt_tzvp E -549.053287598679
  N       1.590716      0.982907     -0.943239
  C       1.674818     -0.315640     -0.184648
  C       0.443356     -1.195363     -0.457298
  C      -0.859288     -0.512727     -0.166384
  C      -1.901563     -0.902867      0.648115
  N      -2.851206      0.091773      0.540428
  C      -2.375070      1.041391     -0.305182
  N      -1.170263      0.708398     -0.757917
  C       1.907492      0.046641      1.319504
  O       1.850368     -0.903821      2.139213
  O       2.174930      1.265417      1.556799
  H       2.096153      0.973289     -1.835059
  H       1.993556      1.685420     -0.282251
  H       0.576359      1.217424     -1.107180
  H       2.576915     -0.838188     -0.532103
  H       0.537324     -2.099132      0.157042
  H       0.471268     -1.516563     -1.511888
  H      -2.049945     -1.776300      1.273265
  H      -3.755286      0.108083      1.005757
  H      -2.930635      1.939858     -0.556972
20
Coordinates from ORCA-job geo_opt_tzvp E -549.053287686063
  N       1.589575      0.983299     -0.942234
  C       1.675168     -0.315227     -0.184483
  C       0.443555     -1.195165     -0.455488
  C      -0.859180     -0.512396     -0.165271
  C      -1.903073     -0.903324      0.646741
  N      -2.852026      0.091765      0.538795
  C      -2.375043      1.041317     -0.306158
  N      -1.169944      0.708174     -0.757625
  C       1.910711      0.046309      1.319306
  O       1.853932     -0.904181      2.138655
  O       2.178149      1.264704      1.556814
  H       2.089583      0.972807     -1.837090
  H       1.997487      1.685281     -0.283993
  H       0.574501      1.219721     -1.100007
  H       2.576840     -0.837615     -0.533505
  H       0.537841     -2.098302      0.159769
  H       0.471321     -1.517790     -1.509714
  H      -2.052528     -1.777251      1.270926
  H      -3.756679      0.108018      1.003114
  H      -2.930188      1.939855     -0.558552
20
Coordinates from ORCA-job geo_opt_tzvp E -549.053288567265
  N       1.589549      0.982837     -0.943035
  C       1.675349     -0.314814     -0.184082
  C       0.443799     -1.195018     -0.454184
  C      -0.859022     -0.512265     -0.164165
  C      -1.904768     -0.905071      0.644543
  N      -2.853093      0.090672      0.537440
  C      -2.374142      1.042334     -0.303951
  N      -1.168458      0.709721     -0.754202
  C       1.911561      0.047873      1.319345
  O       1.853278     -0.901746      2.139600
  O       2.181049      1.265946      1.555658
  H       2.086187      0.970345     -1.839764
  H       2.000700      1.685398     -0.287738
  H       0.573977      1.220369     -1.097406
  H       2.576968     -0.837586     -0.532744
  H       0.538328     -2.097771      0.161604
  H       0.471412     -1.518455     -1.508190
  H      -2.055728     -1.780598      1.266116
  H      -3.758582      0.106020      1.000173
  H      -2.928362      1.941807     -0.555019
20
Coordinates from ORCA-job geo_opt_tzvp E -549.053290140791
  N       1.590125      0.982319     -0.944303
  C       1.675499     -0.314396     -0.183587
  C       0.444066     -1.194763     -0.453242
  C      -0.858849     -0.512063     -0.163194
  C      -1.906362     -0.907232      0.642039
  N      -2.854219      0.089191      0.536386
  C      -2.373490      1.043336     -0.301238
  N      -1.166855      0.711919     -0.750004
  C       1.911591      0.049904      1.319529
  O       1.849782     -0.898485      2.141209
  O       2.184729      1.267532      1.554273
  H       2.083175      0.966941     -1.842994
  H       2.005137      1.685534     -0.292606
  H       0.574136      1.221357     -1.094991
  H       2.577206     -0.837692     -0.531239
  H       0.538757     -2.097168      0.163014
  H       0.471549     -1.518867     -1.507053
  H      -2.058665     -1.784570      1.260730
  H      -3.760375      0.103435      0.997817
  H      -2.926938      1.943769     -0.550545
20
Coordinates from ORCA-job geo_opt_tzvp E -549.053291779812
  N       1.590544      0.982045     -0.944962
  C       1.675469     -0.314273     -0.183358
  C       0.444144     -1.194659     -0.453191
  C      -0.858801     -0.512005     -0.163032
  C      -1.906673     -0.907952      0.641322
  N      -2.854578      0.088518      0.536098
  C      -2.373166      1.043794     -0.299868
  N      -1.166387      0.712732     -0.748555
  C       1.911005      0.050746      1.319659
  O       1.847848     -0.897155      2.141892
  O       2.185415      1.268221      1.553825
  H       2.082780      0.965384     -1.844082
  H       2.006678      1.685564     -0.294471
  H       0.574540      1.221567     -1.094916
  H       2.577346     -0.837706     -0.530381
  H       0.538820     -2.097016      0.163135
  H       0.471654     -1.518796     -1.506985
  H      -2.059305     -1.785894      1.259086
  H      -3.760922      0.102308      0.997158
  H      -2.926410      1.944576     -0.548374
