20
zwitterion conformer 1
N       1.59064391     0.98644536    -0.93843651
C       1.67422827    -0.31758447    -0.18622288
C       0.44246632    -1.19600137    -0.46252654
C      -0.86000355    -0.51297365    -0.17162718
C      -1.89441334    -0.89561506     0.65617540
N      -2.84704898     0.09651129     0.54571487
C      -2.38026645     1.03634772    -0.31675532
N      -1.17916845     0.69964969    -0.77758947
C       1.90554340     0.03892666     1.31952159
O       1.85257124    -0.91579235     2.13563964
O       2.16528150     1.25944697     1.56236174
H       2.10373906     0.98335277    -1.82590019
H       1.98792796     1.68428600    -0.26835806
H       0.57832565     1.22033359    -1.10777197
H       2.57637383    -0.83787522    -0.53618936
H       0.53518715    -2.10040250     0.15098812
H       0.47115092    -1.51534308    -1.51743761
H      -2.03547466    -1.76126992     1.29375865
H      -3.74647699     0.11747037     1.01956121
H      -2.94058678     1.93008722    -0.57490611
