20
Coordinates from ORCA-job geo_opt_tzvp E -549.035991807548
  N      -1.423861     -0.756998      1.231575
  C      -1.439018     -0.488040     -0.217737
  C      -0.141730     -1.023824     -0.871016
  C       1.109897     -0.344001     -0.411054
  C       2.227018      0.114699     -1.084454
  N       3.145743      0.654690     -0.197873
  C       2.586081      0.528071      1.002611
  N       1.367551     -0.075393      0.920392
  C      -1.632105      0.988642     -0.548552
  O      -1.573544      1.433366     -1.685922
  O      -1.915253      1.755867      0.527741
  H      -2.267256     -0.373117      1.665462
  H      -1.477829     -1.771303      1.364403
  H      -2.284511     -0.986296     -0.732214
  H      -0.219575     -0.925747     -1.961378
  H      -0.100473     -2.104048     -0.650603
  H       2.416709      0.081340     -2.154531
  H       3.014736      0.855266      1.946117
  H       0.666976     -0.237370      1.651094
  H      -2.059556      2.674198      0.205939
20
Coordinates from ORCA-job geo_opt_tzvp E -549.036000193414
  N      -1.425782     -0.756941      1.230466
  C      -1.439049     -0.487294     -0.217871
  C      -0.141549     -1.023622     -0.869978
  C       1.110203     -0.343860     -0.410595
  C       2.226943      0.114913     -1.084407
  N       3.145740      0.654611     -0.198510
  C       2.587266      0.527381      1.001945
  N       1.368836     -0.075463      0.920340
  C      -1.631853      0.989198     -0.548535
  O      -1.571185      1.434240     -1.684923
  O      -1.918666      1.755460      0.526204
  H      -2.268498     -0.372801      1.665433
  H      -1.477138     -1.771228      1.364417
  H      -2.284288     -0.985434     -0.733342
  H      -0.219050     -0.926581     -1.960538
  H      -0.100776     -2.103832     -0.648651
  H       2.416087      0.081706     -2.154558
  H       3.016599      0.854094      1.945251
  H       0.669147     -0.238475      1.651811
  H      -2.062989      2.673931      0.206041
20
Coordinates from ORCA-job geo_opt_tzvp E -549.036004713378
  N      -1.428824     -0.757546      1.228804
  C      -1.439562     -0.487035     -0.218269
  C      -0.141707     -1.024049     -0.868725
  C       1.109950     -0.343962     -0.410068
  C       2.225979      0.115562     -1.084701
  N       3.145109      0.654843     -0.199577
  C       2.587700      0.527961      1.001072
  N       1.369647     -0.075186      0.920404
  C      -1.631668      0.989447     -0.548685
  O      -1.564910      1.435489     -1.683967
  O      -1.920892      1.754540      0.525016
  H      -2.270317     -0.373073      1.665347
  H      -1.476281     -1.771555      1.364531
  H      -2.284324     -0.984637     -0.735592
  H      -0.218606     -0.928672     -1.959522
  H      -0.101399     -2.104067     -0.645998
  H       2.414217      0.082618     -2.155030
  H       3.017594      0.854903      1.944041
  H       0.671629     -0.239733      1.652930
  H      -2.063333      2.674151      0.207989
20
Coordinates from ORCA-job geo_opt_tzvp E -549.036004768448
  N      -1.429521     -0.756962      1.228155
  C      -1.439163     -0.485889     -0.218332
  C      -0.141420     -1.023859     -0.868165
  C       1.110599     -0.344463     -0.409704
  C       2.226576      0.114841     -1.084782
  N       3.145965      0.654176     -0.200084
  C       2.589492      0.526653      1.000947
  N       1.371099     -0.075930      0.920695
  C      -1.630063      0.990878     -0.548613
  O      -1.564015      1.436586     -1.684192
  O      -1.926757      1.754295      0.523908
  H      -2.270125     -0.372136      1.665747
  H      -1.475321     -1.770793      1.364653
  H      -2.283966     -0.982639     -0.736679
  H      -0.217903     -0.929156     -1.959042
  H      -0.102002     -2.103791     -0.644905
  H       2.414191      0.082063     -2.155238
  H       3.019875      0.853357      1.943786
  H       0.674210     -0.241094      1.653941
  H      -2.071749      2.673864      0.207903
20
Coordinates from ORCA-job geo_opt_tzvp E -549.036006139166
  N      -1.429445     -0.757316      1.228307
  C      -1.439485     -0.486462     -0.218376
  C      -0.141618     -1.024077     -0.868397
  C       1.110220     -0.344373     -0.409808
  C       2.226200      0.115017     -1.084823
  N       3.145419      0.654906     -0.200101
  C       2.588792      0.527326      1.000967
  N       1.370427     -0.075531      0.920644
  C      -1.630876      0.990312     -0.548692
  O      -1.563150      1.436378     -1.684191
  O      -1.924620      1.754262      0.524545
  H      -2.270270     -0.372590      1.665631
  H      -1.475663     -1.771199      1.364594
  H      -2.284185     -0.983313     -0.736677
  H      -0.218115     -0.929266     -1.959248
  H      -0.101871     -2.104005     -0.645254
  H       2.413944      0.082020     -2.155244
  H       3.018937      0.854328      1.943806
  H       0.673485     -0.240502      1.653885
  H      -2.068126      2.674085      0.208431
20
Coordinates from ORCA-job geo_opt_tzvp E -549.036006260133
  N      -1.429571     -0.757470      1.228258
  C      -1.439506     -0.486490     -0.218382
  C      -0.141624     -1.024154     -0.868391
  C       1.110220     -0.344474     -0.409778
  C       2.226140      0.114912     -1.084891
  N       3.145718      0.654396     -0.200224
  C       2.588774      0.527627      1.000832
  N       1.370405     -0.075346      0.920635
  C      -1.630777      0.990388     -0.548546
  O      -1.562315      1.436676     -1.683979
  O      -1.925031      1.754109      0.524789
  H      -2.270397     -0.372732      1.665559
  H      -1.475851     -1.771363      1.364418
  H      -2.284183     -0.983057     -0.736989
  H      -0.218030     -0.929403     -1.959245
  H      -0.101931     -2.104072     -0.645206
  H       2.413803      0.081727     -2.155318
  H       3.018862      0.854873      1.943610
  H       0.673699     -0.240147      1.654098
  H      -2.068405      2.674001      0.208752
