20
Coordinates from ORCA-job geo_opt_tzvp E -549.036006260133
  N          -1.42957129350116     -0.75747003463201      1.22825790290609
  C          -1.43950569559455     -0.48648959147340     -0.21838242701116
  C          -0.14162415015155     -1.02415434140534     -0.86839115864283
  C           1.11021983264358     -0.34447386674839     -0.40977817295799
  C           2.22614030892212      0.11491214125679     -1.08489101797980
  N           3.14571755710035      0.65439562005106     -0.20022424202511
  C           2.58877399455847      0.52762728182196      1.00083209076117
  N           1.37040512702374     -0.07534628034368      0.92063461388630
  C          -1.63077665757420      0.99038773137382     -0.54854602182141
  O          -1.56231469389326      1.43667571901407     -1.68397938542794
  O          -1.92503147072956      1.75410929689372      0.52478929724364
  H          -2.27039713550121     -0.37273204296051      1.66555906532134
  H          -1.47585129358164     -1.77136287492428      1.36441757848764
  H          -2.28418310060053     -0.98305736990298     -0.73698865323487
  H          -0.21802957428688     -0.92940290603575     -1.95924520406381
  H          -0.10193122689746     -2.10407183914374     -0.64520563024092
  H           2.41380274319998      0.08172667191191     -2.15531844876699
  H           3.01886225413647      0.85487319539662      1.94360950980504
  H           0.67369929589699     -0.24014702531478      1.65409825962843
  H          -2.06840481116971      2.67400050516490      0.20875201413317
