20
neutral_delta conformer 3
N      -1.42386144    -0.75699786     1.23157478
C      -1.43901803    -0.48804022    -0.21773657
C      -0.14173012    -1.02382368    -0.87101648
C       1.10989652    -0.34400130    -0.41105446
C       2.22701847     0.11469878    -1.08445372
N       3.14574318     0.65468987    -0.19787322
C       2.58608128     0.52807054     1.00261139
N       1.36755139    -0.07539269     0.92039244
C      -1.63210526     0.98864210    -0.54855200
O      -1.57354379     1.43336584    -1.68592158
O      -1.91525257     1.75586683     0.52774063
H      -2.26725628    -0.37311744     1.66546160
H      -1.47782918    -1.77130339     1.36440288
H      -2.28451117    -0.98629561    -0.73221443
H      -0.21957502    -0.92574742    -1.96137795
H      -0.10047287    -2.10404778    -0.65060251
H       2.41670880     0.08133980    -2.15453084
H       3.01473607     0.85526565     1.94611659
H       0.66697553    -0.23737038     1.65109432
H      -2.05955550     2.67419835     0.20593910
