13
zwitterion CPCM-opt conformer 1
C       1.43222572    -0.05225971     0.05796466
C      -0.05172903    -0.20279126     0.36909747
N      -0.78632064     1.10632238     0.19374549
C      -0.77856027    -1.23087320    -0.55819303
O      -1.74309713    -0.76505770    -1.24529528
O      -0.35016317    -2.40946480    -0.53197736
H       1.92430489    -1.02580505     0.16900271
H       1.90915313     0.65827326     0.74741828
H       1.58343740     0.29751625    -0.97415913
H      -0.19690715    -0.51886782     1.41018681
H      -1.52668002     0.84633207    -0.51661726
H      -1.22540890     1.44215618     1.05752284
H      -0.19025482     1.85451941    -0.17869619
