24
zwitterion CPCM-opt conformer 3
N      -2.18274283     1.08735902     0.92855632
C      -2.50953243    -0.37617560     0.89974244
C      -1.76775914    -1.23954294    -0.12457005
O      -2.15859154    -2.40647102    -0.27534652
N      -0.72822652    -0.67969147    -0.77885432
C       0.26957621    -1.46009970    -1.52355656
C       1.58147428    -1.18632913    -0.77502576
O       2.02782679    -1.96214207     0.08098623
N       2.09992971     0.04982618    -1.02313388
C       2.74701364     0.82616866     0.02438529
C       1.73557718     1.58624242     0.93607126
O       0.49352433     1.50784170     0.62795909
O       2.22511721     2.22725731     1.89225616
H      -2.67567054     1.53605260     1.71211444
H      -1.14705672     1.29442048     1.04004573
H      -2.49844931     1.55909414     0.07003089
H      -3.58588781    -0.47704058     0.72156763
H      -2.28304334    -0.78014917     1.89501591
H      -0.35960225     0.22846376    -0.44233029
H       0.31541149    -1.12909589    -2.57188583
H       0.01046252    -2.52257620    -1.48107345
H       1.61618328     0.60150822    -1.72940739
H       3.42903531     1.56048099    -0.42556033
H       3.34543046     0.15459832     0.65212761
