24
Coordinates from ORCA-job geo_opt E -43.543678500210
  N          -2.71006746165240      1.39358713970406     -0.95655631653874
  C          -2.05749461696666      1.01880865300428      0.31137950688005
  C          -1.29674559009869     -0.28073148994244      0.05303900802238
  O          -1.22434257019792     -0.70535660431740     -1.09875714113187
  N          -0.81729305929902     -0.90586970846521      1.12760451887122
  C           0.11392432742397     -2.01458246507155      1.00596214470112
  C           1.50829624383065     -1.43468691705508      0.74008043898485
  O           2.34851018199632     -1.33398635365269      1.62899502619270
  N           1.69414298620878     -1.03808140979407     -0.52828153103555
  C           2.66576516143831     -0.02051890892645     -0.84042489943038
  C           2.07862252161097      1.40605810519002     -0.53777972149597
  O           0.93518267735438      1.44147544882496     -0.04628910821560
  O           2.80318787230972      2.37345320218699     -0.82034746457687
  H          -2.30927320336579      0.71657980009829     -1.64922534764360
  H          -3.72755365186013      1.27830772268219     -0.92634702776636
  H          -2.47474221929314      2.34540879785263     -1.24873901795853
  H          -2.77089096944894      0.90077056753783      1.12377657377440
  H          -1.29281847168337      1.74730542173406      0.59049421845174
  H          -0.77440261140717     -0.39195768031241      1.99603912557089
  H           0.12308491017613     -2.57872387475013      1.93704951674165
  H          -0.19985924203974     -2.64515875178064      0.17272986103910
  H           0.87925198360383     -1.04675070199170     -1.13259808791730
  H           3.54518333346347     -0.15145340758477     -0.20695827531807
  H           2.96033145789640     -0.07389657517077     -1.88804237020127
