24
Coordinates from ORCA-job geo_opt E -43.476768567030
  N      -4.350544      0.554844     -0.140093
  C      -2.941768      0.931966     -0.203686
  C      -2.106326     -0.267329     -0.009571
  O      -2.594894     -1.428622      0.180365
  N      -0.689269     -0.173466     -0.027022
  C       0.061210     -1.389815      0.170022
  C       1.510921     -1.242269      0.143820
  O       2.213575     -2.295491      0.314382
  N       2.227148     -0.036082     -0.053770
  C       3.663460     -0.092763     -0.046624
  C       4.290833      1.219072     -0.261327
  O       3.600778      2.244699     -0.427597
  O       5.678813      1.280889     -0.273270
  H      -4.444556     -0.224562      0.578515
  H      -4.931199      1.325587      0.260277
  H      -4.678666      0.208728     -1.066308
  H      -2.719100      1.660027      0.602058
  H      -2.711609      1.380672     -1.213511
  H      -0.283843      0.769206     -0.181239
  H      -0.229385     -1.896600      1.127304
  H      -0.308275     -2.103270     -0.616597
  H       1.722713      0.840664     -0.195922
  H       3.986042     -0.473239      0.957716
  H       4.033942     -0.792845     -0.811120
24
Coordinates from ORCA-job geo_opt E -43.512927481870
  N      -4.286267      0.613232     -0.155330
  C      -2.851127      0.945933     -0.192934
  C      -2.052327     -0.296766      0.000272
  O      -2.585309     -1.404252      0.174635
  N      -0.687783     -0.221435     -0.012830
  C       0.066668     -1.436669      0.177524
  C       1.535409     -1.303289      0.154395
  O       2.231203     -2.325099      0.328746
  N       2.181018     -0.118166     -0.042251
  C       3.616695     -0.091714     -0.043650
  C       4.158312      1.284524     -0.278513
  O       3.406650      2.260317     -0.438540
  O       5.455298      1.401108     -0.305999
  H      -4.415739     -0.165278      0.525390
  H      -4.847504      1.389782      0.222236
  H      -4.612267      0.293094     -1.074995
  H      -2.608011      1.650751      0.610724
  H      -2.591488      1.396457     -1.163658
  H      -0.274264      0.689551     -0.155816
  H      -0.220023     -1.925948      1.125239
  H      -0.273960     -2.151907     -0.595298
  H       1.656398      0.732253     -0.186106
  H       3.979460     -0.445703      0.938395
  H       4.018959     -0.770774     -0.804832
24
Coordinates from ORCA-job geo_opt E -43.524417615140
  N      -4.211541      0.701914     -0.174581
  C      -2.753081      0.960977     -0.179540
  C      -2.017334     -0.350157      0.013047
  O      -2.629131     -1.395993      0.170092
  N      -0.686667     -0.295958      0.007888
  C       0.074221     -1.513446      0.190674
  C       1.571885     -1.400345      0.174644
  O       2.250474     -2.410035      0.352587
  N       2.144584     -0.217220     -0.025910
  C       3.578367     -0.071563     -0.042695
  C       4.005480      1.379365     -0.305737
  O       3.143211      2.266127     -0.452305
  O       5.215952      1.570453     -0.350939
  H      -4.392969     -0.084051      0.468932
  H      -4.741673      1.504302      0.178044
  H      -4.537031      0.416970     -1.101667
  H      -2.484001      1.637148      0.632100
  H      -2.451571      1.414910     -1.120128
  H      -0.244402      0.596208     -0.124023
  H      -0.211928     -1.988158      1.135901
  H      -0.231922     -2.231586     -0.579122
  H       1.591690      0.612149     -0.175087
  H       3.994693     -0.384055      0.920061
  H       4.022695     -0.717955     -0.805432
24
Coordinates from ORCA-job geo_opt E -43.527927474070
  N      -4.186315      0.735036     -0.196180
  C      -2.725593      0.973497     -0.155744
  C      -2.018130     -0.367188      0.021671
  O      -2.666407     -1.392290      0.168606
  N      -0.686786     -0.322428      0.023657
  C       0.074482     -1.541824      0.201583
  C       1.585339     -1.442441      0.191184
  O       2.250041     -2.458869      0.374421
  N       2.147795     -0.255087     -0.018199
  C       3.576719     -0.067518     -0.042828
  C       3.942435      1.412672     -0.330329
  O       3.009824      2.230310     -0.473603
  O       5.155029      1.663318     -0.396312
  H      -4.391384     -0.077897      0.405965
  H      -4.716688      1.537489      0.155938
  H      -4.490985      0.488176     -1.142052
  H      -2.465398      1.620719      0.681382
  H      -2.389746      1.450045     -1.073274
  H      -0.227313      0.563865     -0.096220
  H      -0.212210     -2.011654      1.148614
  H      -0.217572     -2.260146     -0.572242
  H       1.598885      0.575877     -0.179044
  H       4.017128     -0.352543      0.916534
  H       4.036849     -0.701119     -0.806726
24
Coordinates from ORCA-job geo_opt E -43.530186982060
  N      -4.134425      0.779854     -0.250480
  C      -2.680852      0.996084     -0.105605
  C      -2.014386     -0.380029      0.061811
  O      -2.709637     -1.379657      0.173938
  N      -0.681192     -0.355257      0.071989
  C       0.074210     -1.581005      0.230381
  C       1.599629     -1.499840      0.214501
  O       2.246298     -2.526323      0.401028
  N       2.152485     -0.308723     -0.009885
  C       3.569873     -0.066573     -0.058713
  C       3.825025      1.447254     -0.381279
  O       2.803703      2.154472     -0.495472
  O       5.012999      1.798258     -0.464492
  H      -4.374988     -0.078112      0.277627
  H      -4.680936      1.575327      0.095965
  H      -4.380317      0.594907     -1.230098
  H      -2.464404      1.596517      0.778579
  H      -2.272782      1.508240     -0.976952
  H      -0.192817      0.521743     -0.027130
  H      -0.204928     -2.053696      1.180200
  H      -0.205988     -2.291809     -0.555959
  H       1.615553      0.531750     -0.185394
  H       4.050504     -0.307053      0.894251
  H       4.047374     -0.676329     -0.832007
24
Coordinates from ORCA-job geo_opt E -43.530265141030
  N      -4.093498      0.809347     -0.276723
  C      -2.649564      1.013924     -0.065062
  C      -2.003900     -0.381230      0.050750
  O      -2.722842     -1.366889      0.141635
  N      -0.671515     -0.373592      0.084835
  C       0.073286     -1.605129      0.238077
  C       1.603651     -1.530353      0.238717
  O       2.240288     -2.559299      0.447036
  N       2.156706     -0.342562      0.002884
  C       3.564145     -0.064043     -0.037660
  C       3.730123      1.462131     -0.394496
  O       2.655362      2.062859     -0.589448
  O       4.889066      1.870428     -0.569964
  H      -4.336882     -0.097774      0.167029
  H      -4.657059      1.576974      0.104531
  H      -4.305611      0.704341     -1.277119
  H      -2.465758      1.554028      0.865028
  H      -2.200727      1.572923     -0.886852
  H      -0.163615      0.496979      0.022409
  H      -0.212239     -2.085947      1.182559
  H      -0.191354     -2.306026     -0.563159
  H       1.636509      0.507446     -0.204309
  H       4.049544     -0.255712      0.924017
  H       4.075885     -0.662824     -0.797911
24
Coordinates from ORCA-job geo_opt E -43.531275708390
  N      -4.067470      0.821808     -0.296844
  C      -2.631598      1.026444     -0.043836
  C      -1.991643     -0.371433      0.046508
  O      -2.717757     -1.353468      0.126508
  N      -0.660933     -0.378290      0.094855
  C       0.071602     -1.615031      0.253077
  C       1.600680     -1.542654      0.257577
  O       2.234239     -2.568862      0.493483
  N       2.158703     -0.364921     -0.004530
  C       3.560481     -0.073405     -0.053482
  C       3.669409      1.448282     -0.453054
  O       2.569905      2.018361     -0.595577
  O       4.809377      1.928496     -0.554431
  H      -4.300442     -0.114901      0.092398
  H      -4.648870      1.561275      0.111609
  H      -4.259454      0.768690     -1.305217
  H      -2.474458      1.530518      0.911287
  H      -2.159913      1.611251     -0.833233
  H      -0.142136      0.486868      0.052978
  H      -0.215795     -2.095446      1.196875
  H      -0.191989     -2.313498     -0.550729
  H       1.653491      0.490426     -0.249374
  H       4.051383     -0.224791      0.912728
  H       4.083190     -0.675718     -0.802774
24
Coordinates from ORCA-job geo_opt E -43.531731366690
  N      -4.062520      0.813735     -0.333686
  C      -2.639040      1.026494     -0.013092
  C      -1.989395     -0.361207      0.094635
  O      -2.702967     -1.356617      0.099385
  N      -0.659397     -0.369983      0.149078
  C       0.069746     -1.612715      0.272684
  C       1.593178     -1.534390      0.261227
  O       2.237274     -2.557557      0.488828
  N       2.148900     -0.358471     -0.007861
  C       3.553588     -0.074063     -0.072573
  C       3.683473      1.440819     -0.475413
  O       2.601089      2.045246     -0.621896
  O       4.828811      1.901273     -0.581775
  H      -4.298554     -0.133418      0.027314
  H      -4.671303      1.529734      0.074695
  H      -4.212486      0.783358     -1.348780
  H      -2.532008      1.519511      0.954060
  H      -2.136978      1.624903     -0.771801
  H      -0.144592      0.497693      0.133721
  H      -0.209949     -2.116327      1.205731
  H      -0.210750     -2.290783     -0.542104
  H       1.639405      0.496891     -0.255326
  H       4.048613     -0.228425      0.890346
  H       4.065860     -0.685701     -0.820592
24
Coordinates from ORCA-job geo_opt E -43.532326659400
  N      -4.042836      0.822353     -0.363013
  C      -2.637967      1.031391      0.035936
  C      -1.980320     -0.352912      0.081251
  O      -2.689523     -1.350847      0.017318
  N      -0.654020     -0.368560      0.184841
  C       0.068027     -1.617270      0.287748
  C       1.588286     -1.532950      0.291882
  O       2.237309     -2.544496      0.559921
  N       2.142988     -0.366179     -0.010028
  C       3.546736     -0.070572     -0.069432
  C       3.662043      1.426407     -0.530711
  O       2.575963      2.011001     -0.731446
  O       4.798812      1.898339     -0.650775
  H      -4.256833     -0.164631     -0.105994
  H      -4.689688      1.471388      0.094646
  H      -4.155683      0.892613     -1.380211
  H      -2.582629      1.454179      1.039988
  H      -2.108198      1.685482     -0.653816
  H      -0.139923      0.497791      0.242347
  H      -0.221777     -2.144187      1.204225
  H      -0.209411     -2.273574     -0.545363
  H       1.640848      0.478506     -0.314007
  H       4.029972     -0.178107      0.905215
  H       4.077826     -0.705165     -0.783719
24
Coordinates from ORCA-job geo_opt E -43.533149981280
  N      -3.977478      0.855696     -0.440492
  C      -2.630570      1.032092      0.136786
  C      -1.955816     -0.339927      0.076253
  O      -2.649130     -1.326950     -0.153505
  N      -0.645620     -0.377581      0.293527
  C       0.067100     -1.635185      0.334646
  C       1.581992     -1.533153      0.356816
  O       2.247121     -2.512818      0.697932
  N       2.120291     -0.380032     -0.011888
  C       3.519159     -0.056339     -0.084740
  C       3.596006      1.403462     -0.644973
  O       2.495146      1.938672     -0.905069
  O       4.715346      1.899100     -0.806652
  H      -4.140475     -0.176320     -0.389058
  H      -4.707395      1.364349      0.064965
  H      -4.001871      1.117437     -1.431236
  H      -2.698741      1.313143      1.188934
  H      -2.042937      1.778123     -0.392861
  H      -0.143685      0.470548      0.511266
  H      -0.233142     -2.217324      1.213320
  H      -0.207860     -2.237302     -0.538913
  H       1.620972      0.425781     -0.416432
  H       3.997896     -0.081733      0.897308
  H       4.073692     -0.723739     -0.749129
24
Coordinates from ORCA-job geo_opt E -43.533768726180
  N      -3.927869      0.890053     -0.478303
  C      -2.615650      1.024195      0.185675
  C      -1.929523     -0.337164      0.055740
  O      -2.605794     -1.303592     -0.288519
  N      -0.639899     -0.398984      0.365066
  C       0.069519     -1.659364      0.368510
  C       1.581137     -1.537434      0.395017
  O       2.266085     -2.481127      0.791731
  N       2.091665     -0.385851     -0.017833
  C       3.485540     -0.035566     -0.096301
  C       3.548392      1.394948     -0.717840
  O       2.443169      1.898723     -1.020765
  O       4.662487      1.900008     -0.889058
  H      -4.061479     -0.148228     -0.542150
  H      -4.698009      1.314779      0.044554
  H      -3.913155      1.261165     -1.433229
  H      -2.745469      1.221883      1.251163
  H      -2.004740      1.812236     -0.248078
  H      -0.156007      0.425390      0.689257
  H      -0.231518     -2.272776      1.225571
  H      -0.207648     -2.228316     -0.526287
  H       1.574546      0.379311     -0.472143
  H       3.956351     -0.011136      0.889831
  H       4.057871     -0.723151     -0.724805
24
Coordinates from ORCA-job geo_opt E -43.534927350990
  N      -3.813512      0.968162     -0.544246
  C      -2.568780      1.005007      0.249741
  C      -1.876532     -0.346147      0.034059
  O      -2.512655     -1.247004     -0.508145
  N      -0.638503     -0.465320      0.496037
  C       0.077657     -1.720741      0.438025
  C       1.587664     -1.553544      0.466723
  O       2.313113     -2.436564      0.918596
  N       2.032207     -0.397967     -0.015132
  C       3.409110      0.007185     -0.126242
  C       3.421447      1.395604     -0.833254
  O       2.295866      1.829794     -1.164504
  O       4.520078      1.931252     -1.028723
  H      -3.918922     -0.054301     -0.767607
  H      -4.638456      1.294965     -0.033358
  H      -3.726264      1.482450     -1.425652
  H      -2.797372      1.091455      1.313560
  H      -1.915369      1.826962     -0.035277
  H      -0.193011      0.306045      0.970818
  H      -0.211725     -2.381724      1.263319
  H      -0.198868     -2.237520     -0.488172
  H       1.464702      0.295558     -0.511626
  H       3.884486      0.104019      0.854047
  H       4.003639     -0.697628     -0.716181
24
Coordinates from ORCA-job geo_opt E -43.535940807670
  N      -3.651551      1.059321     -0.617435
  C      -2.498641      0.984696      0.299830
  C      -1.817734     -0.367217      0.035074
  O      -2.393417     -1.176603     -0.686786
  N      -0.651312     -0.562433      0.636235
  C       0.084076     -1.802671      0.519894
  C       1.593549     -1.580154      0.523632
  O       2.367725     -2.399009      1.006300
  N       1.957480     -0.416021     -0.011601
  C       3.306852      0.055117     -0.168074
  C       3.242099      1.411670     -0.937392
  O       2.091763      1.774188     -1.264086
  O       4.314470      1.995617     -1.153682
  H      -3.737990      0.070967     -0.968892
  H      -4.524820      1.332063     -0.157410
  H      -3.475720      1.675770     -1.416229
  H      -2.832469      0.995588      1.338967
  H      -1.796477      1.803684      0.150643
  H      -0.249504      0.149828      1.228354
  H      -0.170053     -2.499092      1.326782
  H      -0.201401     -2.281003     -0.423639
  H       1.324665      0.211331     -0.511830
  H       3.795656      0.211995      0.798332
  H       3.922756     -0.647631     -0.740184
24
Coordinates from ORCA-job geo_opt E -43.536865449510
  N      -3.442610      1.156497     -0.699021
  C      -2.419535      0.962142      0.344015
  C      -1.744605     -0.387128      0.043295
  O      -2.216968     -1.088282     -0.845682
  N      -0.685480     -0.679972      0.786704
  C       0.086967     -1.890605      0.616513
  C       1.589992     -1.595588      0.589173
  O       2.418075     -2.354383      1.076255
  N       1.871486     -0.431367      0.002317
  C       3.185419      0.099852     -0.227850
  C       3.019824      1.431769     -1.033439
  O       1.841895      1.736153     -1.311774
  O       4.055370      2.059540     -1.304657
  H      -3.482258      0.218021     -1.173618
  H      -4.368805      1.384217     -0.325341
  H      -3.168517      1.861284     -1.389996
  H      -2.876274      0.906229      1.333056
  H      -1.677264      1.759780      0.345587
  H      -0.353303     -0.038299      1.491965
  H      -0.117008     -2.618315      1.408367
  H      -0.205140     -2.340767     -0.338108
  H       1.172187      0.133604     -0.482564
  H       3.708907      0.305609      0.710811
  H       3.807644     -0.589990     -0.809202
24
Coordinates from ORCA-job geo_opt E -43.537891690350
  N      -3.157346      1.258227     -0.791860
  C      -2.286623      0.947401      0.353827
  C      -1.654607     -0.425355      0.056359
  O      -2.011633     -1.028774     -0.948579
  N      -0.734371     -0.824152      0.926533
  C       0.083444     -2.000114      0.735433
  C       1.574804     -1.631979      0.623222
  O       2.462941     -2.332964      1.088870
  N       1.761330     -0.461119      0.011593
  C       3.018361      0.148727     -0.304826
  C       2.701208      1.483401     -1.076993
  O       1.490467      1.725511     -1.243094
  O       3.673610      2.174838     -1.419875
  H      -3.172586      0.365782     -1.346467
  H      -4.111774      1.510314     -0.517862
  H      -2.768830      1.997307     -1.385827
  H      -2.855404      0.884434      1.281571
  H      -1.494368      1.687019      0.472421
  H      -0.466409     -0.233057      1.699688
  H      -0.041247     -2.718565      1.549257
  H      -0.228656     -2.470008     -0.202138
  H       0.985986      0.059103     -0.402796
  H       3.598517      0.376690      0.594017
  H       3.633188     -0.492668     -0.945672
24
Coordinates from ORCA-job geo_opt E -43.538817392530
  N      -3.040551      1.280754     -0.842045
  C      -2.228841      0.948759      0.340562
  C      -1.610124     -0.432619      0.065304
  O      -1.910112     -1.017839     -0.968343
  N      -0.766577     -0.876552      0.993887
  C       0.076088     -2.033368      0.801026
  C       1.557897     -1.645615      0.625288
  O       2.467214     -2.359472      1.032202
  N       1.724498     -0.476058      0.011149
  C       2.955400      0.154385     -0.357986
  C       2.566732      1.519484     -1.047931
  O       1.347505      1.766861     -1.103335
  O       3.501349      2.229708     -1.446140
  H      -3.039046      0.401735     -1.414005
  H      -4.000634      1.549930     -0.608895
  H      -2.610833      2.019452     -1.407348
  H      -2.835721      0.899593      1.243735
  H      -1.420586      1.666032      0.486305
  H      -0.531141     -0.294650      1.784861
  H      -0.000695     -2.729176      1.637553
  H      -0.249949     -2.534575     -0.115000
  H       0.926115      0.053974     -0.349050
  H       3.588239      0.357685      0.509794
  H       3.533772     -0.448427     -1.064787
24
Coordinates from ORCA-job geo_opt E -43.539847406250
  N      -2.757497      1.340088     -0.929000
  C      -2.072900      0.959910      0.318774
  C      -1.490017     -0.439669      0.079678
  O      -1.691123     -0.990005     -0.996674
  N      -0.803020     -0.969900      1.093748
  C       0.065140     -2.107831      0.917551
  C       1.517387     -1.693519      0.614982
  O       2.464829     -2.400324      0.950596
  N       1.620809     -0.528413     -0.009346
  C       2.780362      0.185622     -0.447272
  C       2.236431      1.566194     -0.993649
  O       1.006714      1.741056     -0.895295
  O       3.067144      2.352321     -1.464201
  H      -2.704697      0.483658     -1.529153
  H      -3.728696      1.629085     -0.785248
  H      -2.254801      2.083403     -1.423981
  H      -2.757377      0.934100      1.164439
  H      -1.240369      1.630802      0.534728
  H      -0.621802     -0.406055      1.912438
  H       0.071536     -2.744820      1.800498
  H      -0.290629     -2.677903      0.054905
  H       0.783736     -0.002965     -0.285212
  H       3.477783      0.382375      0.369931
  H       3.321059     -0.327208     -1.246434
24
Coordinates from ORCA-job geo_opt E -43.540100005790
  N      -2.770142      1.305544     -0.963285
  C      -2.042943      0.969363      0.273378
  C      -1.507983     -0.456195      0.093408
  O      -1.773666     -1.067208     -0.935677
  N      -0.791220     -0.949967      1.108383
  C       0.063369     -2.099591      0.934937
  C       1.506695     -1.722234      0.556857
  O       2.442434     -2.478249      0.810352
  N       1.619388     -0.538022     -0.027976
  C       2.775273      0.188377     -0.459541
  C       2.240873      1.610301     -0.889598
  O       1.015251      1.791021     -0.744411
  O       3.068090      2.416172     -1.331748
  H      -2.788477      0.413935     -1.510410
  H      -3.717388      1.654843     -0.794596
  H      -2.250594      1.987480     -1.525885
  H      -2.688401      1.016800      1.148668
  H      -1.182158      1.626114      0.408665
  H      -0.566035     -0.342734      1.883902
  H       0.101164     -2.700205      1.842593
  H      -0.330145     -2.706759      0.114395
  H       0.793481      0.036989     -0.219737
  H       3.503276      0.319403      0.344801
  H       3.279859     -0.275179     -1.310672
24
Coordinates from ORCA-job geo_opt E -43.540231596650
  N      -2.745010      1.322369     -0.959790
  C      -2.039767      0.966503      0.284924
  C      -1.493501     -0.451766      0.092759
  O      -1.744715     -1.049747     -0.948142
  N      -0.788198     -0.956267      1.111000
  C       0.067306     -2.106782      0.940488
  C       1.509727     -1.723422      0.568749
  O       2.449728     -2.474633      0.815844
  N       1.607426     -0.546940     -0.036798
  C       2.757650      0.196273     -0.461263
  C       2.220545      1.602243     -0.918362
  O       0.985306      1.759961     -0.820101
  O       3.049146      2.419473     -1.335909
  H      -2.746178      0.435493     -1.518089
  H      -3.701050      1.654606     -0.807510
  H      -2.218793      2.018630     -1.497200
  H      -2.703144      0.997613      1.148008
  H      -1.187157      1.629174      0.448926
  H      -0.583705     -0.360803      1.901060
  H       0.100100     -2.706953      1.849677
  H      -0.329205     -2.718465      0.124850
  H       0.778419      0.022210     -0.229976
  H       3.473301      0.342868      0.352456
  H       3.281769     -0.271640     -1.298795
24
Coordinates from ORCA-job geo_opt E -43.540304615400
  N      -2.769091      1.309153     -0.965243
  C      -2.055970      0.964629      0.277941
  C      -1.506253     -0.453146      0.090416
  O      -1.767154     -1.058620     -0.943243
  N      -0.781064     -0.940265      1.102439
  C       0.069504     -2.095558      0.940647
  C       1.514411     -1.724537      0.560078
  O       2.449498     -2.482653      0.800317
  N       1.617152     -0.544071     -0.037687
  C       2.771464      0.186960     -0.470258
  C       2.250848      1.609055     -0.890989
  O       1.020078      1.783539     -0.762727
  O       3.085871      2.421902     -1.304972
  H      -2.774774      0.416181     -1.513948
  H      -3.724881      1.641425     -0.810766
  H      -2.245878      2.000745     -1.511135
  H      -2.714959      0.999049      1.144287
  H      -1.206350      1.633528      0.433711
  H      -0.569335     -0.335950      1.883898
  H       0.101464     -2.686174      1.856637
  H      -0.335334     -2.715142      0.135621
  H       0.794322      0.042398     -0.210702
  H       3.507949      0.303202      0.329989
  H       3.268483     -0.275648     -1.327505
24
Coordinates from ORCA-job geo_opt E -43.540303975330
  N      -2.717029      1.318560     -0.979344
  C      -2.032732      0.962939      0.276863
  C      -1.491104     -0.458433      0.091138
  O      -1.734379     -1.054056     -0.952204
  N      -0.787852     -0.953933      1.113605
  C       0.069778     -2.104375      0.961002
  C       1.509414     -1.727606      0.560431
  O       2.452203     -2.477492      0.795170
  N       1.596289     -0.549994     -0.044226
  C       2.737774      0.189789     -0.492675
  C       2.199746      1.615157     -0.879722
  O       0.971029      1.781032     -0.720436
  O       3.020389      2.440324     -1.298190
  H      -2.713956      0.428519     -1.533346
  H      -3.675390      1.651870     -0.844402
  H      -2.179492      2.012491     -1.507670
  H      -2.708717      0.999369      1.129768
  H      -1.180896      1.623870      0.452879
  H      -0.587670     -0.352428      1.900318
  H       0.114640     -2.679795      1.885869
  H      -0.339018     -2.738744      0.169817
  H       0.768705      0.037126     -0.197633
  H       3.495102      0.294954      0.289331
  H       3.213166     -0.259144     -1.369540
24
Coordinates from ORCA-job geo_opt E -43.540335250810
  N      -2.753354      1.309809     -0.972662
  C      -2.054278      0.963098      0.278199
  C      -1.503515     -0.454671      0.090579
  O      -1.757215     -1.056839     -0.946688
  N      -0.781929     -0.940147      1.104287
  C       0.070892     -2.094024      0.951309
  C       1.513217     -1.724706      0.556089
  O       2.451226     -2.479410      0.795413
  N       1.610678     -0.547925     -0.048029
  C       2.762392      0.183142     -0.485348
  C       2.240905      1.612647     -0.876814
  O       1.010892      1.788084     -0.737809
  O       3.073228      2.432851     -1.282060
  H      -2.750551      0.416436     -1.521972
  H      -3.713074      1.635755     -0.829876
  H      -2.226208      2.005481     -1.508980
  H      -2.723774      0.994742      1.136487
  H      -1.207926      1.632361      0.447024
  H      -0.576889     -0.335514      1.887292
  H       0.109704     -2.671828      1.875152
  H      -0.339581     -2.725495      0.158423
  H       0.789536      0.046411     -0.207581
  H       3.514326      0.279518      0.302823
  H       3.241298     -0.269774     -1.358456
24
Coordinates from ORCA-job geo_opt E -43.540343122580
  N      -2.756785      1.308937     -0.972470
  C      -2.055878      0.963181      0.277655
  C      -1.502986     -0.454095      0.089722
  O      -1.757234     -1.057213     -0.946879
  N      -0.782421     -0.939631      1.104307
  C       0.071186     -2.093135      0.952293
  C       1.513076     -1.722989      0.557255
  O       2.451192     -2.477861      0.796412
  N       1.610387     -0.548121     -0.050870
  C       2.763829      0.181714     -0.486796
  C       2.245703      1.613481     -0.874341
  O       1.015918      1.790947     -0.738212
  O       3.080277      2.433515     -1.275469
  H      -2.753986      0.415624     -1.521808
  H      -3.716827      1.633275     -0.828301
  H      -2.231576      2.005517     -1.509523
  H      -2.724700      0.993771      1.136569
  H      -1.210468      1.633669      0.445708
  H      -0.578257     -0.334617      1.887249
  H       0.110410     -2.670016      1.876604
  H      -0.337963     -2.725251      0.159136
  H       0.789560      0.045968     -0.210575
  H       3.516765      0.273290      0.300819
  H       3.240779     -0.269961     -1.361682
24
Coordinates from ORCA-job geo_opt E -43.540358031510
  N      -2.759532      1.307540     -0.973657
  C      -2.058523      0.964442      0.277216
  C      -1.501875     -0.452194      0.089660
  O      -1.756608     -1.056543     -0.946106
  N      -0.782029     -0.936816      1.105147
  C       0.072198     -2.090474      0.956984
  C       1.512319     -1.720236      0.557560
  O       2.451918     -2.471979      0.802325
  N       1.608072     -0.552781     -0.064890
  C       2.764802      0.176850     -0.494349
  C       2.251538      1.614978     -0.864149
  O       1.021107      1.792216     -0.737242
  O       3.089597      2.440033     -1.247372
  H      -2.750963      0.414307     -1.523267
  H      -3.722275      1.624168     -0.830369
  H      -2.239365      2.008802     -1.509342
  H      -2.728892      0.991868      1.135064
  H      -1.215599      1.637305      0.447203
  H      -0.579805     -0.330931      1.888016
  H       0.114520     -2.661832      1.884336
  H      -0.336119     -2.726719      0.166653
  H       0.788422      0.041619     -0.226834
  H       3.521165      0.252653      0.291125
  H       3.235929     -0.266276     -1.376909
24
Coordinates from ORCA-job geo_opt E -43.540376680000
  N      -2.765043      1.303883     -0.975752
  C      -2.059375      0.966193      0.273912
  C      -1.500278     -0.450603      0.088864
  O      -1.755833     -1.057733     -0.944985
  N      -0.781310     -0.932344      1.105887
  C       0.073431     -2.086490      0.963556
  C       1.511435     -1.716779      0.557003
  O       2.454048     -2.461184      0.813010
  N       1.603581     -0.560495     -0.086765
  C       2.764049      0.169831     -0.506485
  C       2.260226      1.618883     -0.845391
  O       1.029757      1.798917     -0.726441
  O       3.105358      2.449277     -1.200871
  H      -2.752466      0.410001     -1.524407
  H      -3.730249      1.611883     -0.830071
  H      -2.252937      2.009599     -1.513173
  H      -2.727797      0.993186      1.133298
  H      -1.217682      1.641210      0.440553
  H      -0.579775     -0.323739      1.886797
  H       0.120256     -2.649348      1.895634
  H      -0.335039     -2.729029      0.178495
  H       0.784344      0.033364     -0.249269
  H       3.525950      0.219910      0.275151
  H       3.225348     -0.258392     -1.401746
24
Coordinates from ORCA-job geo_opt E -43.540430724720
  N      -2.782555      1.293344     -0.981158
  C      -2.058016      0.975188      0.262527
  C      -1.496942     -0.443632      0.088285
  O      -1.759964     -1.061233     -0.937496
  N      -0.774224     -0.914787      1.106620
  C       0.077614     -2.073217      0.978647
  C       1.511366     -1.708446      0.555637
  O       2.461865     -2.427762      0.852414
  N       1.594836     -0.590714     -0.154939
  C       2.762412      0.149339     -0.540057
  C       2.276976      1.623425     -0.785335
  O       1.045071      1.803593     -0.690814
  O       3.136889      2.470762     -1.055675
  H      -2.757513      0.396354     -1.525063
  H      -3.753994      1.576039     -0.825532
  H      -2.296944      2.010662     -1.527298
  H      -2.715912      1.006313      1.129884
  H      -1.216685      1.654403      0.411908
  H      -0.569042     -0.297388      1.879639
  H       0.134091     -2.614988      1.922149
  H      -0.333250     -2.730064      0.207050
  H       0.776269     -0.000763     -0.326897
  H       3.534695      0.130359      0.231407
  H       3.202958     -0.226786     -1.469097
24
Coordinates from ORCA-job geo_opt E -43.540528509030
  N      -2.799793      1.283993     -0.984671
  C      -2.049447      0.984964      0.248104
  C      -1.494846     -0.438506      0.086685
  O      -1.769457     -1.067671     -0.929021
  N      -0.765992     -0.899139      1.104734
  C       0.081353     -2.062317      0.986769
  C       1.513338     -1.702680      0.554095
  O       2.470067     -2.396373      0.889234
  N       1.590565     -0.619834     -0.210675
  C       2.759776      0.134493     -0.563990
  C       2.283263      1.622991     -0.730324
  O       1.050407      1.801091     -0.651277
  O       3.151689      2.480983     -0.931538
  H      -2.775087      0.382278     -1.520953
  H      -3.772083      1.554174     -0.812061
  H      -2.336790      2.003874     -1.546616
  H      -2.688898      1.029547      1.128498
  H      -1.202811      1.663286      0.369601
  H      -0.551669     -0.272284      1.867511
  H       0.143071     -2.589896      1.937760
  H      -0.332524     -2.727574      0.224353
  H       0.770178     -0.036611     -0.390928
  H       3.537300      0.064339      0.198453
  H       3.188391     -0.193127     -1.516939
24
Coordinates from ORCA-job geo_opt E -43.540630293770
  N      -2.818405      1.276486     -0.986190
  C      -2.038515      0.997919      0.232817
  C      -1.490123     -0.429641      0.083497
  O      -1.777941     -1.070260     -0.921485
  N      -0.754629     -0.880830      1.100374
  C       0.086284     -2.050110      0.992635
  C       1.517363     -1.695619      0.554772
  O       2.480184     -2.356523      0.935761
  N       1.590243     -0.655928     -0.270001
  C       2.757811      0.118693     -0.586583
  C       2.282431      1.614557     -0.672568
  O       1.048152      1.786653     -0.612550
  O       3.154206      2.483188     -0.801103
  H      -2.791696      0.370520     -1.515483
  H      -3.791664      1.529662     -0.793800
  H      -2.382876      2.000900     -1.563803
  H      -2.656440      1.056503      1.127551
  H      -1.186987      1.675032      0.323604
  H      -0.530810     -0.245382      1.853205
  H       0.150162     -2.565515      1.949960
  H      -0.330470     -2.721263      0.237233
  H       0.766207     -0.085170     -0.467317
  H       3.538509      0.001682      0.165978
  H       3.179004     -0.155555     -1.559701
24
Coordinates from ORCA-job geo_opt E -43.540890451680
  N      -2.842321      1.271903     -0.975706
  C      -2.019704      1.009326      0.218862
  C      -1.491589     -0.423787      0.079907
  O      -1.799528     -1.073936     -0.913441
  N      -0.743018     -0.871250      1.089680
  C       0.085136     -2.049502      0.977322
  C       1.523461     -1.697220      0.562512
  O       2.485471     -2.329232      0.989778
  N       1.603066     -0.680644     -0.294029
  C       2.763218      0.116835     -0.580757
  C       2.275024      1.609607     -0.652214
  O       1.038358      1.768261     -0.594612
  O       3.140581      2.486574     -0.762939
  H      -2.830408      0.360882     -1.496014
  H      -3.808312      1.527608     -0.752325
  H      -2.427841      1.989210     -1.577518
  H      -2.599221      1.096743      1.136236
  H      -1.154110      1.674777      0.260489
  H      -0.499961     -0.230936      1.832334
  H       0.132925     -2.578700      1.928765
  H      -0.335674     -2.706113      0.211655
  H       0.769816     -0.134438     -0.523204
  H       3.527146      0.002621      0.190054
  H       3.207486     -0.138590     -1.548030
24
Coordinates from ORCA-job geo_opt E -43.541183935860
  N      -2.868725      1.274750     -0.957780
  C      -2.012145      1.018953      0.214580
  C      -1.490932     -0.412781      0.071783
  O      -1.800315     -1.060764     -0.923278
  N      -0.733722     -0.860704      1.074632
  C       0.086014     -2.045005      0.958095
  C       1.536059     -1.689147      0.585885
  O       2.493488     -2.267333      1.088909
  N       1.627847     -0.722569     -0.328661
  C       2.772901      0.106634     -0.581822
  C       2.264628      1.593458     -0.642111
  O       1.024739      1.734327     -0.589713
  O       3.120173      2.482278     -0.736026
  H      -2.849678      0.367656     -1.485482
  H      -3.833328      1.511518     -0.709247
  H      -2.480710      2.003521     -1.563599
  H      -2.557995      1.124716      1.150021
  H      -1.138375      1.676539      0.220211
  H      -0.479713     -0.219897      1.813176
  H       0.106664     -2.593161      1.900670
  H      -0.334442     -2.682497      0.176281
  H       0.785684     -0.211954     -0.600017
  H       3.516783      0.000562      0.210352
  H       3.245101     -0.129099     -1.540055
24
Coordinates from ORCA-job geo_opt E -43.541413555680
  N      -2.885553      1.284988     -0.941115
  C      -1.997277      1.038434      0.209333
  C      -1.477668     -0.391824      0.062271
  O      -1.787004     -1.036074     -0.935881
  N      -0.720244     -0.844842      1.062050
  C       0.091432     -2.035681      0.944887
  C       1.547975     -1.670598      0.614469
  O       2.495969     -2.158069      1.220068
  N       1.659524     -0.793516     -0.388388
  C       2.777266      0.085536     -0.596181
  C       2.226313      1.558165     -0.611523
  O       0.982809      1.662337     -0.577783
  O       3.058064      2.473371     -0.657416
  H      -2.844056      0.387276     -1.484007
  H      -3.852732      1.480590     -0.668041
  H      -2.538866      2.038246     -1.541656
  H      -2.513338      1.155568      1.159874
  H      -1.119544      1.690731      0.184214
  H      -0.460161     -0.206102      1.800148
  H       0.088142     -2.598109      1.879465
  H      -0.320518     -2.654504      0.144009
  H       0.809808     -0.338193     -0.722499
  H       3.510134     -0.026280      0.205096
  H       3.269524     -0.101450     -1.554588
24
Coordinates from ORCA-job geo_opt E -43.541443902070
  N      -2.925513      1.306352     -0.896078
  C      -2.051264      1.032063      0.259199
  C      -1.473839     -0.365284      0.051068
  O      -1.718435     -0.959912     -0.995509
  N      -0.735927     -0.850531      1.049024
  C       0.091200     -2.029229      0.904136
  C       1.553352     -1.617714      0.681790
  O       2.459016     -1.969602      1.427884
  N       1.719759     -0.845417     -0.401700
  C       2.823173      0.054839     -0.596047
  C       2.256962      1.516302     -0.692857
  O       1.014193      1.618331     -0.661226
  O       3.081946      2.434440     -0.798175
  H      -2.796270      0.460735     -1.505592
  H      -3.911954      1.402811     -0.640182
  H      -2.620021      2.130853     -1.419306
  H      -2.578968      1.106972      1.207264
  H      -1.190067      1.706112      0.272923
  H      -0.506536     -0.240508      1.820493
  H       0.036027     -2.651049      1.799436
  H      -0.285557     -2.591594      0.046301
  H       0.876144     -0.478478     -0.837307
  H       3.514325     -0.002891      0.247610
  H       3.368256     -0.167600     -1.516347
24
Coordinates from ORCA-job geo_opt E -43.541765286780
  N      -2.897266      1.309539     -0.913260
  C      -2.017739      1.044926      0.239822
  C      -1.447014     -0.358534      0.046476
  O      -1.686134     -0.958089     -0.998174
  N      -0.730117     -0.845927      1.058865
  C       0.096600     -2.027167      0.926733
  C       1.552402     -1.613705      0.673217
  O       2.466043     -1.927931      1.426685
  N       1.707666     -0.881808     -0.440638
  C       2.789445      0.048847     -0.626036
  C       2.202664      1.505229     -0.627125
  O       0.960095      1.588687     -0.570962
  O       3.015032      2.438705     -0.687800
  H      -2.769828      0.462575     -1.519937
  H      -3.883427      1.397339     -0.651937
  H      -2.602944      2.135256     -1.441080
  H      -2.540741      1.130843      1.189504
  H      -1.153002      1.714915      0.239514
  H      -0.504335     -0.231527      1.828026
  H       0.057409     -2.626299      1.837370
  H      -0.284405     -2.607934      0.083468
  H       0.855688     -0.533047     -0.871805
  H       3.514162     -0.048979      0.184182
  H       3.299744     -0.115914     -1.578303
24
Coordinates from ORCA-job geo_opt E -43.542022024720
  N      -2.829917      1.339538     -0.920058
  C      -2.000510      1.048906      0.262880
  C      -1.402965     -0.341466      0.050306
  O      -1.578749     -0.901228     -1.028553
  N      -0.744916     -0.867061      1.083394
  C       0.098532     -2.037539      0.946351
  C       1.543447     -1.590960      0.695748
  O       2.448273     -1.826545      1.488612
  N       1.701244     -0.918947     -0.455874
  C       2.752773      0.043779     -0.659163
  C       2.121675      1.480035     -0.641683
  O       0.879398      1.522089     -0.555693
  O       2.901459      2.439523     -0.720367
  H      -2.638122      0.530137     -1.559425
  H      -3.831081      1.371254     -0.706574
  H      -2.546674      2.203610     -1.389434
  H      -2.567146      1.098222      1.189754
  H      -1.144122      1.726779      0.319257
  H      -0.560245     -0.279637      1.884007
  H       0.066549     -2.637355      1.855499
  H      -0.264102     -2.617535      0.094737
  H       0.851178     -0.644285     -0.940165
  H       3.495553     -0.038128      0.135292
  H       3.248470     -0.103187     -1.622044
24
Coordinates from ORCA-job geo_opt E -43.542543081490
  N      -2.764507      1.375458     -0.919348
  C      -2.016319      1.041151      0.304947
  C      -1.334915     -0.305663      0.052273
  O      -1.376521     -0.781763     -1.078831
  N      -0.782934     -0.899301      1.110286
  C       0.100735     -2.042814      0.970625
  C       1.525232     -1.533353      0.731265
  O       2.403631     -1.634267      1.581398
  N       1.694417     -0.963506     -0.472254
  C       2.719614      0.019873     -0.716857
  C       2.071701      1.446224     -0.675752
  O       0.837795      1.472874     -0.513714
  O       2.833358      2.415284     -0.808954
  H      -2.452821      0.649041     -1.606886
  H      -3.778531      1.297372     -0.796187
  H      -2.525394      2.302503     -1.280482
  H      -2.654459      1.009025      1.184757
  H      -1.197874      1.748735      0.462146
  H      -0.687645     -0.366167      1.962904
  H       0.077264     -2.640195      1.879746
  H      -0.223786     -2.626167      0.106775
  H       0.858324     -0.804844     -1.021944
  H       3.492844     -0.053187      0.047927
  H       3.180790     -0.126313     -1.697037
24
Coordinates from ORCA-job geo_opt E -43.542883153960
  N      -2.732431      1.390185     -0.926087
  C      -2.053231      1.029182      0.330948
  C      -1.279897     -0.263852      0.059056
  O      -1.196967     -0.664990     -1.098962
  N      -0.815155     -0.912061      1.126602
  C       0.105065     -2.030198      0.991011
  C       1.507599     -1.466206      0.748988
  O       2.357964     -1.441352      1.634018
  N       1.686783     -1.000468     -0.495514
  C       2.698923     -0.016070     -0.787268
  C       2.079292      1.413837     -0.656109
  O       0.872515      1.450402     -0.353793
  O       2.833832      2.378128     -0.859838
  H      -2.299219      0.753780     -1.634816
  H      -3.739011      1.198349     -0.897289
  H      -2.563123      2.362937     -1.193800
  H      -2.747681      0.923344      1.160623
  H      -1.284877      1.768457      0.571126
  H      -0.801618     -0.426497      2.012013
  H       0.091173     -2.613929      1.908356
  H      -0.193427     -2.628494      0.128865
  H       0.863643     -0.936563     -1.079997
  H       3.522939     -0.121065     -0.080945
  H       3.086908     -0.146857     -1.800384
24
Coordinates from ORCA-job geo_opt E -43.542874992620
  N      -2.798392      1.345826     -0.944557
  C      -2.074880      1.021786      0.299828
  C      -1.306436     -0.277175      0.042241
  O      -1.261335     -0.718696     -1.103364
  N      -0.813483     -0.888216      1.118569
  C       0.104862     -2.009203      0.993294
  C       1.508810     -1.455699      0.728495
  O       2.383373     -1.474141      1.590541
  N       1.659442     -0.962101     -0.505880
  C       2.710705     -0.022111     -0.805651
  C       2.204473      1.438574     -0.557991
  O       1.033132      1.543227     -0.146847
  O       3.006510      2.359410     -0.785495
  H      -2.394593      0.688807     -1.650958
  H      -3.803452      1.157394     -0.872252
  H      -2.637233      2.309797     -1.246363
  H      -2.743187      0.935992      1.152649
  H      -1.303719      1.771690      0.495596
  H      -0.780022     -0.375004      1.987436
  H       0.095463     -2.571621      1.924913
  H      -0.202465     -2.629360      0.150280
  H       0.818402     -0.848738     -1.058546
  H       3.564488     -0.216515     -0.153973
  H       3.029538     -0.123920     -1.845161
24
Coordinates from ORCA-job geo_opt E -43.543278106060
  N      -2.822883      1.361077     -0.924145
  C      -2.046630      1.050939      0.291915
  C      -1.327581     -0.271097      0.034219
  O      -1.326496     -0.730318     -1.106626
  N      -0.794985     -0.869386      1.098053
  C       0.107906     -2.001658      0.958745
  C       1.520270     -1.451441      0.734535
  O       2.342543     -1.375521      1.642325
  N       1.739917     -1.046632     -0.526251
  C       2.732844     -0.032523     -0.786253
  C       2.140712      1.398360     -0.534933
  O       0.957234      1.445100     -0.149793
  O       2.898775      2.360302     -0.741243
  H      -2.443501      0.696559     -1.639178
  H      -3.822991      1.172672     -0.806318
  H      -2.679191      2.321443     -1.244681
  H      -2.668441      1.011065      1.181954
  H      -1.240676      1.776717      0.431617
  H      -0.720702     -0.342855      1.956122
  H       0.081272     -2.589216      1.875405
  H      -0.209067     -2.596083      0.100890
  H       0.920360     -1.006812     -1.118956
  H       3.573553     -0.179092     -0.105438
  H       3.087758     -0.101598     -1.815164
24
Coordinates from ORCA-job geo_opt E -43.543427919500
  N      -2.710484      1.393435     -0.941410
  C      -2.029914      1.026982      0.315183
  C      -1.303004     -0.290464      0.059941
  O      -1.233345     -0.715243     -1.092425
  N      -0.817580     -0.919118      1.130555
  C       0.104385     -2.034040      0.995507
  C       1.508036     -1.469553      0.741066
  O       2.355396     -1.418591      1.627690
  N       1.690226     -1.018584     -0.509780
  C       2.672896     -0.004325     -0.802953
  C       2.055096      1.426244     -0.606128
  O       0.874221      1.471973     -0.209850
  O       2.789041      2.391464     -0.868592
  H      -2.285044      0.749152     -1.650061
  H      -3.719660      1.221991     -0.905109
  H      -2.526351      2.362239     -1.213715
  H      -2.717930      0.955594      1.153512
  H      -1.234186      1.739862      0.546202
  H      -0.772291     -0.410173      2.001390
  H       0.101740     -2.612417      1.918336
  H      -0.215347     -2.648089      0.152711
  H       0.866414     -0.992065     -1.103138
  H       3.508613     -0.103399     -0.107329
  H       3.039071     -0.102877     -1.824799
24
Coordinates from ORCA-job geo_opt E -43.543540467460
  N      -2.748687      1.382461     -0.947446
  C      -2.066704      1.027314      0.311185
  C      -1.292524     -0.264533      0.051509
  O      -1.191447     -0.671793     -1.104461
  N      -0.825282     -0.899419      1.125647
  C       0.106740     -2.007642      1.000974
  C       1.502898     -1.427239      0.743207
  O       2.337654     -1.335013      1.638772
  N       1.696319     -1.027765     -0.523088
  C       2.690517     -0.034034     -0.839896
  C       2.123557      1.398789     -0.545322
  O       0.977775      1.442566     -0.059093
  O       2.856830      2.359528     -0.826584
  H      -2.286402      0.771768     -1.661038
  H      -3.748268      1.157646     -0.925436
  H      -2.614327      2.364561     -1.201599
  H      -2.762145      0.919278      1.139815
  H      -1.299965      1.765745      0.559114
  H      -0.801351     -0.399710      2.002779
  H       0.107823     -2.574568      1.930328
  H      -0.198988     -2.631940      0.160673
  H       0.884228     -1.030274     -1.132560
  H       3.564638     -0.184729     -0.204053
  H       2.987111     -0.100999     -1.886623
24
Coordinates from ORCA-job geo_opt E -43.543632828380
  N      -2.759497      1.376470     -0.945921
  C      -2.048240      1.033843      0.299642
  C      -1.300612     -0.273648      0.043704
  O      -1.237239     -0.704545     -1.105997
  N      -0.815927     -0.894906      1.118364
  C       0.106474     -2.010796      0.994080
  C       1.507963     -1.443254      0.737156
  O       2.347763     -1.366416      1.628789
  N       1.699658     -1.031304     -0.525035
  C       2.689418     -0.026313     -0.822347
  C       2.115646      1.407845     -0.534966
  O       0.960537      1.457794     -0.072047
  O       2.860108      2.366019     -0.796678
  H      -2.334674      0.740294     -1.659643
  H      -3.763109      1.177184     -0.888091
  H      -2.610431      2.349001     -1.227035
  H      -2.721501      0.950477      1.149268
  H      -1.264729      1.765241      0.514629
  H      -0.769221     -0.380645      1.986251
  H       0.105396     -2.579012      1.922686
  H      -0.207210     -2.633054      0.154740
  H       0.882685     -1.019019     -1.125700
  H       3.555602     -0.172796     -0.174210
  H       3.001139     -0.088459     -1.864837
24
Coordinates from ORCA-job geo_opt E -43.543649419360
  N      -2.744262      1.381708     -0.948957
  C      -2.044040      1.032645      0.300970
  C      -1.296917     -0.274626      0.045765
  O      -1.226729     -0.702474     -1.104797
  N      -0.817220     -0.899019      1.121055
  C       0.106956     -2.013298      0.998329
  C       1.506922     -1.443538      0.738527
  O       2.347043     -1.360213      1.629390
  N       1.697462     -1.035209     -0.525282
  C       2.679915     -0.024434     -0.826581
  C       2.099081      1.406375     -0.535707
  O       0.947178      1.450435     -0.064355
  O       2.835304      2.368630     -0.805205
  H      -2.314082      0.747393     -1.661464
  H      -3.748719      1.184650     -0.900685
  H      -2.590875      2.355067     -1.224722
  H      -2.724199      0.946093      1.144863
  H      -1.261546      1.761661      0.526921
  H      -0.771551     -0.385232      1.989317
  H       0.109363     -2.580469      1.927672
  H      -0.208380     -2.638656      0.161749
  H       0.881806     -1.030800     -1.128541
  H       3.549453     -0.163453     -0.181295
  H       2.988036     -0.083234     -1.870164
24
Coordinates from ORCA-job geo_opt E -43.543656396700
  N      -2.741608      1.383305     -0.950271
  C      -2.044399      1.031681      0.300513
  C      -1.297102     -0.275429      0.044736
  O      -1.226852     -0.703217     -1.105797
  N      -0.818248     -0.899943      1.120356
  C       0.107369     -2.013115      0.999845
  C       1.506748     -1.442038      0.740189
  O       2.346884     -1.357000      1.630849
  N       1.697250     -1.035635     -0.524301
  C       2.678308     -0.024872     -0.828753
  C       2.097400      1.405356     -0.532790
  O       0.948958      1.447500     -0.053353
  O       2.830604      2.368233     -0.807880
  H      -2.313229      0.747049     -1.662159
  H      -3.747147      1.191368     -0.903126
  H      -2.583866      2.355970     -1.226251
  H      -2.726632      0.942090      1.142522
  H      -1.263244      1.760434      0.531664
  H      -0.771291     -0.384812      1.987811
  H       0.111344     -2.579694      1.929578
  H      -0.207315     -2.640517      0.164454
  H       0.883243     -1.033931     -1.130055
  H       3.550921     -0.161926     -0.187251
  H       2.981903     -0.080856     -1.873725
24
Coordinates from ORCA-job geo_opt E -43.543659410230
  N      -2.738135      1.384481     -0.951565
  C      -2.044510      1.030447      0.300475
  C      -1.295465     -0.275599      0.044044
  O      -1.222843     -0.701945     -1.106790
  N      -0.819974     -0.901784      1.120302
  C       0.107904     -2.013268      1.001347
  C       1.505643     -1.439149      0.741109
  O       2.344690     -1.347585      1.632106
  N       1.696141     -1.037466     -0.524921
  C       2.675112     -0.025455     -0.831836
  C       2.096099      1.404537     -0.529135
  O       0.951840      1.446664     -0.040255
  O       2.827595      2.367412     -0.809192
  H      -2.311202      0.746807     -1.662917
  H      -3.744575      1.196621     -0.906253
  H      -2.576318      2.356543     -1.227297
  H      -2.729149      0.937684      1.140229
  H      -1.265110      1.759502      0.536478
  H      -0.773605     -0.386192      1.987609
  H       0.113441     -2.578718      1.931744
  H      -0.205440     -2.642550      0.166890
  H       0.883222     -1.040240     -1.131665
  H       3.551309     -0.162396     -0.195255
  H       2.973331     -0.078350     -1.878448
24
Coordinates from ORCA-job geo_opt E -43.543662268830
  N      -2.737760      1.385050     -0.951518
  C      -2.045830      1.029724      0.301034
  C      -1.297113     -0.276475      0.043768
  O      -1.227947     -0.703956     -1.106808
  N      -0.819168     -0.901546      1.119563
  C       0.108559     -2.013199      1.001001
  C       1.506173     -1.439013      0.741771
  O       2.345390     -1.347902      1.632639
  N       1.696782     -1.037166     -0.524175
  C       2.675852     -0.025477     -0.831330
  C       2.095906      1.404498     -0.529552
  O       0.951130      1.446307     -0.042065
  O       2.827625      2.367478     -0.808821
  H      -2.316274      0.741453     -1.661037
  H      -3.745769      1.205966     -0.905193
  H      -2.568039      2.354683     -1.230955
  H      -2.731633      0.934873      1.139659
  H      -1.267328      1.758709      0.539903
  H      -0.771064     -0.384695      1.986090
  H       0.113799     -2.578989      1.931229
  H      -0.204315     -2.642398      0.166311
  H       0.884443     -1.038671     -1.131840
  H       3.552353     -0.161086     -0.194929
  H       2.974225     -0.078170     -1.877941
24
Coordinates from ORCA-job geo_opt E -43.543666898410
  N      -2.734317      1.386387     -0.951661
  C      -2.048017      1.027890      0.303052
  C      -1.297790     -0.277428      0.044754
  O      -1.229641     -0.704561     -1.106001
  N      -0.818781     -0.902474      1.120058
  C       0.109562     -2.013698      1.001010
  C       1.506391     -1.438048      0.742221
  O       2.345172     -1.344547      1.633225
  N       1.696939     -1.037369     -0.524136
  C       2.675141     -0.025033     -0.831928
  C       2.093858      1.404740     -0.531508
  O       0.948621      1.446226     -0.045179
  O       2.825296      2.368071     -0.810521
  H      -2.319194      0.734682     -1.658055
  H      -3.744625      1.220591     -0.906535
  H      -2.551455      2.352371     -1.235212
  H      -2.737632      0.929077      1.138097
  H      -1.271587      1.756888      0.548114
  H      -0.770489     -0.385244      1.986365
  H       0.114460     -2.579726      1.931106
  H      -0.202473     -2.642547      0.165813
  H       0.884837     -1.039069     -1.132047
  H       3.552030     -0.159046     -0.195734
  H       2.973695     -0.078134     -1.878496
24
Coordinates from ORCA-job geo_opt E -43.543673402230
  N      -2.724576      1.389106     -0.952883
  C      -2.052616      1.023746      0.307579
  C      -1.298483     -0.279384      0.048286
  O      -1.231218     -0.705894     -1.102844
  N      -0.817487     -0.904169      1.122727
  C       0.111733     -2.014702      1.001743
  C       1.507176     -1.436569      0.741855
  O       2.345830     -1.338773      1.632497
  N       1.696540     -1.037611     -0.525297
  C       2.672074     -0.022987     -0.834264
  C       2.087514      1.405655     -0.535237
  O       0.941358      1.445133     -0.050815
  O       2.817400      2.370501     -0.813191
  H      -2.322836      0.719322     -1.651344
  H      -3.739479      1.254007     -0.911712
  H      -2.511122      2.345881     -1.245609
  H      -2.751995      0.916388      1.133401
  H      -1.280976      1.752531      0.566983
  H      -0.769553     -0.386863      1.988979
  H       0.116454     -2.580884      1.931725
  H      -0.199901     -2.642791      0.165948
  H       0.883914     -1.040476     -1.132462
  H       3.549627     -0.154528     -0.198431
  H       2.970623     -0.076638     -1.880830
24
Coordinates from ORCA-job geo_opt E -43.543675923590
  N      -2.719779      1.390414     -0.954002
  C      -2.054403      1.022261      0.309162
  C      -1.297504     -0.279333      0.050170
  O      -1.227741     -0.704604     -1.101378
  N      -0.817495     -0.904699      1.124617
  C       0.112395     -2.014647      1.003046
  C       1.507382     -1.435631      0.741250
  O       2.346200     -1.335849      1.631547
  N       1.695831     -1.038156     -0.526478
  C       2.669919     -0.022414     -0.836625
  C       2.084702      1.405523     -0.536122
  O       0.939350      1.443675     -0.049457
  O       2.812938      2.371242     -0.815177
  H      -2.317026      0.718906     -1.650534
  H      -3.735434      1.260350     -0.917187
  H      -2.500150      2.345978     -1.246107
  H      -2.758461      0.911305      1.130527
  H      -1.285128      1.751157      0.574932
  H      -0.771623     -0.388787      1.991770
  H       0.118126     -2.580264      1.933321
  H      -0.199807     -2.643202      0.167804
  H       0.882530     -1.043223     -1.132870
  H       3.548247     -0.154007     -0.201808
  H       2.966931     -0.075995     -1.883599
24
Coordinates from ORCA-job geo_opt E -43.543678133290
  N      -2.711226      1.393062     -0.956136
  C      -2.056896      1.019282      0.311168
  C      -1.296735     -0.280670      0.052894
  O      -1.224397     -0.705310     -1.098902
  N      -0.817370     -0.905935      1.127464
  C       0.113660     -2.014833      1.005500
  C       1.508147     -1.434948      0.740156
  O       2.348189     -1.334348      1.629228
  N       1.694260     -1.037929     -0.528052
  C       2.666150     -0.020530     -0.839822
  C       2.079142      1.406247     -0.537768
  O       0.935099      1.442011     -0.047663
  O       2.804372      2.373409     -0.819417
  H      -2.310767      0.716017     -1.649037
  H      -3.728559      1.276657     -0.924819
  H      -2.477184      2.345001     -1.248950
  H      -2.768885      0.902591      1.124948
  H      -1.291306      1.747717      0.588040
  H      -0.773977     -0.391650      1.995650
  H       0.121936     -2.579315      1.936383
  H      -0.199870     -2.644780      0.171727
  H       0.879619     -1.046113     -1.132664
  H       3.545244     -0.151488     -0.205876
  H       2.961353     -0.074145     -1.887249
24
Coordinates from ORCA-job geo_opt E -43.543678500210
  N      -2.710067      1.393587     -0.956556
  C      -2.057495      1.018809      0.311380
  C      -1.296746     -0.280731      0.053039
  O      -1.224343     -0.705357     -1.098757
  N      -0.817293     -0.905870      1.127605
  C       0.113924     -2.014582      1.005962
  C       1.508296     -1.434687      0.740080
  O       2.348510     -1.333986      1.628995
  N       1.694143     -1.038081     -0.528282
  C       2.665765     -0.020519     -0.840425
  C       2.078623      1.406058     -0.537780
  O       0.935183      1.441475     -0.046289
  O       2.803188      2.373453     -0.820347
  H      -2.309273      0.716580     -1.649225
  H      -3.727554      1.278308     -0.926347
  H      -2.474742      2.345409     -1.248739
  H      -2.770891      0.900771      1.123777
  H      -1.292818      1.747305      0.590494
  H      -0.774403     -0.391958      1.996039
  H       0.123085     -2.578724      1.937050
  H      -0.199859     -2.645159      0.172730
  H       0.879252     -1.046751     -1.132598
  H       3.545183     -0.151453     -0.206958
  H       2.960331     -0.073897     -1.888042
