24
zwitterion conformer 14
N      -4.35054440     0.55484358    -0.14009329
C      -2.94176795     0.93196557    -0.20368603
C      -2.10632637    -0.26732933    -0.00957051
O      -2.59489424    -1.42862184     0.18036472
N      -0.68926854    -0.17346553    -0.02702172
C       0.06121000    -1.38981466     0.17002236
C       1.51092103    -1.24226904     0.14382023
O       2.21357508    -2.29549102     0.31438233
N       2.22714799    -0.03608191    -0.05377011
C       3.66345982    -0.09276282    -0.04662361
C       4.29083318     1.21907222    -0.26132673
O       3.60077817     2.24469892    -0.42759654
O       5.67881271     1.28088852    -0.27326995
H      -4.44455605    -0.22456167     0.57851454
H      -4.93119916     1.32558700     0.26027653
H      -4.67866617     0.20872792    -1.06630785
H      -2.71909990     1.66002686     0.60205814
H      -2.71160857     1.38067189    -1.21351095
H      -0.28384322     0.76920565    -0.18123929
H      -0.22938504    -1.89659969     1.12730417
H      -0.30827522    -2.10327023    -0.61659660
H       1.72271250     0.84066362    -0.19592198
H       3.98604192    -0.47323934     0.95771550
H       4.03394242    -0.79284466    -0.81111973
