14
Coordinates from ORCA-job geo_opt_tzvp E -399.175798863257
  N      -0.662027     -1.238132      0.076849
  C      -0.235644      0.092581     -0.482913
  C       1.086439      0.507469      0.149921
  O       2.049013     -0.528781     -0.118927
  C      -1.363467      1.120237     -0.146034
  O      -2.247168      0.709152      0.667893
  O      -1.267594      2.246239     -0.693276
  H      -1.040793     -1.863651     -0.643279
  H       0.113972     -1.724270      0.547156
  H      -1.435300     -0.985828      0.740182
  H      -0.123469     -0.011330     -1.568799
  H       0.958697      0.641190      1.237456
  H       1.393509      1.467755     -0.291851
  H       2.773832     -0.432628      0.525623
14
Coordinates from ORCA-job geo_opt_tzvp E -399.175805666229
  N      -0.661894     -1.237866      0.076760
  C      -0.235689      0.091970     -0.482720
  C       1.085937      0.507110      0.150449
  O       2.048286     -0.527532     -0.118687
  C      -1.363720      1.119856     -0.147177
  O      -2.246157      0.710578      0.667658
  O      -1.266557      2.245344     -0.693632
  H      -1.042032     -1.862989     -0.642902
  H       0.114309     -1.724825      0.545812
  H      -1.434189     -0.985885      0.741325
  H      -0.122682     -0.012066     -1.568705
  H       0.957999      0.640282      1.238186
  H       1.392398      1.468059     -0.290700
  H       2.773990     -0.432036      0.524334
14
Coordinates from ORCA-job geo_opt_tzvp E -399.175737952236
  N      -0.661292     -1.235282      0.077455
  C      -0.234609      0.092800     -0.478721
  C       1.087407      0.505317      0.154200
  O       2.047026     -0.525467     -0.119595
  C      -1.361076      1.122684     -0.142879
  O      -2.250247      0.711380      0.659753
  O      -1.275723      2.237638     -0.708335
  H      -1.048670     -1.856657     -0.641430
  H       0.115807     -1.727557      0.539349
  H      -1.428413     -0.985168      0.748484
  H      -0.120579     -0.008731     -1.565355
  H       0.960636      0.634846      1.242987
  H       1.392523      1.468842     -0.283384
  H       2.777209     -0.434643      0.517469
14
Coordinates from ORCA-job geo_opt_tzvp E -399.175809217710
  N      -0.661778     -1.237466      0.076827
  C      -0.235534      0.091813     -0.481951
  C       1.086011      0.506676      0.151466
  O       2.047840     -0.526631     -0.118338
  C      -1.363702      1.120374     -0.147405
  O      -2.246563      0.711672      0.666364
  O      -1.267606      2.244123     -0.696876
  H      -1.044700     -1.861546     -0.642311
  H       0.114866     -1.726327      0.543286
  H      -1.432157     -0.986497      0.743789
  H      -0.121647     -0.011705     -1.567972
  H       0.957762      0.639329      1.239391
  H       1.391665      1.468497     -0.288708
  H       2.775541     -0.432312      0.522437
14
Coordinates from ORCA-job geo_opt_tzvp E -399.175810123273
  N      -0.661811     -1.237542      0.076705
  C      -0.235519      0.091723     -0.481946
  C       1.085927      0.506614      0.151803
  O       2.047785     -0.526466     -0.118012
  C      -1.363755      1.120484     -0.147745
  O      -2.245973      0.712479      0.667110
  O      -1.267780      2.243864     -0.698188
  H      -1.045695     -1.861243     -0.642276
  H       0.115024     -1.727015      0.542237
  H      -1.431508     -0.987042      0.744449
  H      -0.121272     -0.011699     -1.567936
  H       0.957281      0.639261      1.239709
  H       1.391294      1.468679     -0.288073
  H       2.776003     -0.432096      0.522163
