14
Coordinates from ORCA-job geo_opt_tzvp E -399.175810123273
  N          -0.66181114335032     -1.23754181271517      0.07670540894079
  C          -0.23551909444245      0.09172314676991     -0.48194641151551
  C           1.08592653237700      0.50661396976137      0.15180269719216
  O           2.04778456454604     -0.52646550124783     -0.11801233716040
  C          -1.36375510624366      1.12048351022760     -0.14774479145828
  O          -2.24597271327332      0.71247855312450      0.66711035951032
  O          -1.26777996617543      2.24386396467683     -0.69818816454454
  H          -1.04569537158593     -1.86124297716780     -0.64227558700577
  H           0.11502449073777     -1.72701493544070      0.54223721519826
  H          -1.43150824825033     -0.98704236131567      0.74444947484405
  H          -0.12127187596523     -0.01169896776555     -1.56793633722326
  H           0.95728113928824      0.63926062838577      1.23970909145858
  H           1.39129395704635      1.46867924359318     -0.28807319370671
  H           2.77600283529126     -0.43209645088644      0.52216259547032
