14
zwitterion conformer 2
N      -0.66202706    -1.23813213     0.07684882
C      -0.23564404     0.09258072    -0.48291301
C       1.08643858     0.50746852     0.14992130
O       2.04901346    -0.52878122    -0.11892685
C      -1.36346733     1.12023687    -0.14603422
O      -2.24716753     0.70915156     0.66789289
O      -1.26759431     2.24623851    -0.69327595
H      -1.04079284    -1.86365130    -0.64327903
H       0.11397203    -1.72427036     0.54715566
H      -1.43530000    -0.98582796     0.74018225
H      -0.12346941    -0.01132991    -1.56879897
H       0.95869728     0.64118990     1.23745557
H       1.39350943     1.46775484    -0.29185144
H       2.77383174    -0.43262803     0.52562300
