24
zwitterion CPCM-opt conformer 1
N      -3.23381806     1.21043026    -0.89116646
C      -2.46398915     0.92830185     0.35569844
C      -1.47882296    -0.20040368     0.03612755
O      -1.25749221    -0.50997509    -1.15014807
N      -0.88643567    -0.77810459     1.09040958
C       0.10254449    -1.84757678     0.96294093
C       1.53290944    -1.32151189     0.73182930
O       2.40632548    -1.41887537     1.61148079
N       1.74063127    -0.77416195    -0.48485520
C       2.97003500    -0.09768424    -0.85889273
C       3.02894304     1.43125305    -0.55267863
O       2.03021811     1.98130049    -0.00971181
O       4.11495365     1.98617106    -0.89420488
H      -2.68122508     0.81394881    -1.68034578
H      -4.15454696     0.75371664    -0.89151313
H      -3.37642836     2.21567098    -1.04459528
H      -3.15296276     0.66856244     1.16561907
H      -1.90602612     1.83120258     0.63236657
H      -1.10397308    -0.44089450     2.02574878
H       0.09955675    -2.42425682     1.89319874
H      -0.19652181    -2.50184025     0.13200393
H       0.93001940    -0.68887453    -1.10021594
H       3.80571312    -0.58080174    -0.33491601
H       3.13039247    -0.23559673    -1.93737611
