27
Coordinates from ORCA-job geo_opt E -43.678445589140
  N          -3.66306913119482     -0.05910074091609     -0.34884585037547
  C          -2.36912230199280     -0.29883160179364      0.32760219815934
  C          -1.32693185616577     -0.78327681457566     -0.68981536771415
  C           0.01933677684617     -0.96001037216291     -0.06786144321986
  C           0.44481233543874     -2.01417337863022      0.68849199571266
  N           1.73373404165561     -1.81660022875093      1.09584417080366
  C           2.16521873192294     -0.61336124932629      0.62270095978015
  C           3.38741467331274      0.03026782027090      0.77229768887322
  C           3.53917220121426      1.26081166627521      0.17151486282951
  C           2.50173357208195      1.84337129601125     -0.56236974508274
  C           1.29013132658627      1.20950447605451     -0.71838432636933
  C           1.10701472343049     -0.03771749412700     -0.12362898397230
  C          -1.95574020695115      1.11018938366990      0.92298487422077
  O          -2.61428828060658      2.05624705756992      0.42805990165788
  O          -1.08364763524277      1.14928482958689      1.78928920160068
  H          -3.65684194348367      1.01368848872946     -0.36303329786492
  H          -4.46713636048278     -0.38705704403358      0.18884948439225
  H          -3.69132761260246     -0.43819320402029     -1.29806130418854
  H          -2.44960589459615     -1.01021551567261      1.14862105111786
  H          -1.65611083530644     -1.73946134902819     -1.10387167218264
  H          -1.24506365600805     -0.04689406126322     -1.49144641680142
  H          -0.08292688301343     -2.90658631789757      0.96404699464407
  H           2.26186387996543     -2.43740590385315      1.68458521258624
  H           4.18709798570064     -0.41463474162352      1.34530711860113
  H           4.47363202352695      1.79329556758172      0.27167663590353
  H           2.65855187223498      2.81500014579765     -1.00888559755675
  H           0.49209847372972      1.68185929612746     -1.27382583555482
