27
Coordinates from ORCA-job geo_opt E -43.630488795920
  N      -3.607548     -0.106896     -0.355428
  C      -2.299935     -0.098926      0.333436
  C      -1.334284     -0.823411     -0.534692
  C       0.039677     -0.931567     -0.042334
  C       0.524402     -2.082766      0.591978
  N       1.814971     -1.881710      0.949461
  C       2.165300     -0.647290      0.564484
  C       3.387387     -0.020221      0.719344
  C       3.503970      1.264120      0.229473
  C       2.420503      1.869187     -0.386451
  C       1.206145      1.220616     -0.530128
  C       1.093078     -0.048432     -0.044844
  C      -1.925948      1.282515      0.695729
  O      -2.465718      2.210185     -0.000728
  O      -1.043280      1.566217      1.730844
  H      -3.913834      0.885992     -0.481519
  H      -4.347820     -0.559753      0.193919
  H      -3.545525     -0.534102     -1.303605
  H      -2.492862     -0.624870      1.313797
  H      -1.783435     -1.837839     -0.743433
  H      -1.378543     -0.297931     -1.541146
  H      -0.019416     -3.008413      0.785488
  H       2.410355     -2.594983      1.443568
  H       4.200813     -0.524392      1.202185
  H       4.462702      1.758011      0.348736
  H       2.566794      2.881266     -0.755260
  H       0.362055      1.685394     -1.011032
27
Coordinates from ORCA-job geo_opt E -43.664640608900
  N      -3.656171     -0.083955     -0.341566
  C      -2.325917     -0.120611      0.334901
  C      -1.342769     -0.859415     -0.558935
  C       0.038663     -0.970410     -0.045881
  C       0.525057     -2.102225      0.594130
  N       1.819611     -1.901164      0.965661
  C       2.193253     -0.655261      0.579937
  C       3.414851     -0.011003      0.737102
  C       3.521693      1.273629      0.236082
  C       2.440154      1.883722     -0.399616
  C       1.229740      1.240555     -0.554822
  C       1.103539     -0.049725     -0.055366
  C      -1.927493      1.287564      0.692115
  O      -2.471972      2.220790      0.047081
  O      -1.104080      1.501351      1.663299
  H      -3.914658      0.920555     -0.455755
  H      -4.402641     -0.520586      0.208832
  H      -3.619000     -0.498240     -1.283490
  H      -2.473485     -0.648456      1.297846
  H      -1.763552     -1.860075     -0.763445
  H      -1.350214     -0.331607     -1.536764
  H      -0.003510     -3.018522      0.789735
  H       2.387276     -2.587256      1.451028
  H       4.236670     -0.502139      1.231843
  H       4.467889      1.782493      0.354951
  H       2.582249      2.891768     -0.770771
  H       0.394817      1.718223     -1.046292
27
Coordinates from ORCA-job geo_opt E -43.672873758630
  N      -3.662141     -0.055048     -0.328455
  C      -2.328532     -0.148775      0.341352
  C      -1.350858     -0.882145     -0.590666
  C       0.027257     -1.006825     -0.045483
  C       0.512697     -2.113143      0.601518
  N       1.807227     -1.909928      0.983244
  C       2.190117     -0.658095      0.594730
  C       3.403829      0.003986      0.751988
  C       3.499100      1.282768      0.241964
  C       2.419683      1.888591     -0.410032
  C       1.218858      1.241300     -0.572249
  C       1.089259     -0.055575     -0.061325
  C      -1.890553      1.287403      0.708928
  O      -2.440996      2.216462      0.078466
  O      -1.052741      1.416032      1.575160
  H      -3.849745      0.965384     -0.431015
  H      -4.420879     -0.470085      0.219113
  H      -3.642456     -0.460601     -1.268930
  H      -2.432054     -0.694122      1.279528
  H      -1.751778     -1.873416     -0.797361
  H      -1.314983     -0.328918     -1.533200
  H       0.000723     -3.030135      0.804353
  H       2.367869     -2.578560      1.471623
  H       4.232681     -0.468519      1.256888
  H       4.430747      1.815051      0.357175
  H       2.548650      2.893710     -0.786083
  H       0.389019      1.723201     -1.069389
27
Coordinates from ORCA-job geo_opt E -43.675156735310
  N      -3.657371     -0.044602     -0.344829
  C      -2.334442     -0.171924      0.337176
  C      -1.344719     -0.869104     -0.614768
  C       0.026340     -1.004849     -0.045237
  C       0.502921     -2.098997      0.620195
  N       1.796025     -1.895769      1.008747
  C       2.188286     -0.652029      0.601794
  C       3.402543      0.009069      0.754201
  C       3.507664      1.275736      0.220994
  C       2.437601      1.875212     -0.452149
  C       1.235570      1.230011     -0.611055
  C       1.093168     -0.054725     -0.074548
  C      -1.891749      1.271228      0.750776
  O      -2.533426      2.193675      0.197056
  O      -1.108148      1.367770      1.693531
  H      -3.802376      0.985632     -0.439211
  H      -4.430766     -0.448079      0.189754
  H      -3.635001     -0.442987     -1.288106
  H      -2.424699     -0.750606      1.254849
  H      -1.731469     -1.860878     -0.843250
  H      -1.287929     -0.285187     -1.535669
  H      -0.008493     -3.013984      0.837933
  H       2.354323     -2.556986      1.514742
  H       4.227311     -0.454324      1.274564
  H       4.437409      1.813255      0.330377
  H       2.569616      2.872751     -0.846383
  H       0.411809      1.710689     -1.119640
27
Coordinates from ORCA-job geo_opt E -43.675231213430
  N      -3.655737     -0.030000     -0.344346
  C      -2.349885     -0.220544      0.341187
  C      -1.347568     -0.853719     -0.645969
  C       0.013139     -1.008766     -0.044405
  C       0.484080     -2.088916      0.640307
  N       1.774121     -1.879191      1.038284
  C       2.169363     -0.642219      0.615622
  C       3.379725      0.023969      0.767361
  C       3.491058      1.279613      0.214967
  C       2.429271      1.869055     -0.479059
  C       1.228941      1.218320     -0.637955
  C       1.079387     -0.054417     -0.082053
  C      -1.904835      1.230894      0.827796
  O      -2.533884      2.147234      0.244613
  O      -0.941680      1.298241      1.644249
  H      -3.720064      1.017570     -0.409122
  H      -4.449121     -0.410678      0.175450
  H      -3.641079     -0.409349     -1.295911
  H      -2.427250     -0.848460      1.227527
  H      -1.713540     -1.846029     -0.915066
  H      -1.264115     -0.218083     -1.529671
  H      -0.019653     -3.006960      0.875061
  H       2.335867     -2.528853      1.565460
  H       4.201862     -0.425690      1.304426
  H       4.414610      1.830430      0.319522
  H       2.557729      2.860631     -0.889589
  H       0.409259      1.695917     -1.156843
27
Coordinates from ORCA-job geo_opt E -43.677736349030
  N      -3.649057     -0.029590     -0.353807
  C      -2.351170     -0.226387      0.336645
  C      -1.340671     -0.844882     -0.646810
  C       0.017888     -1.000887     -0.043923
  C       0.483724     -2.078620      0.650259
  N       1.774269     -1.870383      1.046349
  C       2.173397     -0.639095      0.614389
  C       3.386485      0.022488      0.762077
  C       3.503629      1.274109      0.200755
  C       2.443409      1.862432     -0.495837
  C       1.240046      1.214842     -0.648983
  C       1.087034     -0.052929     -0.086326
  C      -1.919501      1.216244      0.839730
  O      -2.572545      2.138997      0.303134
  O      -1.036014      1.278933      1.702650
  H      -3.703876      1.022770     -0.411354
  H      -4.447060     -0.405013      0.162657
  H      -3.632957     -0.407276     -1.306059
  H      -2.438630     -0.864586      1.215117
  H      -1.704097     -1.834048     -0.931502
  H      -1.257970     -0.201694     -1.524955
  H      -0.023941     -2.992463      0.892616
  H       2.332600     -2.516494      1.578749
  H       4.206191     -0.427348      1.302149
  H       4.430290      1.820534      0.300835
  H       2.576390      2.849957     -0.914666
  H       0.422138      1.690387     -1.172047
27
Coordinates from ORCA-job geo_opt E -43.678097856550
  N      -3.646201     -0.026060     -0.357290
  C      -2.353156     -0.243998      0.330967
  C      -1.336362     -0.837288     -0.656930
  C       0.018627     -0.998070     -0.048608
  C       0.477807     -2.069079      0.661920
  N       1.767663     -1.859009      1.059432
  C       2.169972     -0.634011      0.616260
  C       3.383378      0.026560      0.763445
  C       3.505287      1.273904      0.192580
  C       2.447728      1.857961     -0.510920
  C       1.243692      1.209375     -0.662600
  C       1.088639     -0.053557     -0.093698
  C      -1.920671      1.189687      0.860019
  O      -2.582081      2.118899      0.346049
  O      -1.044282      1.242629      1.720872
  H      -3.671174      1.035354     -0.399910
  H      -4.450171     -0.384975      0.160805
  H      -3.641524     -0.400552     -1.310444
  H      -2.445622     -0.898687      1.197086
  H      -1.694523     -1.821095     -0.967717
  H      -1.250604     -0.176338     -1.521134
  H      -0.031477     -2.978867      0.915576
  H       2.322651     -2.497278      1.603298
  H       4.200043     -0.419604      1.311043
  H       4.432035      1.820417      0.290946
  H       2.582432      2.841896     -0.937465
  H       0.427892      1.681786     -1.191742
27
Coordinates from ORCA-job geo_opt E -43.678327926800
  N      -3.647228     -0.026403     -0.361618
  C      -2.359651     -0.269912      0.325038
  C      -1.331223     -0.823157     -0.669202
  C       0.019448     -0.989784     -0.054521
  C       0.468091     -2.052056      0.677484
  N       1.756883     -1.840854      1.078558
  C       2.166352     -0.625216      0.619436
  C       3.381278      0.032314      0.766216
  C       3.511762      1.272744      0.180739
  C       2.459733      1.851244     -0.534980
  C       1.254350      1.203275     -0.686119
  C       1.093362     -0.052335     -0.105733
  C      -1.928390      1.149368      0.893403
  O      -2.584726      2.091912      0.393479
  O      -1.057258      1.189990      1.757216
  H      -3.641483      1.045443     -0.374188
  H      -4.457049     -0.370681      0.156083
  H      -3.655806     -0.389773     -1.318017
  H      -2.459943     -0.948996      1.171731
  H      -1.679605     -1.797233     -1.021158
  H      -1.243762     -0.135123     -1.512101
  H      -0.044925     -2.955591      0.944673
  H       2.305465     -2.469287      1.639631
  H       4.192574     -0.409408      1.325227
  H       4.439569      1.817388      0.277872
  H       2.598992      2.829889     -0.971933
  H       0.443188      1.672244     -1.225376
27
Coordinates from ORCA-job geo_opt E -43.678394538420
  N      -3.649889     -0.029674     -0.360979
  C      -2.363256     -0.284684      0.323474
  C      -1.329209     -0.814236     -0.676835
  C       0.019451     -0.983691     -0.058837
  C       0.460675     -2.040535      0.685203
  N       1.749380     -1.831101      1.088097
  C       2.164972     -0.620295      0.621220
  C       3.381289      0.034683      0.768470
  C       3.517098      1.271417      0.176054
  C       2.469036      1.848473     -0.546788
  C       1.262774      1.202637     -0.699353
  C       1.096712     -0.050028     -0.112988
  C      -1.932966      1.126948      0.908212
  O      -2.590826      2.073767      0.414482
  O      -1.057777      1.164340      1.769729
  H      -3.630111      1.046263     -0.363865
  H      -4.461619     -0.363017      0.160708
  H      -3.668369     -0.392731     -1.316624
  H      -2.464135     -0.976488      1.159526
  H      -1.671080     -1.781566     -1.053385
  H      -1.242063     -0.109350     -1.505971
  H      -0.055651     -2.940182      0.958508
  H       2.292766     -2.455123      1.659235
  H       4.189236     -0.405538      1.333476
  H       4.446006      1.813890      0.273693
  H       2.612073      2.824651     -0.987893
  H       0.455484      1.671170     -1.244729
27
Coordinates from ORCA-job geo_opt E -43.678418494640
  N      -3.654055     -0.037100     -0.358980
  C      -2.366383     -0.292387      0.324479
  C      -1.328611     -0.805708     -0.681050
  C       0.019289     -0.976450     -0.061806
  C       0.454977     -2.030878      0.688479
  N       1.743562     -1.824380      1.093270
  C       2.164857     -0.616717      0.622198
  C       3.382880      0.035138      0.770129
  C       3.523553      1.269185      0.173408
  C       2.479129      1.846702     -0.554546
  C       1.271621      1.204314     -0.708666
  C       1.100169     -0.046434     -0.117999
  C      -1.938104      1.114702      0.916968
  O      -2.590106      2.066174      0.421453
  O      -1.064411      1.149863      1.781241
  H      -3.636629      1.040138     -0.356236
  H      -4.464701     -0.369289      0.165270
  H      -3.676149     -0.400189     -1.314295
  H      -2.465283     -0.992145      1.153880
  H      -1.665649     -1.768331     -1.073571
  H      -1.243627     -0.089319     -1.500756
  H      -0.064893     -2.927872      0.963665
  H       2.281912     -2.446678      1.671118
  H       4.187982     -0.405472      1.338828
  H       4.454172      1.808498      0.272041
  H       2.626555      2.821197     -0.997951
  H       0.467945      1.673439     -1.258724
27
Coordinates from ORCA-job geo_opt E -43.678431550620
  N      -3.656871     -0.043898     -0.355976
  C      -2.368144     -0.296619      0.325971
  C      -1.328137     -0.798063     -0.684529
  C       0.019147     -0.970468     -0.063885
  C       0.450788     -2.023903      0.689513
  N       1.739379     -1.820590      1.095633
  C       2.165124     -0.614878      0.622735
  C       3.384634      0.034142      0.771239
  C       3.529341      1.266374      0.172187
  C       2.487815      1.845321     -0.558915
  C       1.278981      1.206267     -0.714076
  C       1.102883     -0.043140     -0.120903
  C      -1.944952      1.109670      0.921246
  O      -2.602222      2.059258      0.428488
  O      -1.069149      1.146309      1.784113
  H      -3.640392      1.032451     -0.357552
  H      -4.466439     -0.372568      0.172463
  H      -3.681777     -0.412200     -1.309197
  H      -2.461988     -1.001799      1.151045
  H      -1.661412     -1.757839     -1.086842
  H      -1.244421     -0.073136     -1.496737
  H      -0.071943     -2.919179      0.965140
  H       2.273794     -2.442285      1.677842
  H       4.187655     -0.407524      1.342048
  H       4.461423      1.803121      0.271483
  H       2.638892      2.818657     -1.003689
  H       0.477988      1.676519     -1.267003
27
Coordinates from ORCA-job geo_opt E -43.678440739010
  N      -3.660136     -0.052231     -0.352365
  C      -2.368972     -0.297686      0.327392
  C      -1.327737     -0.790530     -0.687090
  C       0.019165     -0.964669     -0.065815
  C       0.447507     -2.018323      0.689118
  N       1.736322     -1.818466      1.095737
  C       2.165483     -0.614042      0.622623
  C       3.386490      0.032031      0.771712
  C       3.534850      1.263332      0.171882
  C       2.495569      1.844436     -0.560673
  C       1.285230      1.208552     -0.716459
  C       1.105204     -0.039921     -0.122418
  C      -1.951043      1.109689      0.922019
  O      -2.610136      2.057336      0.428800
  O      -1.076214      1.148374      1.785868
  H      -3.649488      1.022358     -0.360672
  H      -4.467111     -0.380288      0.180755
  H      -3.686443     -0.426667     -1.303293
  H      -2.456125     -1.006083      1.150314
  H      -1.658561     -1.748500     -1.095509
  H      -1.245421     -0.059484     -1.493740
  H      -0.078045     -2.912116      0.964437
  H       2.267348     -2.440205      1.680941
  H       4.187778     -0.411515      1.343497
  H       4.468395      1.797508      0.271803
  H       2.649968      2.816988     -1.006082
  H       0.486123      1.680122     -1.270942
27
Coordinates from ORCA-job geo_opt E -43.678444759030
  N      -3.662503     -0.057985     -0.349581
  C      -2.369234     -0.298326      0.327881
  C      -1.327192     -0.784731     -0.689100
  C       0.019291     -0.960738     -0.067343
  C       0.445399     -2.014872      0.688497
  N       1.734258     -1.817005      1.095760
  C       2.165444     -0.613537      0.622608
  C       3.387437      0.030520      0.772145
  C       3.538533      1.261196      0.171622
  C       2.500792      1.843592     -0.561988
  C       1.289392      1.209533     -0.718014
  C       1.106765     -0.037991     -0.123409
  C      -1.955253      1.110311      0.922656
  O      -2.614493      2.056504      0.428332
  O      -1.082322      1.149814      1.788169
  H      -3.655951      1.015068     -0.362547
  H      -4.467233     -0.386184      0.186973
  H      -3.689939     -0.436226     -1.299123
  H      -2.451029     -1.009064      1.149323
  H      -1.656574     -1.741422     -1.101675
  H      -1.245455     -0.049454     -1.491778
  H      -0.082001     -2.907601      0.963781
  H       2.262955     -2.438311      1.683477
  H       4.187432     -0.414232      1.344825
  H       4.472912      1.793858      0.271839
  H       2.657299      2.815452     -1.008154
  H       0.491270      1.681831     -1.273334
27
Coordinates from ORCA-job geo_opt E -43.678445589140
  N      -3.663069     -0.059101     -0.348846
  C      -2.369122     -0.298832      0.327602
  C      -1.326932     -0.783277     -0.689815
  C       0.019337     -0.960010     -0.067861
  C       0.444812     -2.014173      0.688492
  N       1.733734     -1.816600      1.095844
  C       2.165219     -0.613361      0.622701
  C       3.387415      0.030268      0.772298
  C       3.539172      1.260812      0.171515
  C       2.501734      1.843371     -0.562370
  C       1.290131      1.209504     -0.718384
  C       1.107015     -0.037717     -0.123629
  C      -1.955740      1.110189      0.922985
  O      -2.614288      2.056247      0.428060
  O      -1.083648      1.149285      1.789289
  H      -3.656842      1.013688     -0.363033
  H      -4.467136     -0.387057      0.188849
  H      -3.691328     -0.438193     -1.298061
  H      -2.449606     -1.010216      1.148621
  H      -1.656111     -1.739461     -1.103872
  H      -1.245064     -0.046894     -1.491446
  H      -0.082927     -2.906586      0.964047
  H       2.261864     -2.437406      1.684585
  H       4.187098     -0.414635      1.345307
  H       4.473632      1.793296      0.271677
  H       2.658552      2.815000     -1.008886
  H       0.492098      1.681859     -1.273826
