27
zwitterion conformer 4
N      -3.60754827    -0.10689597    -0.35542805
C      -2.29993508    -0.09892628     0.33343620
C      -1.33428418    -0.82341081    -0.53469165
C       0.03967736    -0.93156695    -0.04233374
C       0.52440168    -2.08276574     0.59197840
N       1.81497122    -1.88171038     0.94946125
C       2.16529979    -0.64728977     0.56448388
C       3.38738674    -0.02022078     0.71934385
C       3.50396966     1.26411993     0.22947345
C       2.42050267     1.86918696    -0.38645082
C       1.20614524     1.22061594    -0.53012811
C       1.09307768    -0.04843219    -0.04484408
C      -1.92594801     1.28251464     0.69572856
O      -2.46571782     2.21018530    -0.00072818
O      -1.04327985     1.56621674     1.73084448
H      -3.91383390     0.88599204    -0.48151936
H      -4.34782037    -0.55975341     0.19391852
H      -3.54552545    -0.53410216    -1.30360522
H      -2.49286242    -0.62487024     1.31379706
H      -1.78343496    -1.83783851    -0.74343265
H      -1.37854316    -0.29793074    -1.54114626
H      -0.01941631    -3.00841337     0.78548839
H       2.41035479    -2.59498262     1.44356758
H       4.20081281    -0.52439193     1.20218546
H       4.46270178     1.75801073     0.34873554
H       2.56679375     2.88126607    -0.75525973
H       0.36205463     1.68539351    -1.01103226
