20
neutral_epsilon CPCM-opt conformer 1
N       1.38743697    -1.70656543    -0.34326346
C       1.51827561    -0.29944971    -0.70309704
C       0.18449080     0.23895569    -1.29491506
C      -0.97789580     0.19152844    -0.35082929
C      -1.98619353    -0.75128415    -0.27581909
N      -2.79968216    -0.34696910     0.76036260
C      -2.27646427     0.79984635     1.27405988
N      -1.17304766     1.15884211     0.62750257
C       2.01063397     0.59169708     0.44360048
O       2.09008618     0.25715666     1.61529503
O       2.38263298     1.81816739     0.00448607
H       0.68285035    -1.80445969     0.39458822
H       2.26537660    -2.04468331     0.05949250
H       2.27593111    -0.21172797    -1.49896865
H      -0.03644961    -0.37391634    -2.18014641
H       0.34376314     1.27167333    -1.63674105
H      -2.19473856    -1.64251216    -0.85774891
H      -3.64377234    -0.81694145     1.07717751
H      -2.73534112     1.32993531     2.10422788
H       2.68210739     2.34070695     0.78073622
