20
Coordinates from ORCA-job geo_opt E -34.332710615510
  N      -1.165763      1.083945      1.898548
  C      -1.539516     -0.073730      1.143712
  C      -0.466550     -1.129052      1.100861
  C       0.789759     -0.668350      0.499620
  C       1.136736     -0.736895     -0.854892
  N       2.367910     -0.203988     -0.949788
  C       2.811573      0.192086      0.254567
  N       1.840404     -0.092564      1.153258
  C      -1.899449      0.384477     -0.231525
  O      -2.261247     -0.520220     -1.050955
  O      -1.847987      1.719630     -0.612419
  H      -0.678918      1.807641      1.335512
  H      -0.605861      0.746383      2.709250
  H      -2.455770     -0.516898      1.583768
  H      -0.877978     -1.984455      0.511447
  H      -0.254694     -1.426087      2.146165
  H       0.517373     -1.143411     -1.647443
  H       2.917595     -0.106012     -1.841737
  H       3.762868      0.659208      0.517256
  H      -2.090486      2.008291     -1.554465
20
Coordinates from ORCA-job geo_opt E -34.357117232390
  N      -1.170031      1.123081      1.929179
  C      -1.537712     -0.044346      1.145578
  C      -0.458417     -1.135379      1.089601
  C       0.805097     -0.673583      0.472827
  C       1.138914     -0.729981     -0.874538
  N       2.369166     -0.195027     -0.967952
  C       2.775703      0.175561      0.258302
  N       1.835164     -0.107378      1.151588
  C      -1.908300      0.369432     -0.249608
  O      -2.271393     -0.478863     -1.069705
  O      -1.815373      1.651330     -0.595656
  H      -0.678568      1.814052      1.379560
  H      -0.614211      0.817643      2.721048
  H      -2.450013     -0.483923      1.580532
  H      -0.862623     -1.974918      0.510540
  H      -0.251395     -1.450214      2.117823
  H       0.537847     -1.119297     -1.671847
  H       2.907509     -0.086625     -1.822785
  H       3.704998      0.631222      0.521487
  H      -2.056362      1.897214     -1.515234
20
Coordinates from ORCA-job geo_opt E -34.361639743910
  N      -1.162013      1.137293      1.937149
  C      -1.536070     -0.024194      1.143614
  C      -0.464354     -1.143052      1.088821
  C       0.802159     -0.679653      0.455949
  C       1.134024     -0.732690     -0.880927
  N       2.368617     -0.181441     -0.977390
  C       2.740628      0.182496      0.265802
  N       1.817231     -0.103436      1.150981
  C      -1.903240      0.353928     -0.271822
  O      -2.298036     -0.460168     -1.082234
  O      -1.771673      1.614276     -0.578314
  H      -0.628854      1.792625      1.386539
  H      -0.611490      0.838421      2.727959
  H      -2.447757     -0.453148      1.580843
  H      -0.870800     -1.976678      0.519082
  H      -0.260828     -1.463168      2.110311
  H       0.556132     -1.122035     -1.690442
  H       2.907895     -0.067095     -1.817198
  H       3.665082      0.646070      0.527018
  H      -2.036654      1.841650     -1.485001
20
Coordinates from ORCA-job geo_opt E -34.362578670890
  N      -1.158670      1.134856      1.944852
  C      -1.540265     -0.020614      1.151415
  C      -0.475291     -1.151359      1.095232
  C       0.786586     -0.684035      0.450761
  C       1.117467     -0.735256     -0.881146
  N       2.349448     -0.163437     -0.984629
  C       2.709530      0.207500      0.261937
  N       1.794748     -0.088325      1.147502
  C      -1.906537      0.346754     -0.272583
  O      -2.313020     -0.464161     -1.080206
  O      -1.688130      1.599732     -0.585767
  H      -0.585726      1.762826      1.396882
  H      -0.618371      0.829908      2.743218
  H      -2.451610     -0.446466      1.593234
  H      -0.887057     -1.985196      0.528498
  H      -0.266537     -1.472682      2.115042
  H       0.555573     -1.132797     -1.698740
  H       2.887618     -0.044882     -1.826387
  H       3.631734      0.686722      0.513237
  H      -1.941491      1.820912     -1.501612
20
Coordinates from ORCA-job geo_opt E -34.362938417730
  N      -1.144764      1.131202      1.936470
  C      -1.536774     -0.018052      1.149472
  C      -0.483981     -1.164609      1.098495
  C       0.773999     -0.696433      0.445534
  C       1.118011     -0.758935     -0.876474
  N       2.341877     -0.153947     -0.983695
  C       2.676393      0.244386      0.263267
  N       1.764366     -0.060819      1.144861
  C      -1.885624      0.342223     -0.284986
  O      -2.387827     -0.439169     -1.067586
  O      -1.621510      1.600249     -0.588805
  H      -0.506255      1.710317      1.399436
  H      -0.634911      0.817124      2.755406
  H      -2.452811     -0.433847      1.594339
  H      -0.902377     -2.000117      0.535806
  H      -0.272452     -1.483028      2.118878
  H       0.590661     -1.179975     -1.706999
  H       2.884179     -0.037952     -1.825481
  H       3.590216      0.752707      0.500388
  H      -1.910416      1.828676     -1.497587
20
Coordinates from ORCA-job geo_opt E -34.363296327630
  N      -1.147717      1.124781      1.946124
  C      -1.542988     -0.021518      1.158869
  C      -0.490279     -1.166258      1.098765
  C       0.761853     -0.693959      0.441262
  C       1.109039     -0.764151     -0.879960
  N       2.325826     -0.147187     -0.990182
  C       2.656491      0.268090      0.251784
  N       1.745168     -0.039527      1.134764
  C      -1.890725      0.348899     -0.270928
  O      -2.395531     -0.426890     -1.056063
  O      -1.554241      1.584368     -0.597392
  H      -0.490034      1.692362      1.419446
  H      -0.657832      0.805471      2.775657
  H      -2.457458     -0.440821      1.603158
  H      -0.911277     -2.000735      0.535995
  H      -0.271609     -1.486048      2.117589
  H       0.592381     -1.198499     -1.710803
  H       2.866823     -0.035094     -1.832851
  H       3.564874      0.789051      0.481054
  H      -1.812765      1.807665     -1.515548
20
Coordinates from ORCA-job geo_opt E -34.363540723920
  N      -1.152487      1.120516      1.954707
  C      -1.547774     -0.023831      1.164476
  C      -0.492124     -1.165039      1.092351
  C       0.756155     -0.689974      0.432672
  C       1.116229     -0.781970     -0.884815
  N       2.325348     -0.153945     -0.995114
  C       2.642091      0.292158      0.239223
  N       1.725635     -0.009405      1.119867
  C      -1.893489      0.360002     -0.259619
  O      -2.426354     -0.399949     -1.041456
  O      -1.510409      1.576705     -0.600091
  H      -0.468623      1.672189      1.446044
  H      -0.697832      0.798058      2.802471
  H      -2.459805     -0.448682      1.606361
  H      -0.914703     -1.998007      0.529150
  H      -0.267780     -1.487114      2.109385
  H       0.618011     -1.239452     -1.714327
  H       2.871517     -0.055001     -1.835719
  H       3.541921      0.828666      0.461848
  H      -1.765526      1.804076     -1.516674
20
Coordinates from ORCA-job geo_opt E -34.363862107420
  N      -1.164615      1.110537      1.975607
  C      -1.557018     -0.026754      1.175256
  C      -0.495767     -1.163513      1.079341
  C       0.744558     -0.683356      0.411919
  C       1.136012     -0.831118     -0.892165
  N       2.324290     -0.169212     -1.009648
  C       2.602213      0.351969      0.204158
  N       1.676601      0.064461      1.080053
  C      -1.890780      0.384898     -0.240437
  O      -2.502140     -0.325719     -1.012076
  O      -1.402772      1.555872     -0.599822
  H      -0.409665      1.610656      1.517949
  H      -0.804942      0.783579      2.865613
  H      -2.465799     -0.462167      1.608621
  H      -0.922586     -1.993936      0.516504
  H      -0.259928     -1.489809      2.092783
  H       0.683547     -1.345812     -1.713986
  H       2.882573     -0.099602     -1.844779
  H       3.479484      0.929893      0.407738
  H      -1.653266      1.799132     -1.511890
20
Coordinates from ORCA-job geo_opt E -34.364046398130
  N      -1.171817      1.099711      1.996335
  C      -1.563778     -0.028400      1.184087
  C      -0.499444     -1.163708      1.069169
  C       0.734677     -0.678425      0.394518
  C       1.154152     -0.876726     -0.893972
  N       2.320722     -0.179439     -1.024748
  C       2.559547      0.409537      0.166402
  N       1.628514      0.132942      1.039528
  C      -1.883365      0.406913     -0.227237
  O      -2.573463     -0.244061     -0.986151
  O      -1.295470      1.525584     -0.598537
  H      -0.352640      1.542400      1.592473
  H      -0.906234      0.771961      2.918300
  H      -2.472394     -0.470069      1.607963
  H      -0.930262     -1.991489      0.505937
  H      -0.255664     -1.494736      2.079556
  H       0.740742     -1.443577     -1.701694
  H       2.889515     -0.132911     -1.854470
  H       3.412984      1.027860      0.351240
  H      -1.536319      1.786634     -1.507959
20
Coordinates from ORCA-job geo_opt E -34.364153888760
  N      -1.170608      1.092403      2.008575
  C      -1.565267     -0.028044      1.185018
  C      -0.499598     -1.162367      1.061913
  C       0.734215     -0.674140      0.387533
  C       1.169738     -0.903023     -0.890599
  N       2.327684     -0.192215     -1.029397
  C       2.542560      0.436031      0.146192
  N       1.607609      0.168902      1.018101
  C      -1.882543      0.418506     -0.225972
  O      -2.604895     -0.206568     -0.977330
  O      -1.268796      1.522288     -0.597215
  H      -0.327163      1.511355      1.629098
  H      -0.944366      0.760285      2.939134
  H      -2.475425     -0.471256      1.603276
  H      -0.930548     -1.988204      0.495888
  H      -0.256269     -1.498230      2.070973
  H       0.769499     -1.498609     -1.683980
  H       2.904838     -0.159945     -1.854108
  H       3.382917      1.073976      0.325435
  H      -1.513580      1.798855     -1.501793
20
Coordinates from ORCA-job geo_opt E -34.364222405580
  N      -1.165951      1.084658      2.018942
  C      -1.565401     -0.026606      1.184636
  C      -0.501284     -1.161659      1.055367
  C       0.732784     -0.669287      0.383053
  C       1.184004     -0.928196     -0.883397
  N       2.332671     -0.202778     -1.032798
  C       2.525189      0.460865      0.126887
  N       1.586553      0.204551      0.998107
  C      -1.882680      0.429670     -0.225994
  O      -2.625960     -0.177440     -0.971226
  O      -1.247241      1.521927     -0.594347
  H      -0.302259      1.480693      1.658661
  H      -0.968090      0.744552      2.953078
  H      -2.478892     -0.468596      1.597177
  H      -0.931320     -1.984839      0.484346
  H      -0.260807     -1.504529      2.062934
  H       0.792393     -1.551796     -1.659319
  H       2.917492     -0.182064     -1.852479
  H       3.352570      1.117407      0.301875
  H      -1.493773      1.813467     -1.494764
20
Coordinates from ORCA-job geo_opt E -34.364241123400
  N      -1.162592      1.083894      2.019641
  C      -1.564047     -0.025497      1.183395
  C      -0.501867     -1.161203      1.053577
  C       0.733411     -0.667377      0.384226
  C       1.187070     -0.931675     -0.880285
  N       2.335555     -0.206338     -1.031423
  C       2.525812      0.461844      0.125688
  N       1.586446      0.208791      0.997390
  C      -1.885014      0.431287     -0.227036
  O      -2.620866     -0.183315     -0.973054
  O      -1.259238      1.530134     -0.592484
  H      -0.300300      1.481509      1.656913
  H      -0.959212      0.739214      2.951146
  H      -2.479194     -0.465822      1.595025
  H      -0.930501     -1.982465      0.478594
  H      -0.264494     -1.508561      2.060425
  H       0.791137     -1.558970     -1.651011
  H       2.921959     -0.186655     -1.850075
  H       3.351817      1.119639      0.303014
  H      -1.505886      1.821567     -1.492928
20
Coordinates from ORCA-job geo_opt E -34.364248407670
  N      -1.162139      1.082174      2.021988
  C      -1.563581     -0.025274      1.183847
  C      -0.503202     -1.161676      1.052089
  C       0.731677     -0.666487      0.383283
  C       1.190128     -0.939109     -0.877773
  N       2.335564     -0.210113     -1.032220
  C       2.519700      0.468912      0.119293
  N       1.579274      0.219312      0.991007
  C      -1.883086      0.435255     -0.225377
  O      -2.614924     -0.179972     -0.974495
  O      -1.255923      1.534525     -0.587295
  H      -0.295933      1.475463      1.663589
  H      -0.963107      0.735169      2.953764
  H      -2.480308     -0.464976      1.592903
  H      -0.931339     -1.981304      0.474357
  H      -0.266554     -1.512427      2.057981
  H       0.796739     -1.574723     -1.643006
  H       2.924173     -0.193662     -1.849335
  H       3.341874      1.132052      0.294361
  H      -1.499032      1.826860     -1.488222
20
Coordinates from ORCA-job geo_opt E -34.364252199940
  N      -1.162025      1.082363      2.021991
  C      -1.562790     -0.025114      1.183633
  C      -0.503688     -1.162149      1.052104
  C       0.731510     -0.667257      0.383800
  C       1.191071     -0.941730     -0.876600
  N       2.335657     -0.212277     -1.031891
  C       2.519500      0.468418      0.118589
  N       1.578868      0.219815      0.990452
  C      -1.881168      0.436020     -0.225441
  O      -2.602483     -0.185554     -0.979506
  O      -1.264624      1.542732     -0.582780
  H      -0.297972      1.479001      1.662109
  H      -0.958863      0.734667      2.952721
  H      -2.480362     -0.464264      1.591649
  H      -0.931612     -1.980804      0.472885
  H      -0.267747     -1.514458      2.057608
  H       0.797578     -1.578946     -1.640473
  H       2.924522     -0.196011     -1.848783
  H       3.341228      1.132150      0.293058
  H      -1.506600      1.833399     -1.484385
20
Coordinates from ORCA-job geo_opt E -34.364255769290
  N      -1.162662      1.081363      2.023826
  C      -1.562267     -0.025024      1.183732
  C      -0.504379     -1.162828      1.051763
  C       0.730696     -0.668263      0.382934
  C       1.193734     -0.948701     -0.874940
  N       2.336053     -0.216671     -1.032452
  C       2.515559      0.471877      0.114076
  N       1.574159      0.225379      0.985675
  C      -1.877178      0.438620     -0.225185
  O      -2.588530     -0.186608     -0.985821
  O      -1.269847      1.552599     -0.575456
  H      -0.297732      1.478245      1.666276
  H      -0.961050      0.733137      2.954727
  H      -2.480915     -0.463994      1.589509
  H      -0.932634     -1.980482      0.471423
  H      -0.268429     -1.516519      2.056782
  H       0.803978     -1.591808     -1.635804
  H       2.926460     -0.203003     -1.848265
  H       3.334829      1.139360      0.285460
  H      -1.509847      1.843322     -1.477519
20
Coordinates from ORCA-job geo_opt E -34.364258425550
  N      -1.163668      1.080040      2.026229
  C      -1.561847     -0.024690      1.183573
  C      -0.504804     -1.163227      1.051509
  C       0.730173     -0.669303      0.381673
  C       1.196996     -0.956908     -0.873141
  N       2.336976     -0.221860     -1.033338
  C       2.511647      0.475278      0.108906
  N       1.569136      0.231510      0.979974
  C      -1.872734      0.441478     -0.225508
  O      -2.572300     -0.188120     -0.993670
  O      -1.277385      1.564599     -0.566772
  H      -0.297582      1.476985      1.671502
  H      -0.964881      0.731132      2.957424
  H      -2.481540     -0.463738      1.586846
  H      -0.933764     -1.980180      0.470716
  H      -0.268628     -1.517607      2.056226
  H       0.811803     -1.606566     -1.630748
  H       2.929074     -0.211427     -1.847973
  H       3.328391      1.146762      0.276663
  H      -1.515062      1.855844     -1.469350
20
Coordinates from ORCA-job geo_opt E -34.364259484200
  N      -1.164330      1.079461      2.027368
  C      -1.561783     -0.024359      1.183331
  C      -0.504691     -1.163034      1.051540
  C       0.730174     -0.669457      0.380984
  C       1.198131     -0.960003     -0.872646
  N       2.337800     -0.224329     -1.033778
  C       2.510641      0.476156      0.106805
  N       1.567614      0.233700      0.977634
  C      -1.871031      0.442468     -0.226015
  O      -2.564374     -0.189987     -0.997557
  O      -1.282276      1.570365     -0.562727
  H      -0.297794      1.476415      1.673763
  H      -0.967324      0.730109      2.958707
  H      -2.481801     -0.463701      1.585557
  H      -0.934156     -1.980027      0.471165
  H      -0.268226     -1.517038      2.056316
  H       0.814610     -1.611849     -1.629194
  H       2.930585     -0.215632     -1.847947
  H       3.326700      1.148874      0.273115
  H      -1.518470      1.861868     -1.465681
20
Coordinates from ORCA-job geo_opt E -34.364260008020
  N      -1.164554      1.079236      2.027887
  C      -1.561830     -0.024065      1.183149
  C      -0.504490     -1.162728      1.051668
  C       0.730257     -0.669320      0.380707
  C       1.198356     -0.961037     -0.872538
  N       2.337994     -0.225041     -1.034161
  C       2.510500      0.476307      0.105961
  N       1.567327      0.234398      0.976792
  C      -1.870431      0.442722     -0.226438
  O      -2.561005     -0.191382     -0.999110
  O      -1.284316      1.572492     -0.561272
  H      -0.297343      1.475431      1.675134
  H      -0.969614      0.729582      2.959496
  H      -2.481972     -0.463633      1.584884
  H      -0.934304     -1.979992      0.471927
  H      -0.267813     -1.516073      2.056629
  H       0.815214     -1.613325     -1.628868
  H       2.930778     -0.217079     -1.848347
  H       3.326440      1.149324      0.271800
  H      -1.519194      1.864184     -1.464558
