20
Coordinates from ORCA-job geo_opt E -34.364260008020
  N          -1.16455444555614      1.07923628256929      2.02788658813328
  C          -1.56182982215522     -0.02406545765700      1.18314881342719
  C          -0.50449026198184     -1.16272826852988      1.05166759782484
  C           0.73025705410376     -0.66931970588826      0.38070707264456
  C           1.19835613410321     -0.96103716036256     -0.87253795491872
  N           2.33799449100145     -0.22504083946905     -1.03416080747989
  C           2.51050049915470      0.47630716888818      0.10596063183997
  N           1.56732739842098      0.23439767823024      0.97679182578214
  C          -1.87043139139435      0.44272192739633     -0.22643799693679
  O          -2.56100482449235     -0.19138213705573     -0.99910995471336
  O          -1.28431617703633      1.57249244891503     -0.56127160468255
  H          -0.29734303887003      1.47543099963179      1.67513387055945
  H          -0.96961440140521      0.72958189882303      2.95949628733550
  H          -2.48197173076986     -0.46363297948338      1.58488372012357
  H          -0.93430386316618     -1.97999202635146      0.47192707206136
  H          -0.26781288248693     -1.51607325892387      2.05662855286321
  H           0.81521357378988     -1.61332518400354     -1.62886764210714
  H           2.93077761281219     -0.21707945985975     -1.84834739054408
  H           3.32644034657895      1.14932442614168      0.27179950082941
  H          -1.51919427065068      1.86418365698891     -1.46455809204196
