20
neutral_epsilon conformer 2
N      -1.16576282     1.08394510     1.89854784
C      -1.53951623    -0.07373003     1.14371208
C      -0.46655041    -1.12905202     1.10086069
C       0.78975894    -0.66834963     0.49962009
C       1.13673568    -0.73689453    -0.85489177
N       2.36791014    -0.20398753    -0.94978795
C       2.81157268     0.19208631     0.25456677
N       1.84040436    -0.09256360     1.15325772
C      -1.89944910     0.38447654    -0.23152516
O      -2.26124652    -0.52022003    -1.05095460
O      -1.84798683     1.71963025    -0.61241898
H      -0.67891754     1.80764094     1.33551220
H      -0.60586056     0.74638296     2.70925046
H      -2.45576972    -0.51689750     1.58376806
H      -0.87797782    -1.98445538     0.51144723
H      -0.25469424    -1.42608684     2.14616546
H       0.51737279    -1.14341136    -1.64744323
H       2.91759550    -0.10601206    -1.84173714
H       3.76286774     0.65920771     0.51725568
H      -2.09048604     2.00829071    -1.55446536
