17
Coordinates from ORCA-job geo_opt E -28.293460365970
  C          -1.15029373953693     -0.17197587067710      1.15813122236528
  C          -0.58475425960251     -0.81561589121142     -0.10890455910436
  O          -1.47094463181898     -0.66978742198787     -1.20468493222639
  C           0.73444832603309     -0.17159880424627     -0.55474576425798
  N           0.50332869036649      1.20912813164923     -1.01849659347616
  C           1.74076108468850     -0.06928577937421      0.66638295979853
  O           2.17424679424018     -1.12233745863695      1.13814507555955
  O           1.97107256330568      1.10596605809342      1.01592356948239
  H          -0.41133536068631     -0.22908214431494      1.95339435418251
  H          -2.04148535102374     -0.70242033873526      1.48295808375413
  H          -1.40713516757847      0.87067904522978      0.99317508528152
  H          -0.37572112659309     -1.87519524085842      0.09132736866745
  H          -2.29615207902559     -1.13707647975999     -1.02603442768107
  H           1.18475617934295     -0.79109438679026     -1.32988146218319
  H           0.97648185725868      1.41415744173842     -1.90026042526754
  H           0.95382123142372      1.76655147167105     -0.23563221401358
  H          -0.50109503079368      1.38898766821078     -1.12079735088109
