17
Coordinates from ORCA-job geo_opt E -28.241415796150
  C      -1.790967      0.135712      0.130525
  C      -0.518414     -0.650454      0.271268
  O      -0.664539     -1.970467     -0.192325
  C       0.592568      0.052162     -0.456259
  N       0.705153      1.421726      0.061611
  C       1.910694     -0.582988     -0.199582
  O       2.108872     -1.473213      0.650705
  O       2.979396     -0.124353     -0.985866
  H      -1.844391      0.850091      0.979185
  H      -2.666431     -0.548723      0.111612
  H      -1.846356      0.738707     -0.798177
  H      -0.208256     -0.738713      1.335353
  H      -1.511247     -2.365192      0.069162
  H       0.433798      0.109509     -1.546181
  H      -0.220144      1.884494      0.107656
  H       1.375241      1.952784     -0.529726
  H       1.165024      1.308917      0.991038
17
Coordinates from ORCA-job geo_opt E -28.265654747170
  C      -1.841672      0.129413      0.163792
  C      -0.534271     -0.655535      0.275482
  O      -0.650170     -1.962636     -0.246942
  C       0.606940      0.054715     -0.455344
  N       0.754599      1.455342      0.040733
  C       1.943751     -0.621810     -0.213326
  O       2.133901     -1.471420      0.662830
  O       2.927637     -0.134669     -0.923826
  H      -1.934084      0.811270      1.011466
  H      -2.690800     -0.551272      0.146340
  H      -1.907995      0.722395     -0.751618
  H      -0.226004     -0.766803      1.333883
  H      -1.488051     -2.370765      0.011857
  H       0.440637      0.078270     -1.538917
  H      -0.148985      1.945042      0.059853
  H       1.436185      1.950451     -0.553917
  H       1.178382      1.388011      0.977654
17
Coordinates from ORCA-job geo_opt E -28.271585745170
  C      -1.858448      0.132273      0.188056
  C      -0.537683     -0.652311      0.286438
  O      -0.620267     -1.937634     -0.299653
  C       0.616825      0.061976     -0.438429
  N       0.764819      1.474578      0.032168
  C       1.995448     -0.622256     -0.193254
  O       2.134436     -1.494993      0.667865
  O       2.867515     -0.207293     -0.939804
  H      -1.980661      0.790872      1.037341
  H      -2.695507     -0.550522      0.170990
  H      -1.912026      0.713608     -0.726301
  H      -0.240051     -0.778891      1.340817
  H      -1.450177     -2.360094     -0.042609
  H       0.449345      0.058327     -1.516041
  H      -0.132969      1.968737      0.015228
  H       1.454556      1.944780     -0.565878
  H       1.144846      1.458844      0.983066
17
Coordinates from ORCA-job geo_opt E -28.273867102280
  C      -1.848921      0.142108      0.217291
  C      -0.542262     -0.665508      0.277158
  O      -0.650944     -1.923642     -0.361140
  C       0.611439      0.046338     -0.446170
  N       0.760208      1.459666      0.009741
  C       2.010482     -0.647989     -0.211855
  O       2.130828     -1.451371      0.722306
  O       2.913973     -0.130489     -0.879976
  H      -1.939384      0.801141      1.072439
  H      -2.698707     -0.531268      0.230890
  H      -1.913664      0.716311     -0.702539
  H      -0.236015     -0.828860      1.322949
  H      -1.471393     -2.352310     -0.082290
  H       0.435412      0.026439     -1.521542
  H      -0.132809      1.962747     -0.045089
  H       1.470296      1.912291     -0.578967
  H       1.101461      1.464398      0.976794
17
Coordinates from ORCA-job geo_opt E -28.274815085900
  C      -1.846350      0.142308      0.230853
  C      -0.541711     -0.665434      0.277569
  O      -0.655035     -1.903103     -0.399811
  C       0.613375      0.057761     -0.428046
  N       0.748002      1.474580      0.008756
  C       2.032275     -0.625088     -0.174798
  O       2.111651     -1.474520      0.723761
  O       2.948713     -0.186987     -0.940103
  H      -1.920318      0.814543      1.080764
  H      -2.696001     -0.535100      0.278178
  H      -1.929414      0.695571     -0.702200
  H      -0.240770     -0.858689      1.320320
  H      -1.458836     -2.353361     -0.103991
  H       0.450667      0.022378     -1.506969
  H      -0.137856      1.983225     -0.106164
  H       1.490927      1.909609     -0.554062
  H       1.030681      1.502307      0.995943
17
Coordinates from ORCA-job geo_opt E -28.276600163420
  C      -1.835724      0.147353      0.250946
  C      -0.540292     -0.673851      0.265008
  O      -0.672857     -1.889837     -0.448312
  C       0.612900      0.054866     -0.432889
  N       0.740911      1.471750     -0.004632
  C       2.035147     -0.624509     -0.166209
  O       2.106285     -1.460476      0.741282
  O       2.941335     -0.166979     -0.892925
  H      -1.870620      0.836859      1.088691
  H      -2.688794     -0.520557      0.346942
  H      -1.946465      0.678977     -0.691117
  H      -0.233674     -0.898478      1.299249
  H      -1.459319     -2.356095     -0.131538
  H       0.457158      0.009927     -1.512569
  H      -0.135406      1.986458     -0.160193
  H       1.508009      1.893315     -0.544589
  H       0.981407      1.511277      0.992857
17
Coordinates from ORCA-job geo_opt E -28.277306725260
  C      -1.829782      0.148882      0.265450
  C      -0.540324     -0.678507      0.253609
  O      -0.689852     -1.877355     -0.486223
  C       0.611437      0.056564     -0.435129
  N       0.736915      1.472752     -0.014049
  C       2.033424     -0.621195     -0.155270
  O       2.095567     -1.462680      0.745006
  O       2.940287     -0.147460     -0.854233
  H      -1.828593      0.859888      1.085327
  H      -2.680613     -0.512518      0.411544
  H      -1.971870      0.655114     -0.686032
  H      -0.229865     -0.930155      1.280467
  H      -1.453446     -2.364793     -0.146856
  H       0.463130      0.006343     -1.516132
  H      -0.126025      1.997256     -0.206706
  H       1.528123      1.878216     -0.531740
  H       0.941487      1.519648      0.990967
17
Coordinates from ORCA-job geo_opt E -28.277889224170
  C      -1.826349      0.150059      0.279729
  C      -0.541871     -0.682404      0.243978
  O      -0.706847     -1.864681     -0.520065
  C       0.609844      0.057825     -0.436095
  N       0.733225      1.474671     -0.023270
  C       2.031337     -0.617259     -0.143704
  O       2.085725     -1.473459      0.741793
  O       2.944601     -0.123789     -0.817920
  H      -1.792318      0.881794      1.080191
  H      -2.672788     -0.504638      0.472893
  H      -1.998656      0.632049     -0.679112
  H      -0.228146     -0.958736      1.263513
  H      -1.444939     -2.375375     -0.160062
  H       0.469438      0.002449     -1.518252
  H      -0.113485      2.009860     -0.254766
  H       1.549370      1.861659     -0.516818
  H       0.901860      1.529974      0.987968
17
Coordinates from ORCA-job geo_opt E -28.278713188780
  C      -1.824485      0.151870      0.300062
  C      -0.546579     -0.687529      0.232781
  O      -0.732587     -1.846298     -0.563200
  C       0.607124      0.057872     -0.436315
  N       0.729129      1.477415     -0.037215
  C       2.027545     -0.610476     -0.127222
  O       2.074049     -1.503063      0.721394
  O       2.952828     -0.075438     -0.756294
  H      -1.747626      0.913300      1.068900
  H      -2.661760     -0.491802      0.557694
  H      -2.038152      0.598982     -0.667133
  H      -0.228847     -0.995689      1.241803
  H      -1.428712     -2.393531     -0.175820
  H       0.477910     -0.005092     -1.519715
  H      -0.089795      2.028245     -0.323224
  H       1.579847      1.834049     -0.496425
  H       0.850110      1.547185      0.979929
17
Coordinates from ORCA-job geo_opt E -28.279862814230
  C      -1.823542      0.155710      0.330912
  C      -0.555616     -0.694164      0.220732
  O      -0.770998     -1.819788     -0.615616
  C       0.602863      0.054602     -0.436764
  N       0.724708      1.480255     -0.061136
  C       2.022288     -0.600358     -0.105614
  O       2.061293     -1.561282      0.664959
  O       2.960845      0.011511     -0.645949
  H      -1.695160      0.953119      1.054683
  H      -2.644072     -0.471057      0.669740
  H      -2.090871      0.558327     -0.642311
  H      -0.231790     -1.041430      1.214498
  H      -1.400173     -2.419968     -0.195185
  H       0.488595     -0.022107     -1.521180
  H      -0.047062      2.050269     -0.426403
  H       1.623511      1.790166     -0.464912
  H       0.775181      1.576192      0.959546
17
Coordinates from ORCA-job geo_opt E -28.281545478210
  C      -1.823232      0.162127      0.378346
  C      -0.571601     -0.702998      0.208009
  O      -0.831176     -1.781719     -0.677347
  C       0.595137      0.045933     -0.437998
  N       0.721225      1.481036     -0.102582
  C       2.013250     -0.583249     -0.075606
  O       2.061450     -1.644321      0.549110
  O       2.953498      0.150121     -0.450684
  H      -1.633331      1.001476      1.037711
  H      -2.613214     -0.439326      0.818711
  H      -2.162575      0.509347     -0.593448
  H      -0.238588     -1.099499      1.179125
  H      -1.357365     -2.454659     -0.228543
  H       0.501662     -0.054794     -1.522796
  H       0.032604      2.072196     -0.579419
  H       1.682265      1.716581     -0.414660
  H       0.669991      1.621748      0.912069
17
Coordinates from ORCA-job geo_opt E -28.282848185480
  C      -1.820682      0.170879      0.430406
  C      -0.588588     -0.712302      0.201590
  O      -0.893669     -1.746228     -0.722662
  C       0.587378      0.033112     -0.439717
  N       0.716382      1.479116     -0.152904
  C       2.006116     -0.561986     -0.046850
  O       2.091292     -1.709096      0.394225
  O       2.920408      0.281375     -0.226051
  H      -1.585997      1.035047      1.040851
  H      -2.582609     -0.408167      0.943250
  H      -2.216451      0.484633     -0.531288
  H      -0.245405     -1.149190      1.150228
  H      -1.319439     -2.482607     -0.268353
  H       0.513290     -0.102087     -1.522508
  H       0.130215      2.077797     -0.740875
  H       1.733469      1.634644     -0.349001
  H       0.554288      1.675061      0.839663
17
Coordinates from ORCA-job geo_opt E -28.283569016240
  C      -1.810271      0.178780      0.461452
  C      -0.591104     -0.715219      0.201065
  O      -0.922828     -1.728255     -0.736522
  C       0.587162      0.029400     -0.443462
  N       0.700516      1.481178     -0.184886
  C       2.008452     -0.554777     -0.034749
  O       2.105641     -1.737827      0.289780
  O       2.911478      0.316765     -0.106919
  H      -1.560365      1.043033      1.065520
  H      -2.564824     -0.394273      0.992157
  H      -2.224597      0.493431     -0.492289
  H      -0.240491     -1.169019      1.138198
  H      -1.298427     -2.491890     -0.283219
  H       0.518938     -0.132756     -1.523407
  H       0.188231      2.070204     -0.844500
  H       1.749100      1.599419     -0.276875
  H       0.443390      1.711807      0.778655
17
Coordinates from ORCA-job geo_opt E -28.284114366170
  C      -1.799568      0.181935      0.482787
  C      -0.587323     -0.715291      0.201610
  O      -0.939709     -1.725862     -0.729475
  C       0.589005      0.030334     -0.454802
  N       0.690982      1.483931     -0.212630
  C       2.008383     -0.549033     -0.036579
  O       2.109531     -1.749763      0.210929
  O       2.902219      0.333136     -0.022667
  H      -1.553785      1.022480      1.121152
  H      -2.565590     -0.402247      0.984962
  H      -2.204341      0.534097     -0.462288
  H      -0.226535     -1.172380      1.133191
  H      -1.293655     -2.496101     -0.270391
  H       0.518248     -0.155088     -1.530897
  H       0.238940      2.062146     -0.921748
  H       1.757032      1.580499     -0.213464
  H       0.356169      1.737206      0.720312
17
Coordinates from ORCA-job geo_opt E -28.284642215450
  C      -1.778628      0.185145      0.509346
  C      -0.579222     -0.717527      0.201213
  O      -0.959501     -1.725221     -0.719844
  C       0.589566      0.028611     -0.474012
  N       0.680082      1.482710     -0.250295
  C       2.004226     -0.538889     -0.036686
  O       2.119173     -1.750016      0.145740
  O       2.874238      0.357274      0.069877
  H      -1.539265      0.971198      1.216904
  H      -2.570595     -0.416780      0.946509
  H      -2.154100      0.613493     -0.416379
  H      -0.204400     -1.179039      1.125682
  H      -1.305648     -2.495331     -0.255125
  H       0.515170     -0.186244     -1.544104
  H       0.299261      2.045391     -1.010267
  H       1.751880      1.564507     -0.147217
  H       0.257763      1.760719      0.638656
17
Coordinates from ORCA-job geo_opt E -28.285000042490
  C      -1.752295      0.188382      0.536987
  C      -0.568901     -0.721901      0.198635
  O      -0.974897     -1.722661     -0.718042
  C       0.590579      0.023557     -0.494201
  N       0.665416      1.478958     -0.289296
  C       2.000961     -0.529485     -0.026992
  O       2.130622     -1.743143      0.126375
  O       2.845591      0.377912      0.144031
  H      -1.518727      0.895773      1.326249
  H      -2.576055     -0.426502      0.890079
  H      -2.086090      0.710078     -0.355869
  H      -0.181589     -1.192014      1.114097
  H      -1.335226     -2.485442     -0.251803
  H       0.516271     -0.218824     -1.557733
  H       0.340814      2.023352     -1.087813
  H       1.730117      1.565612     -0.111134
  H       0.173409      1.776348      0.556431
17
Coordinates from ORCA-job geo_opt E -28.285182428300
  C      -1.725782      0.191948      0.574500
  C      -0.564374     -0.728894      0.191373
  O      -1.002687     -1.707298     -0.735235
  C       0.590643      0.013742     -0.511484
  N       0.651332      1.472025     -0.334238
  C       1.997912     -0.515765     -0.004226
  O       2.158849     -1.728931      0.116806
  O       2.804088      0.410424      0.234199
  H      -1.476422      0.831738      1.416012
  H      -2.568508     -0.423417      0.879542
  H      -2.040240      0.782516     -0.280971
  H      -0.167771     -1.222734      1.090028
  H      -1.369554     -2.471838     -0.276821
  H       0.526699     -0.256226     -1.568274
  H       0.401696      1.997673     -1.171704
  H       1.697564      1.562292     -0.074970
  H       0.086557      1.792746      0.455462
17
Coordinates from ORCA-job geo_opt E -28.285316189890
  C      -1.716350      0.190480      0.590116
  C      -0.562717     -0.731945      0.184240
  O      -1.011196     -1.695909     -0.754154
  C       0.593561      0.009553     -0.515855
  N       0.645220      1.470601     -0.349553
  C       1.999541     -0.513082      0.014038
  O       2.162261     -1.724136      0.149508
  O       2.800016      0.417297      0.253403
  H      -1.448140      0.812089      1.439644
  H      -2.558279     -0.425753      0.896004
  H      -2.038451      0.794962     -0.252242
  H      -0.165572     -1.242265      1.072992
  H      -1.395937     -2.456215     -0.303013
  H       0.539570     -0.266952     -1.571023
  H       0.414346      1.988416     -1.198261
  H       1.681855      1.576631     -0.079741
  H       0.060272      1.796230      0.423898
17
Coordinates from ORCA-job geo_opt E -28.285512221280
  C      -1.700038      0.183415      0.628537
  C      -0.565155     -0.739787      0.167279
  O      -1.040703     -1.662330     -0.802109
  C       0.600428     -0.000902     -0.520376
  N       0.637449      1.465882     -0.384675
  C       2.002180     -0.499290      0.057215
  O       2.177675     -1.706057      0.210698
  O       2.785503      0.445160      0.303135
  H      -1.383712      0.789086      1.472845
  H      -2.529282     -0.434328      0.964034
  H      -2.056458      0.796724     -0.192786
  H      -0.168475     -1.291672      1.030313
  H      -1.456828     -2.418242     -0.371534
  H       0.574797     -0.293865     -1.571375
  H       0.454939      1.965399     -1.256736
  H       1.654901      1.594785     -0.085268
  H       0.012778      1.806022      0.350804
17
Coordinates from ORCA-job geo_opt E -28.285870146280
  C      -1.650032      0.165481      0.710084
  C      -0.565953     -0.756129      0.133050
  O      -1.105978     -1.584217     -0.890370
  C       0.615628     -0.021236     -0.531800
  N       0.613988      1.452986     -0.465159
  C       1.999663     -0.464282      0.143368
  O       2.197692     -1.662753      0.328918
  O       2.742670      0.506010      0.413437
  H      -1.251213      0.714802      1.558303
  H      -2.465301     -0.454557      1.073644
  H      -2.051308      0.822238     -0.054648
  H      -0.169895     -1.390210      0.937558
  H      -1.584404     -2.324912     -0.499444
  H       0.648895     -0.358935     -1.567955
  H       0.538213      1.907246     -1.377814
  H       1.587523      1.633012     -0.082811
  H      -0.100188      1.815454      0.171638
17
Coordinates from ORCA-job geo_opt E -28.286417798810
  C      -1.598605      0.137243      0.785067
  C      -0.568398     -0.770743      0.097116
  O      -1.168812     -1.494346     -0.973965
  C       0.632509     -0.040270     -0.537309
  N       0.594505      1.437019     -0.540006
  C       1.990047     -0.424435      0.229261
  O       2.198144     -1.612399      0.466212
  O       2.703258      0.568479      0.499054
  H      -1.122443      0.645344      1.619142
  H      -2.390484     -0.489677      1.185378
  H      -2.049472      0.824173      0.075996
  H      -0.178352     -1.482942      0.836847
  H      -1.715835     -2.206267     -0.620992
  H       0.729038     -0.419583     -1.554252
  H       0.604912      1.847579     -1.476668
  H       1.525912      1.672030     -0.098045
  H      -0.185925      1.808798      0.007163
17
Coordinates from ORCA-job geo_opt E -28.287094594670
  C      -1.542617      0.103050      0.859275
  C      -0.572047     -0.782142      0.061976
  O      -1.233385     -1.393154     -1.045231
  C       0.646154     -0.058998     -0.544260
  N       0.579583      1.416574     -0.619821
  C       1.968573     -0.380054      0.312475
  O       2.196566     -1.555567      0.590164
  O       2.637897      0.639608      0.595967
  H      -0.994687      0.561884      1.677512
  H      -2.312576     -0.534103      1.284714
  H      -2.033873      0.826279      0.216382
  H      -0.191064     -1.567549      0.728916
  H      -1.836861     -2.074608     -0.725000
  H       0.803527     -0.481241     -1.535782
  H       0.685579      1.785870     -1.568298
  H       1.459868      1.701445     -0.115470
  H      -0.260637      1.792707     -0.173517
17
Coordinates from ORCA-job geo_opt E -28.287956614470
  C      -1.472085      0.027883      0.965029
  C      -0.584423     -0.788913      0.012924
  O      -1.326518     -1.220931     -1.129110
  C       0.664233     -0.078837     -0.545864
  N       0.579714      1.386380     -0.740030
  C       1.923759     -0.303246      0.426750
  O       2.167861     -1.456138      0.779739
  O       2.541313      0.751394      0.703247
  H      -0.836823      0.428519      1.749254
  H      -2.193068     -0.644175      1.420027
  H      -2.031559      0.786630      0.426685
  H      -0.223332     -1.673140      0.557500
  H      -2.007058     -1.845315     -0.848089
  H       0.911672     -0.566440     -1.487175
  H       0.817875      1.690930     -1.688278
  H       1.388346      1.736618     -0.164847
  H      -0.319909      1.768781     -0.437763
17
Coordinates from ORCA-job geo_opt E -28.288108299940
  C      -1.415829     -0.015173      1.027694
  C      -0.587690     -0.790945     -0.010053
  O      -1.374402     -1.109531     -1.160400
  C       0.672599     -0.094243     -0.552335
  N       0.571997      1.359071     -0.819181
  C       1.889172     -0.256772      0.488918
  O       2.166822     -1.397276      0.856507
  O       2.442245      0.824918      0.795033
  H      -0.732174      0.310307      1.806285
  H      -2.134307     -0.699033      1.469333
  H      -1.976024      0.791040      0.566118
  H      -0.247124     -1.725890      0.457510
  H      -2.096504     -1.692348     -0.895425
  H       0.963146     -0.623482     -1.457934
  H       0.929063      1.633032     -1.738654
  H       1.298260      1.761861     -0.176611
  H      -0.369249      1.724464     -0.656806
17
Coordinates from ORCA-job geo_opt E -28.264188814500
  C      -1.561276     -0.112174      1.064314
  C      -0.633386     -0.744196      0.042014
  O      -1.433983     -1.076808     -1.052417
  C       0.660215     -0.015528     -0.484909
  N       0.713940      1.400080     -0.865908
  C       1.916696     -0.151129      0.338005
  O       2.250059     -1.302107      0.684993
  O       2.527658      0.928297      0.532977
  H      -1.095148      0.237410      1.975717
  H      -2.256096     -0.868762      1.413412
  H      -2.165634      0.623412      0.533272
  H      -0.213096     -1.690647      0.454945
  H      -2.136719     -1.663532     -0.758552
  H       0.966059     -0.655256     -1.324065
  H       1.124060      1.531194     -1.780328
  H       1.484687      1.629353     -0.045573
  H      -0.148036      1.930393     -0.727900
17
Coordinates from ORCA-job geo_opt E -28.286145516960
  C      -1.456779     -0.047741      1.050513
  C      -0.597941     -0.771334      0.008423
  O      -1.384537     -1.094597     -1.130352
  C       0.669342     -0.059570     -0.519159
  N       0.604540      1.379831     -0.857657
  C       1.905362     -0.239990      0.452398
  O       2.205396     -1.392913      0.776891
  O       2.478371      0.831612      0.768359
  H      -0.848300      0.270765      1.890628
  H      -2.181929     -0.755533      1.443881
  H      -2.023639      0.748728      0.576165
  H      -0.220715     -1.709715      0.451385
  H      -2.113382     -1.664779     -0.858380
  H       0.966431     -0.638192     -1.397403
  H       0.997573      1.591924     -1.774112
  H       1.325440      1.765259     -0.142535
  H      -0.325234      1.786246     -0.739045
17
Coordinates from ORCA-job geo_opt E -28.287844889820
  C      -1.419500     -0.003003      1.007546
  C      -0.579265     -0.802635      0.001800
  O      -1.338047     -1.137010     -1.161047
  C       0.670688     -0.104009     -0.546791
  N       0.557351      1.350541     -0.777478
  C       1.904917     -0.261308      0.462716
  O       2.172425     -1.392083      0.863779
  O       2.465908      0.823582      0.726361
  H      -0.756395      0.310176      1.807193
  H      -2.166742     -0.667476      1.434438
  H      -1.930836      0.820738      0.526749
  H      -0.241674     -1.728191      0.489604
  H      -2.085201     -1.690111     -0.899390
  H       0.943584     -0.609530     -1.474357
  H       0.902606      1.634328     -1.700800
  H       1.283847      1.745447     -0.154040
  H      -0.383669      1.710543     -0.606282
17
Coordinates from ORCA-job geo_opt E -28.288503642880
  C      -1.413602     -0.024149      1.033104
  C      -0.585730     -0.795791     -0.003361
  O      -1.369688     -1.103636     -1.155476
  C       0.673702     -0.096724     -0.544857
  N       0.568830      1.352491     -0.823326
  C       1.893559     -0.245139      0.476345
  O       2.198417     -1.381951      0.836585
  O       2.423412      0.845481      0.790602
  H      -0.749798      0.270550      1.840288
  H      -2.158017     -0.698379      1.446932
  H      -1.936044      0.808786      0.576219
  H      -0.243470     -1.734599      0.457138
  H      -2.117934     -1.653067     -0.890185
  H       0.962021     -0.632645     -1.449510
  H       0.962323      1.612956     -1.732022
  H       1.270648      1.757833     -0.151246
  H      -0.378629      1.717984     -0.707231
17
Coordinates from ORCA-job geo_opt E -28.288658514960
  C      -1.370130     -0.048642      1.072234
  C      -0.588490     -0.796193     -0.017512
  O      -1.405369     -1.032064     -1.164530
  C       0.678692     -0.109678     -0.555978
  N       0.564627      1.329778     -0.878282
  C       1.865051     -0.214569      0.511906
  O       2.220803     -1.341694      0.854924
  O       2.319260      0.895290      0.874798
  H      -0.673363      0.181374      1.873207
  H      -2.126259     -0.718617      1.470899
  H      -1.874263      0.823647      0.672817
  H      -0.265095     -1.762739      0.395619
  H      -2.171918     -1.557200     -0.902728
  H       0.989509     -0.672408     -1.435421
  H       1.056788      1.584462     -1.739177
  H       1.179492      1.770390     -0.147640
  H      -0.399336      1.668863     -0.885135
17
Coordinates from ORCA-job geo_opt E -28.288729258000
  C      -1.320328     -0.033578      1.075233
  C      -0.569615     -0.799746     -0.020194
  O      -1.416982     -1.023829     -1.141582
  C       0.697011     -0.119693     -0.596004
  N       0.537671      1.320249     -0.904574
  C       1.841193     -0.224253      0.514579
  O       2.258067     -1.357932      0.769746
  O       2.182408      0.865937      1.024404
  H      -0.615756      0.171768      1.879447
  H      -2.102198     -0.669377      1.472796
  H      -1.775845      0.872003      0.690127
  H      -0.262455     -1.768584      0.400404
  H      -2.181587     -1.543419     -0.866090
  H       0.998913     -0.686305     -1.471250
  H       1.119798      1.609249     -1.693288
  H       1.040074      1.781435     -0.080234
  H      -0.430370      1.606077     -1.053522
17
Coordinates from ORCA-job geo_opt E -28.289258192470
  C      -1.298723     -0.063469      1.105170
  C      -0.577936     -0.799419     -0.032577
  O      -1.435604     -0.961475     -1.160679
  C       0.696681     -0.129691     -0.588062
  N       0.540914      1.301677     -0.931231
  C       1.824707     -0.196048      0.542537
  O       2.245563     -1.314976      0.844915
  O       2.159843      0.918094      1.003377
  H      -0.570107      0.105404      1.894899
  H      -2.077495     -0.708560      1.498187
  H      -1.757178      0.856386      0.761276
  H      -0.283475     -1.789911      0.343022
  H      -2.222787     -1.451636     -0.892845
  H       1.021646     -0.708770     -1.448049
  H       1.159294      1.582945     -1.697935
  H       0.999341      1.788290     -0.114159
  H      -0.424685      1.571159     -1.127847
17
Coordinates from ORCA-job geo_opt E -28.289563824920
  C      -1.323271     -0.045951      1.080819
  C      -0.576279     -0.800667     -0.026601
  O      -1.412592     -0.999443     -1.165747
  C       0.695270     -0.125452     -0.576040
  N       0.541067      1.311961     -0.887729
  C       1.845878     -0.219999      0.524346
  O       2.225363     -1.347110      0.849132
  O       2.245305      0.891519      0.938443
  H      -0.610405      0.186270      1.867484
  H      -2.084191     -0.699597      1.496430
  H      -1.809424      0.842199      0.691747
  H      -0.268570     -1.777428      0.374218
  H      -2.193801     -1.501786     -0.901880
  H       1.007575     -0.680363     -1.457941
  H       1.103460      1.593040     -1.698771
  H       1.051095      1.782001     -0.103938
  H      -0.436482      1.590806     -1.003973
17
Coordinates from ORCA-job geo_opt E -28.290145283620
  C      -1.269916     -0.070303      1.114789
  C      -0.576760     -0.801657     -0.041283
  O      -1.437781     -0.912108     -1.173777
  C       0.705795     -0.143554     -0.580887
  N       0.529766      1.281857     -0.926902
  C       1.819120     -0.195311      0.553234
  O       2.239638     -1.306138      0.885356
  O       2.145437      0.930944      0.989604
  H      -0.532577      0.122650      1.888584
  H      -2.037166     -0.717196      1.530937
  H      -1.738312      0.845359      0.769342
  H      -0.292046     -1.805260      0.306761
  H      -2.242334     -1.379533     -0.915393
  H       1.037028     -0.712721     -1.447175
  H       1.179494      1.571577     -1.668080
  H       0.908970      1.789653     -0.106555
  H      -0.438358      1.501744     -1.178554
17
Coordinates from ORCA-job geo_opt E -28.290952122670
  C      -1.234066     -0.068973      1.117896
  C      -0.572126     -0.805768     -0.049019
  O      -1.440677     -0.868385     -1.174889
  C       0.719239     -0.154748     -0.577896
  N       0.512540      1.265736     -0.927221
  C       1.815452     -0.198481      0.558979
  O       2.255064     -1.306779      0.881646
  O       2.100867      0.926047      1.023125
  H      -0.498619      0.138958      1.888971
  H      -2.004393     -0.701049      1.551061
  H      -1.692635      0.851233      0.767759
  H      -0.296688     -1.819410      0.277884
  H      -2.255185     -1.322304     -0.923674
  H       1.051658     -0.719843     -1.447626
  H       1.193955      1.565246     -1.634745
  H       0.793602      1.792211     -0.083689
  H      -0.447987      1.426309     -1.248562
17
Coordinates from ORCA-job geo_opt E -28.291544221440
  C      -1.196423     -0.083425      1.131933
  C      -0.573132     -0.808223     -0.061005
  O      -1.452231     -0.802357     -1.175573
  C       0.729209     -0.164270     -0.572008
  N       0.499986      1.246332     -0.952006
  C       1.803591     -0.182322      0.581409
  O       2.271647     -1.281807      0.898255
  O       2.039673      0.942041      1.067688
  H      -0.450830      0.095963      1.900967
  H      -1.979493     -0.699151      1.565569
  H      -1.630880      0.858508      0.808382
  H      -0.316513     -1.837604      0.229255
  H      -2.277217     -1.242514     -0.935173
  H       1.076794     -0.741370     -1.428100
  H       1.207623      1.548890     -1.629646
  H       0.694363      1.795861     -0.096064
  H      -0.446168      1.355449     -1.333882
17
Coordinates from ORCA-job geo_opt E -28.292041748740
  C      -1.188319     -0.084851      1.125045
  C      -0.574663     -0.811869     -0.070657
  O      -1.447847     -0.779063     -1.184692
  C       0.734914     -0.165066     -0.556617
  N       0.493081      1.241374     -0.952063
  C       1.809613     -0.177745      0.596750
  O       2.271317     -1.279283      0.917180
  O       2.053204      0.945348      1.076792
  H      -0.441783      0.088013      1.895478
  H      -1.980459     -0.686511      1.561702
  H      -1.610540      0.865315      0.808185
  H      -0.325982     -1.845608      0.208483
  H      -2.272654     -1.229365     -0.964112
  H       1.096454     -0.745390     -1.405716
  H       1.154627      1.528374     -1.677328
  H       0.705460      1.802256     -0.100937
  H      -0.476423      1.334072     -1.277494
17
Coordinates from ORCA-job geo_opt E -28.292476191590
  C      -1.155722     -0.114239      1.146165
  C      -0.579869     -0.810071     -0.088337
  O      -1.459793     -0.704967     -1.190896
  C       0.739613     -0.172748     -0.552623
  N       0.489673      1.218832     -0.994840
  C       1.782438     -0.141097      0.635899
  O       2.266841     -1.226740      0.974426
  O       1.979508      0.990406      1.113549
  H      -0.386179     -0.019509      1.908945
  H      -1.970464     -0.697826      1.565466
  H      -1.534542      0.872025      0.893411
  H      -0.360407     -1.859827      0.147875
  H      -2.293210     -1.147967     -0.989863
  H       1.135472     -0.776596     -1.369361
  H       1.137708      1.493637     -1.735301
  H       0.693740      1.802821     -0.152670
  H      -0.484807      1.293868     -1.311845
17
Coordinates from ORCA-job geo_opt E -28.292925982980
  C      -1.163823     -0.127848      1.144862
  C      -0.582080     -0.810447     -0.096997
  O      -1.455969     -0.699822     -1.204657
  C       0.738861     -0.170590     -0.548413
  N       0.495396      1.216894     -1.002260
  C       1.775351     -0.118948      0.651639
  O       2.239401     -1.200446      1.025905
  O       1.990846      1.024884      1.090934
  H      -0.395652     -0.079493      1.913341
  H      -1.998096     -0.701026      1.539849
  H      -1.515657      0.874921      0.922768
  H      -0.369420     -1.862141      0.134687
  H      -2.285067     -1.158109     -1.021016
  H       1.159289     -0.783488     -1.346156
  H       1.047782      1.459228     -1.825940
  H       0.826795      1.797882     -0.191248
  H      -0.507958      1.338547     -1.187299
17
Coordinates from ORCA-job geo_opt E -28.293243759010
  C      -1.162716     -0.148339      1.151881
  C      -0.584485     -0.810638     -0.103199
  O      -1.460321     -0.686124     -1.210371
  C       0.736068     -0.171711     -0.552249
  N       0.502830      1.211974     -1.012649
  C       1.756367     -0.091807      0.662712
  O       2.209484     -1.160145      1.081169
  O       1.974123      1.068968      1.057941
  H      -0.400070     -0.155834      1.927096
  H      -2.019853     -0.709288      1.515204
  H      -1.478281      0.873235      0.964310
  H      -0.378976     -1.866357      0.117349
  H      -2.286553     -1.153123     -1.035545
  H       1.177272     -0.793100     -1.331384
  H       0.992610      1.433568     -1.881270
  H       0.926773      1.780118     -0.231551
  H      -0.504272      1.378604     -1.119446
17
Coordinates from ORCA-job geo_opt E -28.293386835070
  C      -1.160124     -0.165061      1.155897
  C      -0.585405     -0.812145     -0.107061
  O      -1.464352     -0.675581     -1.211247
  C       0.734976     -0.171720     -0.552963
  N       0.506313      1.209908     -1.014413
  C       1.746799     -0.075500      0.665579
  O       2.178708     -1.134737      1.125931
  O       1.983682      1.096865      1.017413
  H      -0.408379     -0.198159      1.940532
  H      -2.031414     -0.717852      1.497951
  H      -1.453487      0.866154      0.982825
  H      -0.378929     -1.870491      0.102134
  H      -2.291344     -1.141348     -1.036196
  H       1.185959     -0.794005     -1.325406
  H       0.967881      1.418536     -1.901969
  H       0.968135      1.770049     -0.246094
  H      -0.499019      1.395085     -1.092914
17
Coordinates from ORCA-job geo_opt E -28.293442516800
  C      -1.154841     -0.169234      1.156728
  C      -0.585013     -0.813716     -0.108038
  O      -1.468023     -0.671704     -1.207713
  C       0.734845     -0.171480     -0.554103
  N       0.505199      1.209572     -1.014672
  C       1.743793     -0.073195      0.664777
  O       2.171538     -1.129390      1.135498
  O       1.983562      1.101168      1.010305
  H      -0.409782     -0.207618      1.947220
  H      -2.033357     -0.714709      1.491851
  H      -1.435010      0.866164      0.984336
  H      -0.376496     -1.872781      0.096338
  H      -2.294412     -1.137516     -1.030215
  H       1.185600     -0.791431     -1.328418
  H       0.973732      1.416869     -1.898775
  H       0.958342      1.767872     -0.237490
  H      -0.499678      1.391130     -1.107628
17
Coordinates from ORCA-job geo_opt E -28.293458283320
  C      -1.150216     -0.172400      1.158184
  C      -0.585005     -0.815021     -0.109137
  O      -1.471298     -0.668085     -1.204841
  C       0.734584     -0.171570     -0.555292
  N       0.504371      1.208731     -1.018322
  C       1.740086     -0.069440      0.666091
  O       2.171761     -1.122502      1.139716
  O       1.972310      1.106092      1.014152
  H      -0.410040     -0.224100      1.952549
  H      -2.037912     -0.707352      1.485495
  H      -1.413212      0.868534      0.991814
  H      -0.376592     -1.874789      0.091106
  H      -2.296414     -1.135877     -1.027144
  H       1.186187     -0.791671     -1.329056
  H       0.975445      1.413819     -1.901197
  H       0.956052      1.765359     -0.235786
  H      -0.500108      1.390272     -1.118334
17
Coordinates from ORCA-job geo_opt E -28.293459796630
  C      -1.149952     -0.172110      1.158325
  C      -0.584867     -0.815333     -0.108991
  O      -1.471292     -0.668709     -1.204492
  C       0.734561     -0.171644     -0.555104
  N       0.503749      1.208887     -1.018705
  C       1.740383     -0.069554      0.666235
  O       2.173762     -1.122638      1.138179
  O       1.970809      1.105697      1.016026
  H      -0.410346     -0.226496      1.953135
  H      -2.039429     -0.704646      1.484534
  H      -1.409736      0.869738      0.992668
  H      -0.376164     -1.875028      0.091057
  H      -2.296550     -1.135993     -1.026107
  H       1.185325     -0.791512     -1.329621
  H       0.977589      1.414281     -1.900019
  H       0.952785      1.766277     -0.234985
  H      -0.500628      1.388783     -1.122134
17
Coordinates from ORCA-job geo_opt E -28.293460365970
  C      -1.150294     -0.171976      1.158131
  C      -0.584754     -0.815616     -0.108905
  O      -1.470945     -0.669787     -1.204685
  C       0.734448     -0.171599     -0.554746
  N       0.503329      1.209128     -1.018497
  C       1.740761     -0.069286      0.666383
  O       2.174247     -1.122337      1.138145
  O       1.971073      1.105966      1.015924
  H      -0.411335     -0.229082      1.953394
  H      -2.041485     -0.702420      1.482958
  H      -1.407135      0.870679      0.993175
  H      -0.375721     -1.875195      0.091327
  H      -2.296152     -1.137076     -1.026034
  H       1.184756     -0.791094     -1.329881
  H       0.976482      1.414157     -1.900260
  H       0.953821      1.766551     -0.235632
  H      -0.501095      1.388988     -1.120797
