17
zwitterion conformer 2
C      -1.79096748     0.13571167     0.13052482
C      -0.51841437    -0.65045367     0.27126848
O      -0.66453918    -1.97046719    -0.19232505
C       0.59256815     0.05216242    -0.45625875
N       0.70515256     1.42172623     0.06161134
C       1.91069412    -0.58298780    -0.19958221
O       2.10887218    -1.47321252     0.65070538
O       2.97939567    -0.12435301    -0.98586571
H      -1.84439119     0.85009112     0.97918468
H      -2.66643059    -0.54872292     0.11161178
H      -1.84635598     0.73870691    -0.79817705
H      -0.20825573    -0.73871265     1.33535278
H      -1.51124664    -2.36519185     0.06916249
H       0.43379763     0.10950873    -1.54618133
H      -0.22014381     1.88449377     0.10765645
H       1.37524093     1.95278375    -0.52972586
H       1.16502371     1.30891701     0.99103775
