24
Coordinates from ORCA-job geo_opt E -43.543887636710
  N          -2.19928216886224      1.10597492776035      0.82989724068390
  C          -2.46422737447577     -0.34152122774075      0.92902147358700
  C          -1.71017641283694     -1.23926209085509     -0.05381810024713
  O          -2.04084917744957     -2.41139648648738     -0.17379698333034
  N          -0.74376315401717     -0.64416505146823     -0.77057773503768
  C           0.23729585473094     -1.41961368911292     -1.51785174949168
  C           1.56293332181469     -1.15875114397997     -0.80233787492300
  O           2.08612415762732     -1.97066182043196     -0.05057206198309
  N           2.03004557933816      0.08958084937293     -1.00518342204537
  C           2.74943949849933      0.79748800825351      0.02498635356435
  C           1.74289920042055      1.51843991838974      0.98074441132280
  O           0.52598707239885      1.39867293956626      0.69134745447183
  O           2.20379425360507      2.14488052391537      1.93806673056600
  H          -2.75127951817418      1.60510626053401      1.53550221904888
  H          -1.19069911540920      1.33203298626716      0.99556979076312
  H          -2.44901879395702      1.45925567798671     -0.09988572953304
  H          -3.52773388490872     -0.54287592474569      0.78582991090868
  H          -2.19125879015400     -0.70152268429610      1.92357751855544
  H          -0.35412381407371      0.23217042732329     -0.40820152608139
  H           0.27037653456719     -1.08699447448965     -2.55692902577153
  H          -0.02786036465547     -2.47715371718164     -1.46667335879482
  H           1.49027982374187      0.68900872555995     -1.61600162123765
  H           3.42787525571328      1.53508725454252     -0.40410942851640
  H           3.32322200651674      0.08621982131758      0.62151013352110
