24
Coordinates from ORCA-job geo_opt E -43.461915653010
  N      -3.140003      0.891021      0.456214
  C      -3.385711     -0.500025      0.210558
  C      -2.141676     -1.218451     -0.098769
  O      -2.183371     -2.457613     -0.341209
  N      -0.876359     -0.559900     -0.135363
  C       0.276858     -1.362939     -0.449559
  C       1.553073     -0.653637     -0.477430
  O       2.595963     -1.339569     -0.753532
  N       1.751529      0.721849     -0.228503
  C       3.071142      1.301632     -0.288083
  C       4.012337      0.669863      0.702745
  O       3.621146     -0.256902      1.466666
  O       5.303054      1.168343      0.712285
  H      -4.084981      1.376090      0.505937
  H      -2.689016      1.059621      1.370898
  H      -2.666586      1.339737     -0.352359
  H      -4.100384     -0.613944     -0.635500
  H      -3.900400     -0.932316      1.105211
  H      -0.876719      0.454211      0.067640
  H       0.091944     -1.818619     -1.442624
  H       0.288929     -2.245719      0.255518
  H       0.939244      1.320204     -0.000611
  H       3.034564      2.375920     -0.010749
  H       3.505423      1.281145     -1.309268
24
Coordinates from ORCA-job geo_opt E -43.496926984750
  N      -3.099844      0.954106      0.488685
  C      -3.334720     -0.470388      0.226562
  C      -2.100613     -1.231541     -0.111136
  O      -2.159892     -2.443710     -0.360513
  N      -0.878995     -0.598758     -0.154870
  C       0.279051     -1.393839     -0.489112
  C       1.576826     -0.691011     -0.517710
  O       2.595260     -1.354710     -0.809637
  N       1.721311      0.648333     -0.274822
  C       3.015067      1.271801     -0.290084
  C       3.955758      0.710442      0.762083
  O       3.585701     -0.166146      1.562801
  O       5.143485      1.252910      0.788294
  H      -4.025979      1.429709      0.561042
  H      -2.630145      1.117115      1.389177
  H      -2.638732      1.414202     -0.309799
  H      -4.048806     -0.584579     -0.603290
  H      -3.825001     -0.922548      1.104423
  H      -0.860918      0.390117      0.058054
  H       0.102534     -1.841020     -1.481912
  H       0.315211     -2.265084      0.195752
  H       0.905142      1.212553     -0.072222
  H       2.922035      2.340377     -0.049293
  H       3.486265      1.221669     -1.282358
24
Coordinates from ORCA-job geo_opt E -43.508550203830
  N      -3.056071      1.001028      0.510548
  C      -3.287812     -0.442885      0.258810
  C      -2.070533     -1.254918     -0.116111
  O      -2.178070     -2.448902     -0.354186
  N      -0.883881     -0.634101     -0.181594
  C       0.286549     -1.412164     -0.535301
  C       1.615523     -0.712232     -0.577167
  O       2.613511     -1.366571     -0.873364
  N       1.695267      0.600093     -0.344769
  C       2.966924      1.267624     -0.292630
  C       3.876378      0.750448      0.843903
  O       3.459323     -0.106212      1.633849
  O       4.993706      1.273260      0.884750
  H      -3.967413      1.468020      0.618937
  H      -2.541947      1.162686      1.384128
  H      -2.613622      1.456883     -0.295321
  H      -4.015433     -0.563741     -0.546081
  H      -3.736410     -0.901708      1.140761
  H      -0.835262      0.343879      0.039546
  H       0.120650     -1.860430     -1.524826
  H       0.361472     -2.265927      0.144708
  H       0.868024      1.137275     -0.158212
  H       2.824878      2.330496     -0.089662
  H       3.504248      1.178101     -1.240603
24
Coordinates from ORCA-job geo_opt E -43.511853924740
  N      -3.018443      1.011941      0.564687
  C      -3.254216     -0.433059      0.321650
  C      -2.058877     -1.262802     -0.122278
  O      -2.208839     -2.450538     -0.367533
  N      -0.871097     -0.646132     -0.224398
  C       0.288596     -1.421779     -0.619983
  C       1.640462     -0.738560     -0.684510
  O       2.616810     -1.409865     -1.010120
  N       1.713961      0.579927     -0.479675
  C       2.988169      1.234087     -0.327390
  C       3.742219      0.793303      0.968366
  O       3.119854      0.124204      1.810875
  O       4.860734      1.316452      1.118075
  H      -3.922179      1.470397      0.745364
  H      -2.432621      1.166952      1.393653
  H      -2.627454      1.471824     -0.265589
  H      -4.021665     -0.556329     -0.444329
  H      -3.645916     -0.901909      1.224760
  H      -0.782986      0.323336      0.028028
  H       0.105117     -1.859057     -1.610139
  H       0.389125     -2.278177      0.053310
  H       0.887076      1.128760     -0.322148
  H       2.852972      2.312069     -0.241419
  H       3.639196      1.024954     -1.179143
24
Coordinates from ORCA-job geo_opt E -43.511998831030
  N      -2.978406      1.024516      0.614057
  C      -3.203998     -0.425197      0.394660
  C      -2.030559     -1.271497     -0.120910
  O      -2.225494     -2.451976     -0.366100
  N      -0.849031     -0.649909     -0.272990
  C       0.304951     -1.417800     -0.696164
  C       1.678967     -0.742355     -0.790180
  O       2.645491     -1.440981     -1.082501
  N       1.731889      0.587096     -0.641109
  C       2.986296      1.239225     -0.352110
  C       3.494627      0.915859      1.115527
  O       2.691215      0.287276      1.835366
  O       4.714721      1.149350      1.321444
  H      -3.868791      1.464953      0.883128
  H      -2.305663      1.184272      1.373888
  H      -2.655866      1.483342     -0.246407
  H      -4.013377     -0.568310     -0.323184
  H      -3.519316     -0.903387      1.323036
  H      -0.709573      0.305118      0.013748
  H       0.115216     -1.865120     -1.678917
  H       0.446486     -2.259393     -0.009264
  H       0.902308      1.140796     -0.517966
  H       2.882195      2.319201     -0.413549
  H       3.765711      0.894922     -1.033389
24
Coordinates from ORCA-job geo_opt E -43.515598292990
  N      -2.953370      1.018417      0.639633
  C      -3.192739     -0.421197      0.398073
  C      -2.026770     -1.259460     -0.137403
  O      -2.229563     -2.430745     -0.414620
  N      -0.842216     -0.646666     -0.287680
  C       0.302134     -1.424109     -0.711478
  C       1.673021     -0.750338     -0.800258
  O       2.650182     -1.458878     -1.022490
  N       1.735409      0.580211     -0.669760
  C       2.990366      1.222971     -0.374806
  C       3.459290      0.896369      1.099805
  O       2.617767      0.342554      1.831403
  O       4.628361      1.224606      1.378463
  H      -3.838129      1.458960      0.928112
  H      -2.270135      1.160163      1.394027
  H      -2.637846      1.489505     -0.217287
  H      -4.006979     -0.546371     -0.318948
  H      -3.505590     -0.911855      1.322202
  H      -0.684708      0.294605      0.033732
  H       0.109173     -1.869894     -1.694643
  H       0.439800     -2.266623     -0.021847
  H       0.908778      1.135708     -0.531328
  H       2.898928      2.304277     -0.453499
  H       3.774836      0.857789     -1.039288
24
Coordinates from ORCA-job geo_opt E -43.517982240430
  N      -2.887863      0.993207      0.751229
  C      -3.175186     -0.407167      0.390618
  C      -2.032814     -1.227416     -0.212334
  O      -2.272066     -2.359337     -0.602737
  N      -0.824979     -0.648559     -0.302182
  C       0.297577     -1.446901     -0.737777
  C       1.681209     -0.801875     -0.765712
  O       2.656000     -1.536160     -0.900818
  N       1.766535      0.534847     -0.754526
  C       3.013781      1.178477     -0.432159
  C       3.315772      1.017923      1.109645
  O       2.370354      0.608743      1.805106
  O       4.440289      1.380455      1.482886
  H      -3.755423      1.431647      1.091556
  H      -2.188980      1.048442      1.503152
  H      -2.565022      1.525175     -0.066826
  H      -3.989908     -0.446863     -0.336402
  H      -3.503043     -0.964247      1.272051
  H      -0.617602      0.230602      0.145436
  H       0.111507     -1.847330     -1.741426
  H       0.403917     -2.319593     -0.078521
  H       0.944785      1.109272     -0.663859
  H       2.971515      2.241596     -0.661448
  H       3.839644      0.705060     -0.964837
24
Coordinates from ORCA-job geo_opt E -43.521900637460
  N      -2.735387      0.937424      0.953201
  C      -3.120054     -0.361251      0.387569
  C      -2.023080     -1.147585     -0.322954
  O      -2.326910     -2.178783     -0.904187
  N      -0.774410     -0.652116     -0.316047
  C       0.296144     -1.493244     -0.790638
  C       1.689936     -0.892971     -0.733275
  O       2.651548     -1.657302     -0.677529
  N       1.829861      0.429055     -0.909928
  C       3.035958      1.092588     -0.487271
  C       2.980403      1.249610      1.080402
  O       1.868002      1.046367      1.591020
  O       3.991929      1.690721      1.627745
  H      -3.568334      1.371928      1.375324
  H      -2.025444      0.830241      1.689355
  H      -2.377173      1.563884      0.221267
  H      -3.922742     -0.236294     -0.343702
  H      -3.494250     -1.021120      1.175822
  H      -0.488471      0.070789      0.329516
  H       0.110959     -1.815312     -1.821348
  H       0.355385     -2.411357     -0.186584
  H       1.016267      1.025307     -0.935856
  H       3.119227      2.074186     -0.950856
  H       3.910638      0.485236     -0.720932
24
Coordinates from ORCA-job geo_opt E -43.525991215480
  N      -2.532955      0.917633      1.075559
  C      -3.024617     -0.289324      0.406157
  C      -1.985380     -1.077506     -0.372040
  O      -2.349273     -2.025332     -1.055153
  N      -0.700741     -0.680203     -0.326129
  C       0.310394     -1.563802     -0.850000
  C       1.693760     -0.977052     -0.741973
  O       2.653672     -1.726451     -0.553064
  N       1.851335      0.328903     -1.007291
  C       2.972597      1.055718     -0.469832
  C       2.609958      1.389354      1.022967
  O       1.419772      1.214175      1.324781
  O       3.478430      1.922391      1.711162
  H      -3.322741      1.373302      1.553774
  H      -1.820831      0.696871      1.783729
  H      -2.135615      1.576732      0.395032
  H      -3.815504     -0.042845     -0.306463
  H      -3.445602     -0.983903      1.139055
  H      -0.350426     -0.084466      0.415618
  H       0.109234     -1.826361     -1.893538
  H       0.342251     -2.510345     -0.289070
  H       1.027294      0.903619     -1.121764
  H       3.143828      1.969384     -1.037369
  H       3.871162      0.439508     -0.474034
24
Coordinates from ORCA-job geo_opt E -43.492153386820
  N      -1.829852      0.998051      1.155881
  C      -2.630558     -0.023700      0.465702
  C      -1.801077     -0.940814     -0.379560
  O      -2.324604     -1.772242     -1.118969
  N      -0.453107     -0.818835     -0.381090
  C       0.396275     -1.817304     -0.994551
  C       1.690671     -1.162676     -0.804275
  O       2.713909     -1.753326     -0.420392
  N       1.707597      0.150324     -1.077616
  C       2.474785      1.110832     -0.322538
  C       1.573684      1.402300      0.912154
  O       0.436404      0.897379      0.889755
  O       2.022926      2.078132      1.850183
  H      -2.455243      1.601865      1.702990
  H      -1.149796      0.601017      1.814597
  H      -1.323059      1.582662      0.485243
  H      -3.375132      0.425519     -0.191314
  H      -3.169247     -0.635419      1.190567
  H       0.057991     -0.388610      0.394906
  H       0.141548     -2.008022     -2.038652
  H       0.395060     -2.787917     -0.485383
  H       0.811107      0.542546     -1.352264
  H       2.641784      2.002530     -0.926057
  H       3.447935      0.715710     -0.039200
24
Coordinates from ORCA-job geo_opt E -43.528718978840
  N      -2.362755      0.876806      1.159169
  C      -2.955972     -0.239861      0.412433
  C      -1.963307     -1.041801     -0.391013
  O      -2.356007     -1.921885     -1.151775
  N      -0.648240     -0.740927     -0.308579
  C       0.317375     -1.646889     -0.898739
  C       1.692102     -1.057592     -0.771499
  O       2.657803     -1.762324     -0.457343
  N       1.866232      0.245782     -1.067202
  C       2.879613      1.067227     -0.426910
  C       2.349738      1.574295      0.955094
  O       1.156589      1.349072      1.216542
  O       3.142616      2.157229      1.704388
  H      -3.107637      1.376635      1.662848
  H      -1.677816      0.567082      1.859450
  H      -1.900229      1.538378      0.527013
  H      -3.712609      0.114298     -0.289973
  H      -3.449364     -0.932026      1.098570
  H      -0.254022     -0.241041      0.489917
  H       0.069045     -1.832703     -1.947276
  H       0.333317     -2.625199     -0.401895
  H       1.022911      0.769960     -1.274547
  H       3.104935      1.910299     -1.080533
  H       3.795682      0.495185     -0.288025
24
Coordinates from ORCA-job geo_opt E -43.531987577960
  N      -2.354313      0.949433      1.091629
  C      -2.932439     -0.229964      0.418885
  C      -1.951404     -1.094057     -0.358100
  O      -2.369471     -2.005069     -1.060140
  N      -0.646040     -0.775063     -0.302459
  C       0.340118     -1.652515     -0.903609
  C       1.717757     -1.038582     -0.795267
  O       2.700395     -1.729621     -0.524282
  N       1.806386      0.275789     -1.043902
  C       2.826123      1.096788     -0.432544
  C       2.361570      1.466112      1.019484
  O       1.189186      1.150972      1.301456
  O       3.177086      2.034916      1.756184
  H      -3.101119      1.467686      1.572016
  H      -1.651878      0.693063      1.796011
  H      -1.902799      1.576385      0.415510
  H      -3.700663      0.072127     -0.294383
  H      -3.409298     -0.887602      1.148005
  H      -0.245277     -0.215192      0.443720
  H       0.085981     -1.845590     -1.949997
  H       0.389873     -2.625465     -0.402696
  H       0.932872      0.772109     -1.161699
  H       2.973547      1.997324     -1.027642
  H       3.763806      0.546017     -0.376065
24
Coordinates from ORCA-job geo_opt E -43.531955277570
  N      -2.349958      0.934978      1.163346
  C      -2.911527     -0.231636      0.456377
  C      -1.945915     -1.077215     -0.385733
  O      -2.400462     -1.952625     -1.103823
  N      -0.646719     -0.769416     -0.301984
  C       0.344558     -1.620289     -0.928937
  C       1.760939     -1.054465     -0.785004
  O       2.691278     -1.779686     -0.455293
  N       1.882805      0.244063     -1.094902
  C       2.868210      1.050960     -0.425629
  C       2.246454      1.510667      0.949858
  O       1.022198      1.285580      1.055416
  O       2.983777      2.117353      1.722992
  H      -3.095912      1.411502      1.687823
  H      -1.610126      0.662937      1.824920
  H      -1.926040      1.597455      0.501638
  H      -3.697932      0.090693     -0.229984
  H      -3.360909     -0.928187      1.169307
  H      -0.245515     -0.224516      0.455387
  H       0.101924     -1.771464     -1.986031
  H       0.375377     -2.610835     -0.457717
  H       1.027733      0.754914     -1.265901
  H       3.138677      1.913400     -1.033646
  H       3.747084      0.445832     -0.202366
24
Coordinates from ORCA-job geo_opt E -43.535611576970
  N      -2.206576      0.995532      1.106073
  C      -2.822120     -0.186638      0.462370
  C      -1.921125     -1.097081     -0.390641
  O      -2.430323     -1.991574     -1.047020
  N      -0.609513     -0.843787     -0.330435
  C       0.365493     -1.700409     -0.981705
  C       1.763768     -1.100897     -0.799296
  O       2.725939     -1.785941     -0.480651
  N       1.781962      0.221963     -1.043092
  C       2.718447      1.087101     -0.376611
  C       2.118562      1.489083      1.027878
  O       0.925017      1.149959      1.218391
  O       2.864259      2.110554      1.793902
  H      -2.917527      1.519673      1.633684
  H      -1.446684      0.734817      1.750562
  H      -1.788479      1.621577      0.408337
  H      -3.628399      0.142175     -0.197872
  H      -3.267514     -0.836393      1.220221
  H      -0.180535     -0.213324      0.350207
  H       0.114673     -1.824933     -2.040724
  H       0.376800     -2.701645     -0.533468
  H       0.900310      0.668494     -1.262238
  H       2.908933      1.988759     -0.958844
  H       3.654632      0.552933     -0.198915
24
Coordinates from ORCA-job geo_opt E -43.537766736480
  N      -2.087403      1.010461      1.083558
  C      -2.758241     -0.166239      0.492648
  C      -1.901643     -1.113800     -0.356795
  O      -2.446643     -1.983270     -1.021814
  N      -0.585623     -0.888098     -0.331711
  C       0.366660     -1.736719     -1.028900
  C       1.756270     -1.126162     -0.834749
  O       2.721110     -1.786423     -0.476464
  N       1.761263      0.203874     -1.049540
  C       2.640202      1.086230     -0.324481
  C       1.969629      1.498058      1.039657
  O       0.781917      1.132678      1.209931
  O       2.665431      2.151346      1.829631
  H      -2.762923      1.568747      1.620495
  H      -1.308497      0.750770      1.706183
  H      -1.678409      1.610127      0.357924
  H      -3.575390      0.172101     -0.149337
  H      -3.199291     -0.778983      1.282071
  H      -0.139743     -0.225046      0.309958
  H       0.094616     -1.823069     -2.085393
  H       0.367057     -2.752589     -0.615431
  H       0.887921      0.627310     -1.334393
  H       2.852705      1.992301     -0.892937
  H       3.579025      0.576395     -0.099996
24
Coordinates from ORCA-job geo_opt E -43.538750726350
  N      -2.034961      1.035573      1.039839
  C      -2.717655     -0.177835      0.553468
  C      -1.894880     -1.104659     -0.340693
  O      -2.450664     -2.001453     -0.962724
  N      -0.580993     -0.883576     -0.347716
  C       0.357704     -1.723747     -1.076733
  C       1.750221     -1.136048     -0.855045
  O       2.690904     -1.802333     -0.446980
  N       1.802946      0.192259     -1.071515
  C       2.626493      1.061024     -0.269002
  C       1.858740      1.481851      1.032351
  O       0.671912      1.096925      1.141260
  O       2.480117      2.163734      1.857941
  H      -2.671278      1.581523      1.631490
  H      -1.178928      0.833045      1.578622
  H      -1.731137      1.632144      0.262262
  H      -3.603758      0.108538     -0.017114
  H      -3.056023     -0.779375      1.399515
  H      -0.138090     -0.194909      0.271351
  H       0.084229     -1.763447     -2.135073
  H       0.334647     -2.752571     -0.701229
  H       0.962488      0.624096     -1.430262
  H       2.899645      1.966505     -0.812530
  H       3.538322      0.542736      0.028630
24
Coordinates from ORCA-job geo_opt E -43.539571013400
  N      -2.114616      1.064753      0.957532
  C      -2.737233     -0.222063      0.607832
  C      -1.899798     -1.127036     -0.284566
  O      -2.427732     -2.059964     -0.880729
  N      -0.597044     -0.850863     -0.344461
  C       0.338368     -1.668877     -1.101242
  C       1.734537     -1.110088     -0.872125
  O       2.659451     -1.806465     -0.470926
  N       1.858198      0.213495     -1.082644
  C       2.694766      1.031853     -0.240482
  C       1.918377      1.439763      1.053459
  O       0.730725      1.059525      1.143897
  O       2.523860      2.110909      1.896211
  H      -2.740283      1.592302      1.575712
  H      -1.197631      0.972614      1.425709
  H      -1.937490      1.632981      0.121953
  H      -3.682463     -0.049263      0.090189
  H      -2.960083     -0.790706      1.512418
  H      -0.166605     -0.152608      0.273474
  H       0.063844     -1.670154     -2.159898
  H       0.313900     -2.707783     -0.757484
  H       1.035138      0.685292     -1.430935
  H       3.008154      1.937354     -0.761245
  H       3.581660      0.475029      0.058466
24
Coordinates from ORCA-job geo_opt E -43.540786019940
  N      -2.140244      1.096979      0.881329
  C      -2.696848     -0.252798      0.675280
  C      -1.894945     -1.153741     -0.259572
  O      -2.437003     -2.099681     -0.822060
  N      -0.607689     -0.841308     -0.385867
  C       0.322609     -1.638936     -1.164335
  C       1.719923     -1.112618     -0.870240
  O       2.617210     -1.837559     -0.456405
  N       1.873443      0.212950     -1.059707
  C       2.709485      0.999214     -0.186925
  C       1.909109      1.446414      1.083475
  O       0.699187      1.118660      1.129112
  O       2.513756      2.094773      1.940388
  H      -2.718842      1.606220      1.558792
  H      -1.158333      1.107818      1.218252
  H      -2.127593      1.628145      0.003492
  H      -3.704223     -0.182381      0.261570
  H      -2.769708     -0.782956      1.626834
  H      -0.169564     -0.131572      0.215466
  H       0.073213     -1.583761     -2.228508
  H       0.281778     -2.689621     -0.862056
  H       1.068150      0.709881     -1.417316
  H       3.081733      1.886509     -0.698941
  H       3.555396      0.399370      0.148060
24
Coordinates from ORCA-job geo_opt E -43.541474489750
  N      -2.161690      1.109800      0.917604
  C      -2.664301     -0.265688      0.709740
  C      -1.886530     -1.148803     -0.280433
  O      -2.454800     -2.067222     -0.858385
  N      -0.603777     -0.825487     -0.445613
  C       0.328496     -1.634231     -1.210803
  C       1.724634     -1.146003     -0.835808
  O       2.577095     -1.888050     -0.365385
  N       1.899769      0.175901     -1.044712
  C       2.720411      0.969694     -0.165518
  C       1.871461      1.498265      1.044842
  O       0.645325      1.209559      1.027729
  O       2.455123      2.162159      1.902115
  H      -2.724965      1.573524      1.639493
  H      -1.160868      1.165084      1.206425
  H      -2.227825      1.655036      0.050621
  H      -3.694286     -0.233079      0.350134
  H      -2.662589     -0.810899      1.656111
  H      -0.151268     -0.115989      0.143012
  H       0.130722     -1.542021     -2.283491
  H       0.249908     -2.690041     -0.933372
  H       1.117335      0.680505     -1.443078
  H       3.152524      1.820074     -0.692716
  H       3.520095      0.347912      0.241602
24
Coordinates from ORCA-job geo_opt E -43.541751748500
  N      -2.191833      1.141494      0.847051
  C      -2.597185     -0.277867      0.778469
  C      -1.870311     -1.151168     -0.256417
  O      -2.441935     -2.103279     -0.771945
  N      -0.607984     -0.798853     -0.496173
  C       0.318351     -1.602472     -1.278448
  C       1.712990     -1.157645     -0.847806
  O       2.522031     -1.918557     -0.334906
  N       1.925632      0.162793     -1.029653
  C       2.722611      0.929861     -0.105703
  C       1.831611      1.477192      1.060367
  O       0.604580      1.196589      0.996643
  O       2.381747      2.146318      1.936096
  H      -2.688373      1.597978      1.619515
  H      -1.168153      1.295822      0.995302
  H      -2.428695      1.624750     -0.026400
  H      -3.662607     -0.351420      0.553959
  H      -2.425045     -0.758913      1.743916
  H      -0.154575     -0.074289      0.073397
  H       0.151607     -1.454114     -2.349348
  H       0.201593     -2.666453     -1.050867
  H       1.174349      0.688126     -1.458644
  H       3.205626      1.770067     -0.604932
  H       3.483969      0.284041      0.336642
24
Coordinates from ORCA-job geo_opt E -43.542110769120
  N      -2.208093      1.120884      0.844445
  C      -2.608062     -0.298201      0.790668
  C      -1.877801     -1.162973     -0.242185
  O      -2.440181     -2.119654     -0.759669
  N      -0.619964     -0.797771     -0.490621
  C       0.306073     -1.579239     -1.297821
  C       1.696041     -1.159417     -0.834846
  O       2.482575     -1.932220     -0.304380
  N       1.944594      0.153855     -1.017113
  C       2.748796      0.913771     -0.092260
  C       1.855236      1.523171      1.035334
  O       0.623431      1.276158      0.965514
  O       2.406826      2.206374      1.900669
  H      -2.708410      1.582866      1.611019
  H      -1.187807      1.270611      1.007419
  H      -2.442806      1.594064     -0.034957
  H      -3.673829     -0.381801      0.571926
  H      -2.422877     -0.768762      1.758915
  H      -0.168747     -0.082678      0.092879
  H       0.154688     -1.382167     -2.362783
  H       0.170622     -2.649941     -1.120647
  H       1.215675      0.693492     -1.466042
  H       3.271578      1.723758     -0.602340
  H       3.482439      0.255820      0.376994
24
Coordinates from ORCA-job geo_opt E -43.542386258810
  N      -2.188894      1.117132      0.860468
  C      -2.612944     -0.293921      0.785102
  C      -1.871765     -1.168114     -0.232115
  O      -2.433066     -2.126722     -0.746337
  N      -0.616560     -0.797449     -0.489254
  C       0.308460     -1.579702     -1.296326
  C       1.701386     -1.161730     -0.834962
  O       2.484180     -1.929877     -0.293672
  N       1.942276      0.150983     -1.021067
  C       2.742141      0.918165     -0.099965
  C       1.839564      1.520048      1.024076
  O       0.613929      1.250844      0.960510
  O       2.382024      2.219659      1.883337
  H      -2.715939      1.589597      1.603399
  H      -1.178550      1.232403      1.081947
  H      -2.367490      1.596771     -0.028123
  H      -3.673379     -0.354709      0.535019
  H      -2.462961     -0.771919      1.755927
  H      -0.166066     -0.072870      0.082724
  H       0.159524     -1.376380     -2.360690
  H       0.160089     -2.649173     -1.125661
  H       1.213184      0.685193     -1.475753
  H       3.258823      1.733375     -0.608471
  H       3.482034      0.268397      0.370003
24
Coordinates from ORCA-job geo_opt E -43.542615668800
  N      -2.207428      1.119982      0.848255
  C      -2.592808     -0.305352      0.814072
  C      -1.858193     -1.181829     -0.208237
  O      -2.408576     -2.166854     -0.682647
  N      -0.624634     -0.778274     -0.515579
  C       0.300710     -1.550727     -1.330820
  C       1.691890     -1.166934     -0.830259
  O       2.439492     -1.949279     -0.261100
  N       1.960326      0.140043     -1.015020
  C       2.753765      0.895063     -0.079282
  C       1.831417      1.526269      1.012953
  O       0.606037      1.262655      0.927400
  O       2.360710      2.238115      1.870323
  H      -2.740122      1.597955      1.584054
  H      -1.199198      1.257527      1.067769
  H      -2.404657      1.570237     -0.050997
  H      -3.657585     -0.402268      0.596740
  H      -2.398264     -0.757287      1.789371
  H      -0.178164     -0.032811      0.032004
  H       0.179125     -1.307758     -2.390830
  H       0.122308     -2.620351     -1.196866
  H       1.255307      0.687412     -1.491537
  H       3.305735      1.693950     -0.576544
  H       3.462808      0.230518      0.416890
24
Coordinates from ORCA-job geo_opt E -43.542941600060
  N      -2.213797      1.121766      0.825114
  C      -2.537776     -0.321272      0.866643
  C      -1.827115     -1.200862     -0.171306
  O      -2.346845     -2.241113     -0.555374
  N      -0.646959     -0.738226     -0.587340
  C       0.282412     -1.506948     -1.398808
  C       1.661361     -1.174044     -0.828054
  O       2.343848     -1.974105     -0.204028
  N       1.980132      0.122349     -1.005118
  C       2.751394      0.855472     -0.033475
  C       1.795831      1.537397      1.001613
  O       0.569848      1.297301      0.870333
  O       2.304676      2.257090      1.865146
  H      -2.752122      1.613131      1.547988
  H      -1.207402      1.294777      1.032287
  H      -2.442504      1.518531     -0.090834
  H      -3.607610     -0.474799      0.719087
  H      -2.261799     -0.726469      1.842249
  H      -0.206328      0.043575     -0.087220
  H       0.215777     -1.213630     -2.451412
  H       0.055754     -2.571547     -1.310970
  H       1.321647      0.692146     -1.520000
  H       3.366391      1.623874     -0.503685
  H       3.401186      0.165606      0.507277
24
Coordinates from ORCA-job geo_opt E -43.543207291710
  N      -2.233155      1.118104      0.799570
  C      -2.488922     -0.335287      0.916766
  C      -1.787118     -1.220773     -0.122270
  O      -2.261570     -2.309296     -0.423348
  N      -0.675016     -0.699581     -0.645894
  C       0.261464     -1.458032     -1.458412
  C       1.626755     -1.174031     -0.829873
  O       2.249970     -1.994994     -0.171069
  N       2.005095      0.108208     -0.999790
  C       2.754857      0.815237      0.008147
  C       1.776324      1.542425      0.991942
  O       0.550250      1.337430      0.808676
  O       2.269569      2.254615      1.870119
  H      -2.784858      1.620501      1.503975
  H      -1.230573      1.339663      0.986157
  H      -2.488647      1.456794     -0.132287
  H      -3.556185     -0.544010      0.829762
  H      -2.148222     -0.687674      1.892228
  H      -0.248050      0.117552     -0.191588
  H       0.238315     -1.122719     -2.499946
  H       0.003848     -2.517843     -1.410329
  H       1.395935      0.702344     -1.547403
  H       3.428049      1.552148     -0.431146
  H       3.341886      0.099220      0.586126
24
Coordinates from ORCA-job geo_opt E -43.543456427300
  N      -2.213278      1.116093      0.792838
  C      -2.429553     -0.338738      0.954242
  C      -1.741055     -1.227668     -0.088909
  O      -2.157736     -2.359880     -0.300435
  N      -0.708713     -0.662265     -0.724111
  C       0.241331     -1.429055     -1.513107
  C       1.587593     -1.172513     -0.835155
  O       2.157987     -2.002487     -0.139420
  N       2.014939      0.096673     -0.997199
  C       2.731531      0.786722      0.047435
  C       1.727062      1.540415      0.986263
  O       0.506165      1.374420      0.737851
  O       2.197812      2.229856      1.893969
  H      -2.778574      1.626211      1.480194
  H      -1.213347      1.367854      0.961395
  H      -2.476094      1.419061     -0.150132
  H      -3.493631     -0.576547      0.913565
  H      -2.048707     -0.662207      1.924803
  H      -0.289933      0.182221     -0.315029
  H       0.256161     -1.085678     -2.550652
  H      -0.031731     -2.485267     -1.470652
  H       1.449251      0.707205     -1.573166
  H       3.446449      1.501647     -0.359920
  H       3.266070      0.053925      0.655448
24
Coordinates from ORCA-job geo_opt E -43.543624239280
  N      -2.229500      1.105475      0.794157
  C      -2.436026     -0.347253      0.960853
  C      -1.726788     -1.234253     -0.066337
  O      -2.106531     -2.383542     -0.248487
  N      -0.723379     -0.647474     -0.732882
  C       0.232171     -1.409415     -1.523692
  C       1.573951     -1.166011     -0.834831
  O       2.125717     -2.001611     -0.130669
  N       2.028621      0.094127     -0.998467
  C       2.745988      0.775838      0.051287
  C       1.745948      1.546122      0.978535
  O       0.526705      1.420482      0.699720
  O       2.217137      2.211244      1.903636
  H      -2.811013      1.616208      1.466991
  H      -1.232640      1.373186      0.960443
  H      -2.479704      1.400104     -0.155803
  H      -3.498281     -0.592728      0.911919
  H      -2.067510     -0.664940      1.938363
  H      -0.312811      0.206187     -0.335552
  H       0.246648     -1.060243     -2.557564
  H      -0.033906     -2.467843     -1.484546
  H       1.477457      0.712193     -1.580667
  H       3.475145      1.477466     -0.353739
  H       3.262602      0.036678      0.667446
24
Coordinates from ORCA-job geo_opt E -43.543720211070
  N      -2.209094      1.104795      0.811385
  C      -2.458833     -0.343710      0.941404
  C      -1.735854     -1.234467     -0.071079
  O      -2.115943     -2.382821     -0.255326
  N      -0.722894     -0.652020     -0.729087
  C       0.236897     -1.423138     -1.508017
  C       1.580107     -1.162560     -0.829086
  O       2.145932     -1.990498     -0.127383
  N       2.021211      0.100367     -1.003092
  C       2.745361      0.794116      0.033313
  C       1.747702      1.537174      0.982738
  O       0.526957      1.399967      0.717290
  O       2.221486      2.194669      1.911916
  H      -2.796853      1.618797      1.476055
  H      -1.210260      1.346364      1.003072
  H      -2.423459      1.425446     -0.138869
  H      -3.525358     -0.557566      0.849984
  H      -2.137998     -0.689336      1.926590
  H      -0.311349      0.200080     -0.329780
  H       0.240426     -1.092729     -2.547998
  H      -0.017532     -2.483483     -1.450231
  H       1.457521      0.708643     -1.583181
  H       3.447673      1.514717     -0.386009
  H       3.294155      0.067193      0.635507
24
Coordinates from ORCA-job geo_opt E -43.543784386040
  N      -2.202736      1.106130      0.812645
  C      -2.454997     -0.341579      0.939231
  C      -1.725463     -1.238047     -0.062802
  O      -2.088620     -2.395138     -0.223399
  N      -0.730709     -0.649520     -0.743668
  C       0.235918     -1.420738     -1.515039
  C       1.573273     -1.163500     -0.822223
  O       2.126402     -1.988701     -0.107862
  N       2.017093      0.097204     -0.999434
  C       2.742613      0.794538      0.032834
  C       1.743925      1.528853      0.985941
  O       0.523606      1.392309      0.719118
  O       2.215103      2.180979      1.920665
  H      -2.791276      1.619891      1.476807
  H      -1.203862      1.346657      1.006084
  H      -2.415101      1.429323     -0.137256
  H      -3.521481     -0.552424      0.839097
  H      -2.143380     -0.686855      1.927958
  H      -0.323096      0.207847     -0.352637
  H       0.247803     -1.084394     -2.553449
  H      -0.021983     -2.480271     -1.465622
  H       1.458220      0.702618     -1.586929
  H       3.435987      1.521724     -0.390573
  H       3.302762      0.073093      0.630627
24
Coordinates from ORCA-job geo_opt E -43.543829092530
  N      -2.203630      1.107427      0.817073
  C      -2.461215     -0.339876      0.932201
  C      -1.722807     -1.239387     -0.060646
  O      -2.078158     -2.400393     -0.210548
  N      -0.733317     -0.649530     -0.749264
  C       0.238189     -1.421934     -1.512986
  C       1.572894     -1.163654     -0.814100
  O       2.118393     -1.984661     -0.089208
  N       2.018105      0.094978     -0.999011
  C       2.746598      0.798304      0.026676
  C       1.748219      1.521273      0.987543
  O       0.527880      1.386648      0.720337
  O       2.217636      2.166266      1.928653
  H      -2.783827      1.616312      1.492373
  H      -1.202276      1.344254      1.004038
  H      -2.424914      1.441412     -0.127276
  H      -3.527150     -0.545617      0.816766
  H      -2.163521     -0.690234      1.923642
  H      -0.329083      0.209510     -0.360242
  H       0.254260     -1.084331     -2.551349
  H      -0.022049     -2.480901     -1.466595
  H       1.460578      0.695867     -1.592223
  H       3.426788      1.534111     -0.403609
  H       3.322409      0.084154      0.617871
24
Coordinates from ORCA-job geo_opt E -43.543858763000
  N      -2.200099      1.107474      0.822181
  C      -2.458827     -0.339935      0.931997
  C      -1.713692     -1.240064     -0.055116
  O      -2.053160     -2.408386     -0.184612
  N      -0.740897     -0.645558     -0.764470
  C       0.236889     -1.419154     -1.518111
  C       1.566385     -1.162542     -0.807806
  O       2.097282     -1.980359     -0.068318
  N       2.022938      0.090892     -1.000125
  C       2.746660      0.797088      0.027297
  C       1.743033      1.517298      0.985136
  O       0.524704      1.391530      0.704885
  O       2.205798      2.152160      1.936510
  H      -2.772161      1.612389      1.507359
  H      -1.196434      1.342044      1.001597
  H      -2.431243      1.448001     -0.117520
  H      -3.523774     -0.545085      0.807029
  H      -2.169242     -0.692808      1.924841
  H      -0.343391      0.221126     -0.386608
  H       0.262995     -1.080695     -2.555975
  H      -0.028044     -2.477027     -1.473391
  H       1.475632      0.690343     -1.604157
  H       3.424300      1.535330     -0.402661
  H       3.324347      0.085936      0.620153
24
Coordinates from ORCA-job geo_opt E -43.543879337660
  N      -2.201015      1.107198      0.828349
  C      -2.465955     -0.340170      0.927465
  C      -1.713773     -1.239286     -0.055830
  O      -2.049695     -2.409285     -0.180774
  N      -0.742086     -0.645554     -0.767449
  C       0.238650     -1.420964     -1.514513
  C       1.566569     -1.160139     -0.802311
  O       2.093032     -1.973432     -0.054487
  N       2.028816      0.089827     -1.003985
  C       2.750733      0.799826      0.022644
  C       1.745406      1.515401      0.983224
  O       0.527756      1.394282      0.697344
  O       2.206135      2.141356      1.941162
  H      -2.759098      1.606570      1.528979
  H      -1.193688      1.334998      0.998030
  H      -2.445229      1.459528     -0.103494
  H      -3.529874     -0.541050      0.787629
  H      -2.189240     -0.699950      1.921258
  H      -0.349877      0.226089     -0.395825
  H       0.268825     -1.087352     -2.553739
  H      -0.027601     -2.478349     -1.464933
  H       1.485342      0.686966     -1.613718
  H       3.422753      1.541715     -0.409451
  H       3.333112      0.091774      0.614537
24
Coordinates from ORCA-job geo_opt E -43.543884986620
  N      -2.198959      1.106895      0.829096
  C      -2.462005     -0.340836      0.930085
  C      -1.709308     -1.239058     -0.053633
  O      -2.039369     -2.411543     -0.171389
  N      -0.745041     -0.643694     -0.773704
  C       0.237239     -1.419275     -1.518683
  C       1.562578     -1.159093     -0.801793
  O       2.083719     -1.971333     -0.048937
  N       2.030646      0.088718     -1.004792
  C       2.748931      0.797458      0.025586
  C       1.741032      1.516212      0.981650
  O       0.524532      1.398760      0.689121
  O       2.199618      2.139412      1.942212
  H      -2.752208      1.605709      1.533924
  H      -1.190574      1.334654      0.993660
  H      -2.449343      1.458944     -0.101054
  H      -3.525602     -0.543719      0.790430
  H      -2.184795     -0.699737      1.923898
  H      -0.355727      0.232341     -0.409661
  H       0.271891     -1.086117     -2.557656
  H      -0.029807     -2.476422     -1.468409
  H       1.492048      0.687277     -1.617480
  H       3.425285      1.536961     -0.403557
  H       3.325220      0.087485      0.621199
24
Coordinates from ORCA-job geo_opt E -43.543886900630
  N      -2.199574      1.106303      0.829652
  C      -2.463980     -0.341300      0.929283
  C      -1.710441     -1.238996     -0.054172
  O      -2.041476     -2.411021     -0.174082
  N      -0.743938     -0.644127     -0.771144
  C       0.237439     -1.419714     -1.517620
  C       1.563166     -1.158715     -0.802124
  O       2.086028     -1.970597     -0.050069
  N       2.030548      0.089422     -1.005351
  C       2.749604      0.797701      0.024838
  C       1.742700      1.517632      0.981086
  O       0.525912      1.399013      0.690419
  O       2.202920      2.142313      1.939859
  H      -2.751967      1.605190      1.535103
  H      -1.191041      1.332651      0.995185
  H      -2.449472      1.459334     -0.100194
  H      -3.527494     -0.543203      0.787259
  H      -2.189390     -0.701100      1.923454
  H      -0.354545      0.232093     -0.407919
  H       0.270987     -1.087370     -2.556802
  H      -0.028442     -2.477092     -1.466284
  H       1.490935      0.688458     -1.616691
  H       3.426977      1.536199     -0.404394
  H       3.324543      0.086927      0.620823
24
Coordinates from ORCA-job geo_opt E -43.543887636710
  N      -2.199282      1.105975      0.829897
  C      -2.464227     -0.341521      0.929021
  C      -1.710176     -1.239262     -0.053818
  O      -2.040849     -2.411396     -0.173797
  N      -0.743763     -0.644165     -0.770578
  C       0.237296     -1.419614     -1.517852
  C       1.562933     -1.158751     -0.802338
  O       2.086124     -1.970662     -0.050572
  N       2.030046      0.089581     -1.005183
  C       2.749439      0.797488      0.024986
  C       1.742899      1.518440      0.980744
  O       0.525987      1.398673      0.691347
  O       2.203794      2.144881      1.938067
  H      -2.751280      1.605106      1.535502
  H      -1.190699      1.332033      0.995570
  H      -2.449019      1.459256     -0.099886
  H      -3.527734     -0.542876      0.785830
  H      -2.191259     -0.701523      1.923578
  H      -0.354124      0.232170     -0.408202
  H       0.270377     -1.086994     -2.556929
  H      -0.027860     -2.477154     -1.466673
  H       1.490280      0.689009     -1.616002
  H       3.427875      1.535087     -0.404109
  H       3.323222      0.086220      0.621510
