24
zwitterion conformer 4
N      -3.14000325     0.89102079     0.45621415
C      -3.38571125    -0.50002472     0.21055782
C      -2.14167633    -1.21845089    -0.09876868
O      -2.18337093    -2.45761297    -0.34120940
N      -0.87635913    -0.55990034    -0.13536277
C       0.27685806    -1.36293856    -0.44955862
C       1.55307347    -0.65363698    -0.47742998
O       2.59596303    -1.33956947    -0.75353210
N       1.75152884     0.72184907    -0.22850301
C       3.07114246     1.30163227    -0.28808278
C       4.01233672     0.66986268     0.70274480
O       3.62114580    -0.25690230     1.46666603
O       5.30305398     1.16834341     0.71228504
H      -4.08498113     1.37608985     0.50593668
H      -2.68901647     1.05962109     1.37089776
H      -2.66658566     1.33973718    -0.35235852
H      -4.10038426    -0.61394387    -0.63549959
H      -3.90039967    -0.93231610     1.10521119
H      -0.87671931     0.45421057     0.06764008
H       0.09194394    -1.81861924    -1.44262368
H       0.28892936    -2.24571941     0.25551793
H       0.93924443     1.32020362    -0.00061088
H       3.03456383     2.37591963    -0.01074919
H       3.50542346     1.28114470    -1.30926766
