17
Coordinates from ORCA-job geo_opt E -30.713733335700
  N           2.63490309521284      0.31043911785610      0.02789657338159
  C           1.39832655611295      0.46736142938507     -0.75865984522884
  C           0.31364041157837     -0.34242403789751     -0.02853348228811
  O           0.60844477138268     -0.85869251663710      1.04829540767435
  N          -0.84032475862270     -0.50024846700661     -0.67889690365274
  C          -2.02794170803974     -0.83075870692024      0.06857586007541
  C          -2.46510708875902      0.40591055482822      0.94596235854554
  O          -3.56554499830962      0.31305122546450      1.51313600607709
  O          -1.65776198092807      1.35090102150262      0.98331725902025
  H           3.04689855112955      1.20295334783829      0.31209416948987
  H           2.30150616570531     -0.20731399859448      0.88243235271996
  H           3.33722608271044     -0.26250659472218     -0.44869598172320
  H           1.51196405985492      0.10792692343672     -1.77959479490248
  H           1.06436194666779      1.50507382624624     -0.77493543058719
  H          -1.00327463558701      0.10015518174184     -1.47586051626061
  H          -1.81472371678095     -1.64917604372891      0.75823566298187
  H          -2.84259276332774     -1.11265226279258     -0.59476868532275
