17
Coordinates from ORCA-job geo_opt E -30.663710209710
  N       2.625605      0.369582      0.109654
  C       1.500960      0.309990     -0.777376
  C       0.281574     -0.162625     -0.065650
  O       0.383164     -0.438498      1.168236
  N      -0.955894     -0.310363     -0.704762
  C      -2.113712     -0.768828      0.010872
  C      -2.377896      0.195927      1.111198
  O      -3.383869     -0.069727      1.849282
  O      -1.584482      1.320638      1.330998
  H       2.915127      1.366865      0.222305
  H       2.347890     -0.054858      1.015086
  H       3.420046     -0.178714     -0.335103
  H       1.700962     -0.360667     -1.656057
  H       1.299205      1.321713     -1.228620
  H      -0.996352     -0.068913     -1.735859
  H      -2.062173     -1.809040      0.355366
  H      -3.000156     -0.662481     -0.669569
17
Coordinates from ORCA-job geo_opt E -30.696855728260
  N       2.655664      0.353230      0.078420
  C       1.491800      0.316173     -0.803626
  C       0.291827     -0.174397     -0.049072
  O       0.429648     -0.484815      1.148946
  N      -0.905358     -0.304396     -0.676564
  C      -2.084152     -0.738717      0.028033
  C      -2.451381      0.224656      1.135397
  O      -3.463382     -0.058049      1.823333
  O      -1.776977      1.324905      1.323112
  H       2.958141      1.326823      0.223227
  H       2.379900     -0.083074      0.979162
  H       3.434233     -0.178145     -0.354208
  H       1.655702     -0.329905     -1.684394
  H       1.270067      1.319103     -1.213424
  H      -0.938556     -0.072125     -1.671195
  H      -2.013489     -1.767164      0.387366
  H      -2.933686     -0.674105     -0.674513
17
Coordinates from ORCA-job geo_opt E -30.705618526930
  N       2.646915      0.361092      0.063676
  C       1.467358      0.318708     -0.825639
  C       0.282788     -0.209462     -0.027810
  O       0.443568     -0.524186      1.148591
  N      -0.866601     -0.326224     -0.670819
  C      -2.073883     -0.713319      0.011899
  C      -2.456485      0.266828      1.138771
  O      -3.448773     -0.026371      1.831130
  O      -1.761771      1.250932      1.300824
  H       2.944205      1.323021      0.239116
  H       2.351727     -0.078289      0.958922
  H       3.431019     -0.156604     -0.334707
  H       1.629960     -0.318207     -1.693662
  H       1.217052      1.309078     -1.203949
  H      -0.895820     -0.080759     -1.640325
  H      -2.008842     -1.730286      0.399849
  H      -2.902418     -0.665953     -0.695867
17
Coordinates from ORCA-job geo_opt E -30.708342277860
  N       2.653395      0.345314      0.050985
  C       1.455567      0.357694     -0.813399
  C       0.306646     -0.263766     -0.011799
  O       0.534136     -0.699133      1.115346
  N      -0.852863     -0.363180     -0.649864
  C      -2.061400     -0.732390      0.041510
  C      -2.452382      0.307101      1.135511
  O      -3.469549      0.026288      1.804201
  O      -1.875307      1.400487      1.101439
  H       2.944878      1.292926      0.305742
  H       2.362910     -0.159837      0.915112
  H       3.439976     -0.139881     -0.387751
  H       1.608200     -0.213141     -1.727291
  H       1.175580      1.371696     -1.093568
  H      -0.908875     -0.062758     -1.609187
  H      -1.971310     -1.723349      0.491085
  H      -2.889601     -0.744071     -0.668073
17
Coordinates from ORCA-job geo_opt E -30.709382229390
  N       2.628240      0.356642      0.063624
  C       1.439069      0.375018     -0.811669
  C       0.309101     -0.315783     -0.026053
  O       0.569888     -0.795430      1.077474
  N      -0.853182     -0.415332     -0.673611
  C      -2.073109     -0.739661      0.023468
  C      -2.470000      0.380450      1.059322
  O      -3.378998      0.059617      1.856712
  O      -1.764489      1.436477      1.064696
  H       2.897453      1.297789      0.366814
  H       2.318576     -0.180856      0.905627
  H       3.434801     -0.106970     -0.368663
  H       1.614840     -0.166654     -1.740143
  H       1.127691      1.392330     -1.045962
  H      -0.923615     -0.067780     -1.621243
  H      -1.976413     -1.691826      0.551916
  H      -2.899855     -0.818030     -0.682309
17
Coordinates from ORCA-job geo_opt E -30.711844403760
  N       2.611929      0.367446      0.071621
  C       1.435256      0.364526     -0.820660
  C       0.305115     -0.338845     -0.043810
  O       0.552140     -0.781706      1.075297
  N      -0.853093     -0.431582     -0.687199
  C      -2.068680     -0.746317      0.018907
  C      -2.414929      0.364267      1.081296
  O      -3.356598      0.093567      1.848980
  O      -1.715803      1.396068      1.057661
  H       2.864875      1.311801      0.376381
  H       2.289680     -0.171198      0.911190
  H       3.429986     -0.089831     -0.341242
  H       1.632678     -0.181930     -1.741347
  H       1.110346      1.374672     -1.063901
  H      -0.936600     -0.029869     -1.608264
  H      -1.979820     -1.702164      0.539892
  H      -2.906482     -0.798904     -0.674802
17
Coordinates from ORCA-job geo_opt E -30.712568797340
  N       2.610104      0.358664      0.067946
  C       1.432612      0.377458     -0.820430
  C       0.295354     -0.311319     -0.037796
  O       0.553730     -0.774562      1.070365
  N      -0.852905     -0.437162     -0.690466
  C      -2.061207     -0.765854      0.020548
  C      -2.406491      0.359096      1.070850
  O      -3.365418      0.117128      1.820607
  O      -1.703477      1.376668      1.029122
  H       2.880736      1.296027      0.378240
  H       2.267576     -0.176205      0.906332
  H       3.418994     -0.117369     -0.340536
  H       1.619977     -0.171806     -1.741887
  H       1.119517      1.392848     -1.055056
  H      -0.959175      0.029376     -1.577881
  H      -1.949916     -1.703806      0.567817
  H      -2.900011     -0.849182     -0.667775
17
Coordinates from ORCA-job geo_opt E -30.713108608300
  N       2.591383      0.363046      0.075796
  C       1.419157      0.390301     -0.816535
  C       0.291116     -0.341758     -0.058293
  O       0.556022     -0.811317      1.047236
  N      -0.855405     -0.482363     -0.714007
  C      -2.053681     -0.789712      0.023194
  C      -2.367797      0.376421      1.044735
  O      -3.346077      0.196980      1.784032
  O      -1.616382      1.360103      0.984790
  H       2.847280      1.291806      0.421389
  H       2.238248     -0.204298      0.893710
  H       3.408745     -0.094792     -0.335302
  H       1.619659     -0.131253     -1.750990
  H       1.087508      1.406727     -1.020109
  H      -0.990899      0.074730     -1.544541
  H      -1.927015     -1.699128      0.612272
  H      -2.901860     -0.905490     -0.647377
17
Coordinates from ORCA-job geo_opt E -30.713389873930
  N       2.593479      0.357945      0.072055
  C       1.412378      0.405449     -0.806310
  C       0.293169     -0.348303     -0.060210
  O       0.571974     -0.845486      1.031107
  N      -0.855868     -0.502567     -0.717221
  C      -2.047811     -0.805003      0.034422
  C      -2.375482      0.393053      1.015329
  O      -3.381779      0.253668      1.726462
  O      -1.589019      1.353987      0.971271
  H       2.852380      1.277461      0.439391
  H       2.245606     -0.231443      0.878769
  H       3.406278     -0.090574     -0.358332
  H       1.602233     -0.088971     -1.757827
  H       1.075685      1.426432     -0.978847
  H      -1.008347      0.095725     -1.517723
  H      -1.900927     -1.687755      0.657827
  H      -2.893948     -0.963616     -0.630163
17
Coordinates from ORCA-job geo_opt E -30.713557435950
  N       2.599954      0.354050      0.065582
  C       1.407695      0.414694     -0.796872
  C       0.300621     -0.358624     -0.059249
  O       0.588948     -0.876542      1.020090
  N      -0.855206     -0.511750     -0.710997
  C      -2.044501     -0.811496      0.047719
  C      -2.391667      0.405756      0.994578
  O      -3.435243      0.301921      1.658809
  O      -1.573875      1.343947      0.987774
  H       2.861901      1.267897      0.444070
  H       2.266494     -0.250213      0.866332
  H       3.407014     -0.084271     -0.385594
  H       1.584617     -0.053631     -1.764163
  H       1.064607      1.438082     -0.943232
  H      -1.013381      0.098655     -1.502150
  H      -1.882350     -1.676035      0.692494
  H      -2.885628     -1.002441     -0.615192
17
Coordinates from ORCA-job geo_opt E -30.713651241520
  N       2.604149      0.349651      0.059136
  C       1.401496      0.422758     -0.788494
  C       0.307068     -0.370304     -0.057026
  O       0.603343     -0.906164      1.010664
  N      -0.853419     -0.516949     -0.702925
  C      -2.040319     -0.815432      0.059951
  C      -2.403645      0.416450      0.977865
  O      -3.481380      0.345043      1.590889
  O      -1.563554      1.334390      1.004072
  H       2.870490      1.258855      0.445578
  H       2.284388     -0.265282      0.855061
  H       3.405188     -0.080559     -0.410256
  H       1.566958     -0.019908     -1.769831
  H       1.051852      1.447543     -0.908473
  H      -1.013996      0.098825     -1.489138
  H      -1.861401     -1.663476      0.722249
  H      -2.877219     -1.035441     -0.599323
17
Coordinates from ORCA-job geo_opt E -30.713686069920
  N       2.608497      0.345400      0.054214
  C       1.399894      0.426185     -0.785200
  C       0.309916     -0.372866     -0.053344
  O       0.608221     -0.913139      1.010890
  N      -0.852529     -0.512408     -0.696005
  C      -2.039013     -0.815764      0.065152
  C      -2.413862      0.418765      0.973028
  O      -3.507947      0.358096      1.557160
  O      -1.568429      1.330072      1.016716
  H       2.881473      1.253260      0.439475
  H       2.295124     -0.269610      0.850965
  H       3.404337     -0.085732     -0.423337
  H       1.558991     -0.005496     -1.772357
  H       1.049269      1.452010     -0.892662
  H      -1.011936      0.098835     -1.485613
  H      -1.848847     -1.657070      0.733352
  H      -2.873160     -1.050538     -0.592435
17
Coordinates from ORCA-job geo_opt E -30.713697042970
  N       2.610351      0.342296      0.051913
  C       1.400065      0.427608     -0.784971
  C       0.309922     -0.371647     -0.051715
  O       0.608442     -0.911355      1.012459
  N      -0.852210     -0.507586     -0.693816
  C      -2.037932     -0.815867      0.066013
  C      -2.419265      0.418379      0.972252
  O      -3.517754      0.357420      1.547325
  O      -1.575190      1.330002      1.020411
  H       2.889379      1.249924      0.433577
  H       2.296580     -0.268869      0.851074
  H       3.402806     -0.094099     -0.426566
  H       1.557621     -0.001022     -1.773588
  H       1.050412      1.454220     -0.887331
  H      -1.011490      0.102886     -1.483722
  H      -1.840721     -1.653933      0.736526
  H      -2.871015     -1.058357     -0.589840
17
Coordinates from ORCA-job geo_opt E -30.713701914440
  N       2.612370      0.339564      0.050346
  C       1.401537      0.428416     -0.785418
  C       0.309682     -0.368670     -0.050770
  O       0.607772     -0.906191      1.014643
  N      -0.852267     -0.502558     -0.692697
  C      -2.037344     -0.815700      0.065878
  C      -2.424639      0.416931      0.972630
  O      -3.523362      0.350948      1.546395
  O      -1.584662      1.332138      1.021516
  H       2.897756      1.247272      0.427206
  H       2.296361     -0.266519      0.852560
  H       3.401532     -0.103822     -0.427225
  H       1.558418      0.000447     -1.774334
  H       1.053804      1.455902     -0.885383
  H      -1.011552      0.106893     -1.483358
  H      -1.835899     -1.652180      0.737287
  H      -2.869506     -1.062869     -0.589278
17
Coordinates from ORCA-job geo_opt E -30.713705429900
  N       2.614530      0.336657      0.048745
  C       1.402871      0.429956     -0.785257
  C       0.309778     -0.365878     -0.050155
  O       0.607815     -0.901982      1.016109
  N      -0.852103     -0.498751     -0.691738
  C      -2.036323     -0.815939      0.066236
  C      -2.430351      0.415958      0.971706
  O      -3.528757      0.344562      1.545439
  O      -1.595045      1.335524      1.020177
  H       2.907396      1.243939      0.420855
  H       2.295869     -0.264535      0.853825
  H       3.399577     -0.114600     -0.428305
  H       1.558355      0.004140     -1.775237
  H       1.056917      1.458423     -0.881449
  H      -1.011950      0.110920     -1.482093
  H      -1.831363     -1.650024      0.739622
  H      -2.867214     -1.068372     -0.588480
17
Coordinates from ORCA-job geo_opt E -30.713709479500
  N       2.618008      0.332630      0.046327
  C       1.404610      0.432625     -0.784299
  C       0.310593     -0.362165     -0.049022
  O       0.608584     -0.896612      1.018290
  N      -0.851526     -0.494322     -0.689753
  C      -2.034928     -0.816345      0.067199
  C      -2.438726      0.414647      0.969749
  O      -3.536410      0.335506      1.544062
  O      -1.610609      1.340941      1.016803
  H       2.922418      1.238963      0.411280
  H       2.295920     -0.261525      0.855550
  H       3.396310     -0.130447     -0.430515
  H       1.556892      0.011144     -1.776543
  H       1.060992      1.462495     -0.874381
  H      -1.012043      0.115097     -1.480188
  H      -1.826544     -1.647321      0.743362
  H      -2.863544     -1.075312     -0.587922
17
Coordinates from ORCA-job geo_opt E -30.713714042170
  N       2.622326      0.327795      0.043067
  C       1.405944      0.436798     -0.782037
  C       0.312211     -0.358417     -0.047115
  O       0.610395     -0.891532      1.021005
  N      -0.850241     -0.490716     -0.686688
  C      -2.033100     -0.817277      0.068921
  C      -2.448532      0.413498      0.966084
  O      -3.545776      0.326385      1.540364
  O      -1.628827      1.347501      1.010758
  H       2.941944      1.232364      0.399150
  H       2.296679     -0.257854      0.857307
  H       3.391208     -0.150257     -0.434367
  H       1.552762      0.022845     -1.778190
  H       1.064691      1.468328     -0.862838
  H      -1.011679      0.118697     -1.476943
  H      -1.821578     -1.644240      0.748934
  H      -2.858426     -1.083917     -0.587411
17
Coordinates from ORCA-job geo_opt E -30.713718293510
  N       2.628264      0.321363      0.038184
  C       1.407033      0.443145     -0.777995
  C       0.314784     -0.353490     -0.043376
  O       0.613190     -0.884762      1.025737
  N      -0.847940     -0.487013     -0.681706
  C      -2.030878     -0.818853      0.071326
  C      -2.461220      0.411832      0.960619
  O      -3.558529      0.315546      1.533563
  O      -1.652158      1.355265      1.002166
  H       2.969733      1.223007      0.380945
  H       2.298771     -0.251657      0.859966
  H       3.382844     -0.177984     -0.440381
  H       1.544877      0.040832     -1.780103
  H       1.068933      1.476857     -0.845118
  H      -1.010401      0.121722     -1.472288
  H      -1.816051     -1.641001      0.756010
  H      -2.851250     -1.094809     -0.587548
17
Coordinates from ORCA-job geo_opt E -30.713720399360
  N       2.629928      0.319644      0.036376
  C       1.406285      0.445952     -0.775552
  C       0.315680     -0.352704     -0.041319
  O       0.614194     -0.883477      1.027942
  N      -0.846755     -0.487971     -0.679902
  C      -2.030412     -0.819993      0.072078
  C      -2.463833      0.411725      0.958002
  O      -3.561803      0.314960      1.529558
  O      -1.656571      1.356678      0.998299
  H       2.979038      1.220088      0.374564
  H       2.300294     -0.249156      0.860889
  H       3.379129     -0.186779     -0.443376
  H       1.540092      0.049145     -1.780394
  H       1.068732      1.480288     -0.836702
  H      -1.009537      0.120579     -1.470575
  H      -1.815364     -1.640909      0.758139
  H      -2.849096     -1.098071     -0.588029
17
Coordinates from ORCA-job geo_opt E -30.713722564540
  N       2.630784      0.318896      0.035084
  C       1.404889      0.448465     -0.772989
  C       0.316012     -0.352077     -0.038916
  O       0.614020     -0.881202      1.031108
  N      -0.845493     -0.490292     -0.678851
  C      -2.030601     -0.821358      0.071677
  C      -2.463721      0.411075      0.956449
  O      -3.561946      0.315337      1.527531
  O      -1.656398      1.355914      0.995591
  H       2.987790      1.218754      0.366450
  H       2.301200     -0.243299      0.863795
  H       3.374350     -0.196021     -0.444533
  H       1.534958      0.056639     -1.780275
  H       1.067496      1.483228     -0.828929
  H      -1.008232      0.117414     -1.470206
  H      -1.816867     -1.643091      0.757161
  H      -2.848243     -1.098382     -0.590149
17
Coordinates from ORCA-job geo_opt E -30.713724000620
  N       2.631019      0.318289      0.034256
  C       1.403574      0.450735     -0.770945
  C       0.315685     -0.351358     -0.037235
  O       0.613179     -0.878661      1.033702
  N      -0.844667     -0.492542     -0.678881
  C      -2.030616     -0.822754      0.070994
  C      -2.462734      0.410482      0.955222
  O      -3.561229      0.316245      1.525912
  O      -1.654472      1.354479      0.993865
  H       2.994746      1.217683      0.359555
  H       2.301209     -0.238004      0.866614
  H       3.369735     -0.204068     -0.444914
  H       1.531302      0.063044     -1.780106
  H       1.066284      1.485844     -0.822142
  H      -1.007528      0.114631     -1.470645
  H      -1.817581     -1.644891      0.756224
  H      -2.847906     -1.099153     -0.591476
17
Coordinates from ORCA-job geo_opt E -30.713728357320
  N       2.633461      0.313775      0.030232
  C       1.400469      0.459997     -0.763862
  C       0.314999     -0.346259     -0.031368
  O       0.610910     -0.866692      1.043099
  N      -0.841708     -0.496918     -0.678003
  C      -2.029526     -0.827392      0.069470
  C      -2.464306      0.407586      0.950161
  O      -3.563520      0.313823      1.519377
  O      -1.657103      1.352525      0.987048
  H       3.025482      1.209742      0.331236
  H       2.301440     -0.219104      0.876356
  H       3.351442     -0.238988     -0.446733
  H       1.519029      0.088429     -1.780043
  H       1.065251      1.496795     -0.795843
  H      -1.005116      0.107218     -1.472040
  H      -1.816678     -1.648697      0.755795
  H      -2.844526     -1.105841     -0.594881
17
Coordinates from ORCA-job geo_opt E -30.713712960750
  N       2.638328      0.303269      0.021379
  C       1.395120      0.479592     -0.749777
  C       0.313910     -0.334109     -0.019729
  O       0.607147     -0.840788      1.061621
  N      -0.835459     -0.503666     -0.675689
  C      -2.026167     -0.836551      0.067148
  C      -2.469872      0.401526      0.939352
  O      -3.570965      0.306660      1.504554
  O      -1.666726      1.350036      0.973400
  H       3.087561      1.187800      0.272293
  H       2.303589     -0.181846      0.893850
  H       3.310742     -0.309498     -0.449329
  H       1.495056      0.141272     -1.779178
  H       1.065889      1.519276     -0.741951
  H      -1.000062      0.093567     -1.474788
  H      -1.812081     -1.654452      0.757224
  H      -2.836008     -1.122086     -0.600382
17
Coordinates from ORCA-job geo_opt E -30.713732014620
  N       2.634112      0.311987      0.028986
  C       1.399010      0.464548     -0.760576
  C       0.312911     -0.342913     -0.029245
  O       0.607555     -0.860105      1.047198
  N      -0.841286     -0.499230     -0.679495
  C      -2.028830     -0.829708      0.068284
  C      -2.463569      0.406181      0.948168
  O      -3.563973      0.314287      1.515553
  O      -1.654509      1.349663      0.986924
  H       3.038021      1.206243      0.319498
  H       2.301815     -0.211585      0.880468
  H       3.342581     -0.252824     -0.448088
  H       1.515421      0.099241     -1.779155
  H       1.065015      1.502095     -0.783570
  H      -1.004273      0.101497     -1.476199
  H      -1.815707     -1.649740      0.756101
  H      -2.844296     -1.109637     -0.594852
17
Coordinates from ORCA-job geo_opt E -30.713732980060
  N       2.634563      0.310930      0.028229
  C       1.398465      0.466463     -0.759266
  C       0.313550     -0.342825     -0.028780
  O       0.608383     -0.859317      1.047901
  N      -0.840529     -0.500040     -0.679044
  C      -2.028229     -0.830469      0.068492
  C      -2.464536      0.406045      0.946607
  O      -3.564830      0.313477      1.514071
  O      -1.656743      1.350628      0.984005
  H       3.044159      1.203989      0.314214
  H       2.301439     -0.208246      0.882018
  H       3.338788     -0.259839     -0.448192
  H       1.512855      0.105403     -1.779562
  H       1.064401      1.504092     -0.777587
  H      -1.003732      0.100921     -1.475549
  H      -1.814978     -1.649535      0.757386
  H      -2.843026     -1.111678     -0.594942
17
Coordinates from ORCA-job geo_opt E -30.713733335700
  N       2.634903      0.310439      0.027897
  C       1.398327      0.467361     -0.758660
  C       0.313640     -0.342424     -0.028533
  O       0.608445     -0.858693      1.048295
  N      -0.840325     -0.500248     -0.678897
  C      -2.027942     -0.830759      0.068576
  C      -2.465107      0.405911      0.945962
  O      -3.565545      0.313051      1.513136
  O      -1.657762      1.350901      0.983317
  H       3.046899      1.202953      0.312094
  H       2.301506     -0.207314      0.882432
  H       3.337226     -0.262507     -0.448696
  H       1.511964      0.107927     -1.779595
  H       1.064362      1.505074     -0.774935
  H      -1.003275      0.100155     -1.475861
  H      -1.814724     -1.649176      0.758236
  H      -2.842593     -1.112652     -0.594769
