17
zwitterion conformer 1
N       2.62560540     0.36958153     0.10965388
C       1.50095979     0.30998975    -0.77737575
C       0.28157380    -0.16262509    -0.06564990
O       0.38316396    -0.43849803     1.16823603
N      -0.95589386    -0.31036323    -0.70476247
C      -2.11371223    -0.76882839     0.01087189
C      -2.37789565     0.19592704     1.11119754
O      -3.38386866    -0.06972654     1.84928225
O      -1.58448212     1.32063751     1.33099801
H       2.91512718     1.36686540     0.22230486
H       2.34789042    -0.05485825     1.01508602
H       3.42004571    -0.17871369    -0.33510315
H       1.70096192    -0.36066684    -1.65605745
H       1.29920539     1.32171300    -1.22862029
H      -0.99635196    -0.06891344    -1.73585868
H      -2.06217282    -1.80903963     0.35536576
H      -3.00015628    -0.66248110    -0.66956854
