
                                 *****************
                                 * O   R   C   A *
                                 *****************

                                            #,                                       
                                            ###                                      
                                            ####                                     
                                            #####                                    
                                            ######                                   
                                           ########,                                 
                                     ,,################,,,,,                         
                               ,,#################################,,                 
                          ,,##########################################,,             
                       ,#########################################, ''#####,          
                    ,#############################################,,   '####,        
                  ,##################################################,,,,####,       
                ,###########''''           ''''###############################       
              ,#####''   ,,,,##########,,,,          '''####'''          '####       
            ,##' ,,,,###########################,,,                        '##       
           ' ,,###''''                  '''############,,,                           
         ,,##''                                '''############,,,,        ,,,,,,###''
      ,#''                                            '''#######################'''  
     '                                                          ''''####''''         
             ,#######,   #######,   ,#######,      ##                                
            ,#'     '#,  ##    ##  ,#'     '#,    #''#        ,####,    ,#,          
            ##       ##  ##   ,#'  ##            #'  '#       #'       ,# #          
            ##       ##  #######   ##           ,######,      #####,      #          
            '#,     ,#'  ##    ##  '#,     ,#' ,#      #,     #,   #      #          
             '#######'   ##     ##  '#######'  #'      '#     '####' #    #          



                #########################################################
                #                        -***-                          #
                #          Department of theory and spectroscopy        #
                #                                                       #
                #                      Frank Neese                      #
                #                                                       #
                #     Directorship, Architecture, Infrastructure        #
                #                    SHARK, DRIVERS                     #
                #        Core code/Algorithms in most modules           #
                #                                                       #
                #        Max Planck Institute fuer Kohlenforschung      #
                #                Kaiser Wilhelm Platz 1                 #
                #                 D-45470 Muelheim/Ruhr                 #
                #                      Germany                          #
                #                                                       #
                #                  All rights reserved                  #
                #                        -***-                          #
                #########################################################


                         Program Version 6.1.0-f.0  -   RELEASE   -


 With contributions from (in alphabetic order):
[Max-Planck-Institut fuer Kohlenforschung]                               
  Daniel Aravena         : Magnetic Suceptibility                        
  Michael Atanasov       : Ab Initio Ligand Field Theory (pilot matlab implementation)
  Alexander A. Auer      : GIAO ZORA, VPT2 properties, NMR spectrum      
  Ute Becker             : All parallelization in ORCA, NUMFREQ, NUMCALC 
  Giovanni Bistoni       : ED, misc. LED, open-shell LED, HFLD           
  Dmytro Bykov           : pre 5.0 version of the SCF Hessian            
  Marcos Casanova-Páez   : Triplet and SCS-CIS(D). UHF-(DLPNO)-IP/EA/STEOM-CCSD. UHF-CVS-IP/STEOM-CCSD   
  Vijay G. Chilkuri      : MRCI spin determinant printing, contributions to CSF-ICE 
  Pauline Colinet        : FMM embedding                                 
  Dipayan Datta          : RHF DLPNO-CCSD density                        
  Achintya Kumar Dutta   : EOM-CC, STEOM-CC                              
  Nicolas Foglia         : Exact transition moments, OPA infrastructure, MCD improvements    
  Dmitry Ganyushin       : Spin-Orbit,Spin-Spin,Magnetic field MRCI      
  Miquel Garcia-Rates    : C-PCM and meta-GGA Hessian, CCSD/C-PCM, Gaussian charge scheme 
  Tiago L. C. Gouveia    : GS-ROHF, GS-ROCIS                             
  Yang Guo               : DLPNO-NEVPT2, F12-NEVPT2, CIM, IAO-localization        
  Andreas Hansen         : Spin unrestricted coupled pair/coupled cluster methods 
  Ingolf Harden          : AUTO-CI MPn and infrastructure                
  Benjamin Helmich-Paris : MC-RPA, TRAH-(SCF,CASSCF), AVAS, COSX integrals, SCF dyn. polar., MC-PDFT, srDFT 
  Lee Huntington         : MR-EOM, pCC                                   
  Robert Izsak           : Overlap fitted RIJCOSX, COSX-SCS-MP3, EOM     
  Riya Kayal             : Wick's Theorem for AUTO-CI, AUTO-CI UHF-CCSDT 
  Emily Kempfer          : AUTO-CI RHF CISDT and CCSDT, approximate NEVPT4
  Christian Kollmar      : KDIIS, OOCD, Brueckner-CCSD(T), CCSD density, CASPT2, CASPT2-K, improved NEVPT2 
  Axel Koslowski         : Symmetry handling                             
  Simone Kossmann        : meta-GGA functionals, TD-DFT gradient, OOMP2, (MP2 Hessian; deprecated post 5.0) 
  Lucas Lang             : DCDCAS, Hyperfine gauge corrections, ICE-SOC+SSC
  Marvin Lechner         : AUTO-CI (C++ implementation), FIC-MRCC        
  Spencer Leger          : CASSCF response                               
  Dagmar Lenk            : GEPOL surface, SMD, ORCA-2-JSON               
  Dimitrios Liakos       : Extrapolation schemes; Compound Job, Property file
  Dimitrios Manganas     : Further ROCIS development; embedding schemes. LFT, Crystal Embedding 
  Dimitrios Pantazis     : SARC Basis sets                               
  Anastasios Papadopoulos: AUTO-CI, single reference methods and gradients 
  Taras Petrenko         : pre 6.0 DFT Hessian and TD-DFT gradient,  ECA, NRVS 
  Petra Pikulova         : Analytic Raman intensities                    
  Peter Pinski           : DLPNO-MP2, DLPNO-MP2 Gradient                 
  Shashank Vittal Rao    : ES-AILFT, MagRelax                            
  Christoph Reimann      : Effective Core Potentials                     
  Marius Retegan         : Local ZFS, SOC                                
  Christoph Riplinger    : Optimizer, TS searches, QM/MM, DLPNO-CCSD(T), (RO)-DLPNO pert. Triples 
  Michael Roemelt        : Original ROCIS implementation, recursive CI coupling coefficients
  Masaaki Saitow         : Open-shell DLPNO-CCSD energy and density      
  Barbara Sandhoefer     : DKH picture change effects                    
  Yorick L. A. Schmerwitz: GMF and freeze-and-release deltaSCF, NEB S-IDPP initial path                    
  Kantharuban Sivalingam : CASSCF convergence/infrastructure, NEVPT2, NEVPT3, NEVPT4(SD), FIC-MRCI and CEPA variants
  Bernardo de Souza      : ESD, SOC TD-DFT                               
  Georgi L. Stoychev     : AutoAux, RI-MP2 NMR, DLPNO-MP2 response, X2C  
  Van Anh Tran           : RI-MP2 g-tensors                              
  Willem Van den Heuvel  : Paramagnetic NMR                              
  Zikuan Wang            : NOTCH, Electric field optimization            
  Frank Wennmohs         : Technical directorship and infrastructure     
  Hang Xu                : AUTO-CI-Response properties                   
                                                                         
[FACCTs GmbH]                                                            
  Markus Bursch, Nicolas Foglia, Miquel Garcia-Rates, Ingolf Harden, Hagen Neugebauer, Anastasios Papadopoulos, 
  Christoph Riplinger, Bernardo de Souza, Georgi L. Stoychev                                                    
                                                                 
  APM, various basis sets, CI-OPT, improved COSX, DLPNO-Multilevel,           
  DOCKER, DRACO, updates on ESD, Fragmentator, GOAT, IRC, LR-CPCM, L-BFGS, MBIS, meta-GGA TD-DFT gradient, ML-optimized integration grids, 
  MM, NACMEs, nearIR, NEB, NEB-TS, NL-DFT gradient (VV10), 2- and 3-layer-ONIOM, interface openCOSMO-RS, QMMM,   
  Crystal-QMMM, RESP, rigid body optimization, SF, symmetry and pop. for TD-DFT, various functionals, SOLVATOR                                   
                                                                         
[Other institutions]                                                     
  V. Asgeirsson          : NEB                                           
  Christoph Bannwarth    : sTDA-DFT, sTD-DFT, PBEh-3c, B97-3c, D3        
  Giovanni Bistoni       : ETS/NOCV, ADLD/ADEX, COVALED                  
  Martin Brehm           : Molecular dynamics                            
  Ronald Cardenas        : ETS/NOCV                                      
  Martina Colucci        : COVALED                                       
  Sebastian Ehlert       : rSCAN, r2SCAN, r2SCAN-3c, D4, dhf basis sets  
  Marvin Friede          : D4 for Fr, Ra, Ac-Lr                          
  Lars Goerigk           : TD-DFT with DH, B97 family of functionals     
  Stefan Grimme          : VdW corrections, initial TS optimization, DFT functionals, gCP, sTDA/sTD-DF 
  Waldemar Hujo          : DFT-NL                                        
  H. Jonsson             : NEB                                           
  Holger Kruse           : gCP                                           
  Marcel Mueller         : wB97X-3c, vDZP basis set                      
  Hagen Neugebauer       : wr2SCAN, Native XTB                           
  Gianluca Regni         : ADLD/ADEX                                     
  Tobias Risthaus        : pre 6.0 range-separated hybrid DFT and stability analysis
  Lukas Wittmann         : regularized MP2, r2SCAN double-hybrids, wr2SCAN        
                                                                         
We gratefully acknowledge several colleagues who have allowed us to      
interface, adapt or use parts of their codes:                            
  Ed Valeev, F. Pavosevic, A. Kumar             : LibInt (2-el integral package), F12 methods 
  Garnet Chan, S. Sharma, J. Yang, R. Olivares  : DMRG                   
  Ulf Ekstrom                                   : XCFun DFT Library      
  Mihaly Kallay                                 : mrcc  (arbitrary order and MRCC methods)
  Frank Weinhold                                : gennbo (NPA and NBO analysis)           
  Simon Mueller                                 : openCOSMO-RS                            
  Christopher J. Cramer and Donald G. Truhlar   : smd solvation model                     
  S Lehtola, MJT Oliveira, MAL Marques          : LibXC Library                           
  Liviu Ungur et al                             : ANISO software                          


 Your calculation uses the libint2 library for the computation of 2-el integrals
 For citations please refer to: http://libint.valeyev.net

 Your ORCA version has been built with support for libXC version: 7.0.0
 For citations please refer to: https://libxc.gitlab.io

 This ORCA versions uses:
   CBLAS   interface :  Fast vector & matrix operations
   LAPACKE interface :  Fast linear algebra routines
   SCALAPACK package :  Parallel linear algebra routines
   Shared memory     :  Shared parallel matrices
   BLAS/LAPACK       :  OpenBLAS 0.3.29  USE64BITINT DYNAMIC_ARCH NO_AFFINITY Haswell SINGLE_THREADED
        Core in use  :  Haswell
   Copyright (c) 2011-2014, The OpenBLAS Project


  ***********************************
  * Starting time: Sat Apr 11 16:57:59 2026
  * Host name:     analima-B660M-GAMING-X-DDR4
  * Process ID:    1953637
  * Working dir.:  /home/analima/COSMO-RS/COSMO-RS.jl/dgly_cosmo/zwitterion/01_cpcm_xtb2_alpb/conf_1
  ***********************************

NOTE: MaxCore=2000 MB was set to SCF,MP2,MDCI,CIPSI,MRCI,RASCI and CIS
      => If you want to overwrite this, your respective input block should be placed after the MaxCore statement


***************************************
The coordinates will be read from file: input.xyz
***************************************


Your calculation utilizes the semiempirical GFN2-xTB method
Please cite in your paper:
Bannwarth, C.; Ehlert S.; Grimme, S. J. Chem. Theory Comput. 2019, 15, 1652.
   

================================================================================

================================================================================
                                        WARNINGS
                       Please study these warnings very carefully!
================================================================================


WARNING: Geometry Optimization
  ===> : Switching off AutoStart
         For restart on a previous wavefunction, please use MOREAD

WARNING: Found dipole moment calculation with XTB calculation
  ===> : Switching off dipole moment calculation


================================================================================
                                       INPUT FILE
================================================================================
NAME = input.inp
|  1> %MaxCore 2000
|  2> 
|  3> ! XTB2 OPT ALPB(water)
|  4> 
|  5> %base "geo_opt"
|  6> 
|  7> * xyzfile 0 1 input.xyz
|  8> 
|  9> 
| 10>                          ****END OF INPUT****
================================================================================

                       *****************************
                       * Geometry Optimization Run *
                       *****************************

Geometry optimization settings:
Update method            Update   .... BFGS
Choice of coordinates    CoordSys .... (2022) Redundant Internals
Initial Hessian          InHess   .... Almloef's Model
Max. no of cycles        MaxIter  .... 51

Convergence Tolerances:
Energy Change            TolE     ....  5.0000e-06 Eh
Max. Gradient            TolMAXG  ....  3.0000e-04 Eh/bohr
RMS Gradient             TolRMSG  ....  1.0000e-04 Eh/bohr
Max. Displacement        TolMAXD  ....  4.0000e-03 bohr
RMS Displacement         TolRMSD  ....  2.0000e-03 bohr
Strict Convergence                .... False

------------------------------------------------------------------------------
                        ORCA OPTIMIZATION COORDINATE SETUP
------------------------------------------------------------------------------

The optimization will be done in redundant internal coordinates (2022)
Making redundant internal coordinates   ...  (2022 redundants) done
Evaluating the initial hessian          ...  (Almloef) done
Evaluating the coordinates              ...  done
Calculating the B-matrix                .... done
Calculating the G-matrix                .... done
The number of degrees of freedom        ....   69

    -----------------------------------------------------------------
                    Redundant Internal Coordinates


    -----------------------------------------------------------------
         Definition                    Initial Value    Approx d2E/dq
    -----------------------------------------------------------------
      1. B(C   1,N   0)                  1.4336         0.476781   
      2. B(C   2,C   1)                  1.4889         0.434461   
      3. B(O   3,C   2)                  1.2684         0.874664   
      4. B(N   4,C   2)                  1.4006         0.538269   
      5. B(C   5,N   4)                  1.4363         0.472126   
      6. B(C   6,C   5)                  1.4870         0.437453   
      7. B(O   7,C   6)                  1.2757         0.851704   
      8. B(O   8,C   6)                  1.3938         0.551758   
      9. B(H   9,N   0)                  1.0446         0.381127   
     10. B(H  10,N   0)                  1.0378         0.390662   
     11. B(H  10,O   3)                  2.0077         0.011078   
     12. B(H  11,N   0)                  1.0628         0.356398   
     13. B(H  12,C   1)                  1.1233         0.318605   
     14. B(H  13,C   1)                  1.1260         0.315474   
     15. B(H  14,N   4)                  1.0598         0.360416   
     16. B(H  15,C   5)                  1.0970         0.350980   
     17. B(H  16,C   5)                  1.1225         0.319529   
     18. A(H  10,N   0,H  11)          110.7399         0.289362   
     19. A(H   9,N   0,H  11)          109.2987         0.288245   
     20. A(C   1,N   0,H  10)          108.2333         0.337292   
     21. A(H   9,N   0,H  10)          111.7492         0.292428   
     22. A(C   1,N   0,H   9)          108.8963         0.335908   
     23. A(C   1,N   0,H  11)          107.8200         0.332187   
     24. A(N   0,C   1,H  13)          110.5590         0.328354   
     25. A(C   2,C   1,H  12)          109.2821         0.325845   
     26. A(H  12,C   1,H  13)          104.7654         0.279531   
     27. A(C   2,C   1,H  13)          109.2705         0.325316   
     28. A(N   0,C   1,C   2)          111.0946         0.386536   
     29. A(N   0,C   1,H  12)          111.6622         0.328890   
     30. A(C   1,C   2,N   4)          122.6128         0.394818   
     31. A(C   1,C   2,O   3)          117.9337         0.430338   
     32. A(O   3,C   2,N   4)          119.4535         0.444350   
     33. A(C   5,N   4,H  14)          121.7850         0.332264   
     34. A(C   2,N   4,C   5)          121.2353         0.398063   
     35. A(C   2,N   4,H  14)          116.9798         0.339591   
     36. A(C   6,C   5,H  16)          104.2865         0.326369   
     37. A(N   4,C   5,H  16)          107.7170         0.328515   
     38. A(C   6,C   5,H  15)          113.0279         0.331466   
     39. A(N   4,C   5,C   6)          107.7466         0.386337   
     40. A(N   4,C   5,H  15)          114.9157         0.333659   
     41. A(H  15,C   5,H  16)          108.4994         0.284315   
     42. A(C   5,C   6,O   7)          115.6656         0.428816   
     43. A(O   7,C   6,O   8)          121.7143         0.444201   
     44. A(C   5,C   6,O   8)          122.6202         0.397014   
     45. D(H  12,C   1,N   0,H   9)    123.5127         0.020855   
     46. D(H  12,C   1,N   0,H  11)      5.0259         0.020855   
     47. D(C   2,C   1,N   0,H  10)      7.4686         0.020855   
     48. D(H  12,C   1,N   0,H  10)   -114.8109         0.020855   
     49. D(C   2,C   1,N   0,H  11)    127.3054         0.020855   
     50. D(C   2,C   1,N   0,H   9)   -114.2078         0.020855   
     51. D(O   3,C   2,C   1,N   0)      0.0018         0.013934   
     52. D(N   4,C   2,C   1,N   0)   -179.9986         0.013934   
     53. D(O   3,C   2,C   1,H  13)   -122.2475         0.013934   
     54. D(N   4,C   2,C   1,H  12)    -56.3489         0.013934   
     55. D(O   3,C   2,C   1,H  12)    123.6516         0.013934   
     56. D(H  14,N   4,C   2,C   1)     -0.0006         0.023042   
     57. D(C   5,N   4,C   2,O   3)     -0.0004         0.023042   
     58. D(H  14,N   4,C   2,O   3)    179.9990         0.023042   
     59. D(C   5,N   4,C   2,C   1)   -180.0000         0.023042   
     60. D(H  16,C   5,N   4,C   2)    171.9774         0.019049   
     61. D(H  15,C   5,N   4,H  14)    113.0205         0.019049   
     62. D(H  15,C   5,N   4,C   2)    -66.9801         0.019049   
     63. D(C   6,C   5,N   4,H  14)   -119.9995         0.019049   
     64. D(C   6,C   5,N   4,C   2)     59.9999         0.019049   
     65. D(O   8,C   6,C   5,H  15)    128.0741         0.014123   
     66. D(O   8,C   6,C   5,N   4)      0.0012         0.014123   
     67. D(O   7,C   6,C   5,H  16)     65.7201         0.014123   
     68. D(O   7,C   6,C   5,H  15)    -51.9259         0.014123   
     69. D(O   7,C   6,C   5,N   4)   -179.9988         0.014123   
    -----------------------------------------------------------------

Number of atoms                         .... 17
Number of degrees of freedom            .... 69


         *************************************************************
         *                GEOMETRY OPTIMIZATION CYCLE   1            *
         *************************************************************
---------------------------------
CARTESIAN COORDINATES (ANGSTROEM)
---------------------------------
  N     2.625605    0.369582    0.109654
  C     1.500960    0.309990   -0.777376
  C     0.281574   -0.162625   -0.065650
  O     0.383164   -0.438498    1.168236
  N    -0.955894   -0.310363   -0.704762
  C    -2.113712   -0.768828    0.010872
  C    -2.377896    0.195927    1.111198
  O    -3.383869   -0.069727    1.849282
  O    -1.584482    1.320638    1.330998
  H     2.915127    1.366865    0.222305
  H     2.347890   -0.054858    1.015086
  H     3.420046   -0.178714   -0.335103
  H     1.700962   -0.360667   -1.656057
  H     1.299205    1.321713   -1.228620
  H    -0.996352   -0.068913   -1.735859
  H    -2.062173   -1.809040    0.355366
  H    -3.000156   -0.662481   -0.669569

----------------------------
CARTESIAN COORDINATES (A.U.)
----------------------------
  NO LB    ZA    FRAG    MASS        X           Y           Z
   0 N   7.0000    0    14.007    4.961675    0.698408    0.207216
   1 C   6.0000    0    12.011    2.836403    0.585796   -1.469027
   2 C   6.0000    0    12.011    0.532097   -0.307317   -0.124060
   3 O   8.0000    0    15.999    0.724075   -0.828641    2.207646
   4 N   7.0000    0    14.007   -1.806378   -0.586502   -1.331808
   5 C   6.0000    0    12.011   -3.994337   -1.452875    0.020545
   6 C   6.0000    0    12.011   -4.493572    0.370248    2.099859
   7 O   8.0000    0    15.999   -6.394585   -0.131764    3.494637
   8 O   8.0000    0    15.999   -2.994237    2.495643    2.515222
   9 H   1.0000    0     1.008    5.508792    2.583001    0.420095
  10 H   1.0000    0     1.008    4.436870   -0.103667    1.918235
  11 H   1.0000    0     1.008    6.462950   -0.337720   -0.633253
  12 H   1.0000    0     1.008    3.214352   -0.681562   -3.129495
  13 H   1.0000    0     1.008    2.455142    2.497676   -2.321756
  14 H   1.0000    0     1.008   -1.882832   -0.130228   -3.280298
  15 H   1.0000    0     1.008   -3.896942   -3.418589    0.671544
  16 H   1.0000    0     1.008   -5.669474   -1.251908   -1.265301

      -----------------------------------------------------------      
     |                   =====================                   |     
     |                           x T B                           |     
     |                   =====================                   |     
     |                         S. Grimme                         |     
     |          Mulliken Center for Theoretical Chemistry        |     
     |                    University of Bonn                     |     
      -----------------------------------------------------------      

   * xtb version 6.7.1 (edcfbbe) compiled by 'albert@albert-system' on 2024-07-22

   xtb is free software: you can redistribute it and/or modify it under
   the terms of the GNU Lesser General Public License as published by
   the Free Software Foundation, either version 3 of the License, or
   (at your option) any later version.
   
   xtb is distributed in the hope that it will be useful,
   but WITHOUT ANY WARRANTY; without even the implied warranty of
   MERCHANTABILITY or FITNESS FOR A PARTICULAR PURPOSE.  See the
   GNU Lesser General Public License for more details.
   
   Cite this work as:
   * C. Bannwarth, E. Caldeweyher, S. Ehlert, A. Hansen, P. Pracht,
     J. Seibert, S. Spicher, S. Grimme, WIREs Comput. Mol. Sci., 2020, 11,
     e01493. DOI: 10.1002/wcms.1493
   
   for GFN2-xTB:
   * C. Bannwarth, S. Ehlert and S. Grimme., J. Chem. Theory Comput., 2019,
     15, 1652-1671. DOI: 10.1021/acs.jctc.8b01176
   for GFN1-xTB:
   * S. Grimme, C. Bannwarth, P. Shushkov, J. Chem. Theory Comput., 2017,
     13, 1989-2009. DOI: 10.1021/acs.jctc.7b00118
   for GFN0-xTB:
   * P. Pracht, E. Caldeweyher, S. Ehlert, S. Grimme, ChemRxiv, 2019, preprint.
     DOI: 10.26434/chemrxiv.8326202.v1
   for GFN-FF:
   * S. Spicher and S. Grimme, Angew. Chem. Int. Ed., 2020, 59, 15665-15673.
     DOI: 10.1002/anie.202004239
   
   for ALPB and GBSA implicit solvation:
   * S. Ehlert, M. Stahn, S. Spicher, S. Grimme, J. Chem. Theory Comput.,
     2021, 17, 4250-4261. DOI: 10.1021/acs.jctc.1c00471
   
   for ddCOSMO and CPCM-X implicit solvation:
   * M. Stahn, S. Ehlert, S. Grimme, J. Phys. Chem. A,
     2023, XX, XXXX-XXXX. DOI: 10.1021/acs.jpca.3c04382
   
   for DFT-D4:
   * E. Caldeweyher, C. Bannwarth and S. Grimme, J. Chem. Phys., 2017,
     147, 034112. DOI: 10.1063/1.4993215
   * E. Caldeweyher, S. Ehlert, A. Hansen, H. Neugebauer, S. Spicher,
     C. Bannwarth and S. Grimme, J. Chem. Phys., 2019, 150, 154122.
     DOI: 10.1063/1.5090222
   * E. Caldeweyher, J.-M. Mewes, S. Ehlert and S. Grimme, Phys. Chem. Chem. Phys.
     2020, 22, 8499-8512. DOI: 10.1039/D0CP00502A
   
   for sTDA-xTB:
   * S. Grimme and C. Bannwarth, J. Chem. Phys., 2016, 145, 054103.
     DOI: 10.1063/1.4959605
   
   in the mass-spec context:
   * V. Asgeirsson, C. Bauer and S. Grimme, Chem. Sci., 2017, 8, 4879.
     DOI: 10.1039/c7sc00601b
   * J. Koopman and S. Grimme, ACS Omega 2019, 4, 12, 15120-15133.
     DOI: 10.1021/acsomega.9b02011
   
   for metadynamics refer to:
   * S. Grimme, J. Chem. Theory Comput., 2019, 155, 2847-2862
     DOI: 10.1021/acs.jctc.9b00143
   
   for SPH calculations refer to:
   * S. Spicher and S. Grimme, J. Chem. Theory Comput., 2021, 17, 1701-1714
     DOI: 10.1021/acs.jctc.0c01306
   
   for ONIOM refer to:
   * C. Plett, A. Katbashev, S. Ehlert, S. Grimme, M. Bursch,
     Phys. Chem. Chem. Phys., 2023, 25, 17860-17868. DOI: 10.1039/D3CP02178E
   
   for DIPRO refer to:
   * J. Kohn, N. Gildemeister, S. Grimme, D. Fazzi, A. Hansen,
     J. Chem. Phys., 2023, just accepted.
   
   for PTB refer to:
   * S. Grimme, M. Mueller, A. Hansen, J. Chem. Phys., 2023, 158, 124111.
     DOI: 10.1063/5.0137838
   
   with help from (in alphabetical order)
   P. Atkinson, C. Bannwarth, F. Bohle, G. Brandenburg, E. Caldeweyher
   M. Checinski, S. Dohm, S. Ehlert, S. Ehrlich, I. Gerasimov, C. Hölzer
   A. Katbashev, J. Kohn, J. Koopman, C. Lavigne, S. Lehtola, F. März, M. Müller,
   F. Musil, H. Neugebauer, J. Pisarek, C. Plett, P. Pracht, F. Pultar,
   J. Seibert, P. Shushkov, S. Spicher, M. Stahn, M. Steiner, T. Strunk,
   J. Stückrath, T. Rose, and J. Unsleber
   
 * started run on 2026/04/11 at 16:57:59.083     
   ID    Z sym.   atoms
    1    7 N      1, 5
    2    6 C      2, 3, 6, 7
    3    8 O      4, 8, 9
    4    1 H      10-17

           -------------------------------------------------
          |                Calculation Setup                |
           -------------------------------------------------

          program call               : /home/analima/Programs/orca-6.1.0-f.0_linux_x86-64/bin/otool_xtb geo_opt_XTB.xyz --grad -c 0 -u 0 -P 1 --namespace geo_opt --input geo_opt_XTB.input.tmp --alpb WATER --acc 0.200000
          calculation namespace      : geo_opt
          coordinate file            : geo_opt_XTB.xyz
          omp threads                :                     1


           -------------------------------------------------
          |                 G F N 2 - x T B                 |
           -------------------------------------------------

        Reference                      10.1021/acs.jctc.8b01176
      * Hamiltonian:
        H0-scaling (s, p, d)           1.850000    2.230000    2.230000
        zeta-weighting                 0.500000
      * Dispersion:
        s8                             2.700000
        a1                             0.520000
        a2                             5.000000
        s9                             5.000000
      * Repulsion:
        kExp                           1.500000    1.000000
        rExp                           1.000000
      * Coulomb:
        alpha                          2.000000
        third order                    shell-resolved
        anisotropic                    true
        a3                             3.000000
        a5                             4.000000
        cn-shift                       1.200000
        cn-exp                         4.000000
        max-rad                        5.000000

      * Solvation model:               ALPB
        Solvent                        WATER
        Parameter file                 internal GFN2-xTB/ALPB
        Dielectric constant                8.0200E+01
        Reference state                gsolv [1 M gas/solution]
        Free energy shift                  1.0808E-03 Eh       6.7819E-01 kcal/mol
        Temperature                        2.9815E+02 K
        Density                            1.0000E+00 kg/L
        Solvent mass                       1.8000E+01 g/mol
        Interaction kernel             P16
        Born radius scaling (c1)           1.4744E+00
        Born radii integrator          GBOBC
        Born offset                        0.0000E+00 a0       0.0000E+00 AA
        H-bond correction              true
        Ion screening                  false
        Surface tension                    1.0000E-05 Eh       1.5569E+01 dyn/cm
        Grid points                               230 per atom

          ...................................................
          :                      SETUP                      :
          :.................................................:
          :  # basis functions                  44          :
          :  # atomic orbitals                  44          :
          :  # shells                           26          :
          :  # electrons                        52          :
          :  max. iterations                   250          :
          :  Hamiltonian                  GFN2-xTB          :
          :  restarted?                      false          :
          :  GBSA solvation                   true          :
          :  PC potential                    false          :
          :  electronic temp.          300.0000000     K    :
          :  accuracy                    0.2000000          :
          :  -> integral cutoff          0.3198970E+02      :
          :  -> integral neglect         0.2000000E-08      :
          :  -> SCF convergence          0.2000000E-06 Eh   :
          :  -> wf. convergence          0.2000000E-04 e    :
          :  Broyden damping             0.4000000          :
          :  net charge                          0          :
          :  unpaired electrons                  0          :
          ...................................................

 iter      E             dE          RMSdq      gap      omega  full diag
   1    -30.7464364 -0.307464E+02  0.560E+00    3.24       0.0  T
   2    -30.8929336 -0.146497E+00  0.258E+00    3.94       1.0  T
   3    -30.8994777 -0.654411E-02  0.142E+00    3.91       1.0  T
   4    -30.9002491 -0.771325E-03  0.463E-01    3.39       1.0  T
   5    -30.9020526 -0.180356E-02  0.166E-01    3.39       1.0  T
   6    -30.9020969 -0.442738E-04  0.814E-02    3.40       1.0  T
   7    -30.9021056 -0.874245E-05  0.199E-02    3.43       1.2  T
   8    -30.9021062 -0.564565E-06  0.855E-03    3.43       2.8  T
   9    -30.9021063 -0.664620E-07  0.283E-03    3.43       8.6  T
  10    -30.9021063 -0.397691E-07  0.792E-04    3.43      30.6  T
  11    -30.9021063 -0.202968E-08  0.402E-04    3.43      60.4  T
  12    -30.9021063 -0.254612E-09  0.976E-05    3.43     248.5  T
  13    -30.9021063 -0.187974E-10  0.268E-05    3.43     904.4  T

   *** convergence criteria satisfied after 13 iterations ***

         #    Occupation            Energy/Eh            Energy/eV
      -------------------------------------------------------------
         1        2.0000           -0.7174556             -19.5230
       ...           ...                  ...                  ...
        20        2.0000           -0.4718663             -12.8401
        21        2.0000           -0.4570872             -12.4380
        22        2.0000           -0.4167272             -11.3397
        23        2.0000           -0.4138115             -11.2604
        24        2.0000           -0.3816128             -10.3842
        25        2.0000           -0.3744111             -10.1882
        26        2.0000           -0.3638793              -9.9017 (HOMO)
        27                         -0.2377085              -6.4684 (LUMO)
        28                         -0.2070486              -5.6341
        29                         -0.0608016              -1.6545
        30                         -0.0341110              -0.9282
        31                          0.0453042               1.2328
       ...                                ...                  ...
        44                          0.4741306              12.9018
      -------------------------------------------------------------
                  HL-Gap            0.1261708 Eh            3.4333 eV
             Fermi-level           -0.3007939 Eh           -8.1850 eV

 SCC (total)                   0 d,  0 h,  0 min,  0.010 sec
 SCC setup                      ...        0 min,  0.000 sec (  2.204%)
 Dispersion                     ...        0 min,  0.000 sec (  0.485%)
 classical contributions        ...        0 min,  0.000 sec (  0.118%)
 integral evaluation            ...        0 min,  0.001 sec (  6.572%)
 iterations                     ...        0 min,  0.006 sec ( 60.451%)
 molecular gradient             ...        0 min,  0.003 sec ( 29.362%)
 printout                       ...        0 min,  0.000 sec (  0.696%)

         :::::::::::::::::::::::::::::::::::::::::::::::::::::
         ::                     SUMMARY                     ::
         :::::::::::::::::::::::::::::::::::::::::::::::::::::
         :: total energy             -30.663710209713 Eh    ::
         :: total w/o Gsasa/hb       -30.651298889326 Eh    ::
         :: gradient norm              0.222134325507 Eh/a0 ::
         :: HOMO-LUMO gap              3.433282447553 eV    ::
         ::.................................................::
         :: SCC energy               -30.902088863958 Eh    ::
         :: -> isotropic ES            0.329243899874 Eh    ::
         :: -> anisotropic ES         -0.018788778643 Eh    ::
         :: -> anisotropic XC          0.010033642650 Eh    ::
         :: -> dispersion             -0.011173896533 Eh    ::
         :: -> Gsolv                  -0.155238696862 Eh    ::
         ::    -> Gelec               -0.142827376475 Eh    ::
         ::    -> Gsasa                0.004586824179 Eh    ::
         ::    -> Ghb                 -0.018078904264 Eh    ::
         ::    -> Gshift               0.001080759698 Eh    ::
         :: repulsion energy           0.238378654245 Eh    ::
         :: add. restraining           0.000000000000 Eh    ::
         :: total charge              -0.000000000000 e     ::
         :::::::::::::::::::::::::::::::::::::::::::::::::::::


Property printout bound to 'properties.out'

           -------------------------------------------------
          | TOTAL ENERGY              -30.663710209713 Eh   |
          | GRADIENT NORM               0.222134325507 Eh/α |
          | HOMO-LUMO GAP               3.433282447553 eV   |
           -------------------------------------------------

------------------------------------------------------------------------
 * finished run on 2026/04/11 at 16:57:59.099     
------------------------------------------------------------------------
 total:
 * wall-time:     0 d,  0 h,  0 min,  0.016 sec
 *  cpu-time:     0 d,  0 h,  0 min,  0.014 sec
 * ratio c/w:     0.884 speedup
 SCF:
 * wall-time:     0 d,  0 h,  0 min,  0.010 sec
 *  cpu-time:     0 d,  0 h,  0 min,  0.008 sec
 * ratio c/w:     0.832 speedup


-------------------------   --------------------
FINAL SINGLE POINT ENERGY       -30.663710209710
-------------------------   --------------------


-------------
DIPOLE MOMENT
-------------
                                X             Y             Z
Total Dipole Moment    :      8.81200      -0.74200      -5.46300
                        -----------------------------------------
Magnitude (a.u.)       :     10.39453
Magnitude (Debye)      :     26.42080


------------------
CARTESIAN GRADIENT
------------------

   1   N   :   -0.039926081   -0.000942038    0.005990578
   2   C   :    0.016821415   -0.013493464    0.054304067
   3   C   :    0.058945911    0.019454808   -0.047452393
   4   O   :   -0.006079321   -0.001599209    0.045227583
   5   N   :   -0.063611298   -0.001690391    0.026492490
   6   C   :    0.002281509   -0.013847897    0.033896950
   7   C   :   -0.014012494   -0.082713551   -0.073853050
   8   O   :   -0.029201022   -0.011627486    0.018955595
   9   O   :    0.065867753    0.090406553    0.026510801
  10   H   :    0.000752120    0.015277439   -0.005955063
  11   H   :    0.003200223   -0.001831405   -0.001332491
  12   H   :    0.012999792   -0.012760575   -0.016692541
  13   H   :    0.004829013   -0.007067383   -0.013576035
  14   H   :    0.000662620    0.015440439   -0.007415787
  15   H   :    0.001863717    0.007872053   -0.033823330
  16   H   :   -0.003338250   -0.006011251   -0.002551537
  17   H   :   -0.012055608    0.005133357   -0.008725837

Difference to translation invariance:
           :   -0.0000000000   -0.0000000000   -0.0000000000

Difference to rotation invariance:
           :    0.0001890558   -0.0002048779    0.0004290227

Norm of the Cartesian gradient     ...    0.2221343255
RMS gradient                       ...    0.0311050272
MAX gradient                       ...    0.0904065531
------------------------------------------------------------------------------
                         ORCA GEOMETRY RELAXATION STEP
------------------------------------------------------------------------------

Reading the OPT-File                    .... done
Getting information on internals        .... done
Copying old internal coords+grads       .... done
Making the new internal coordinates     .... (2022 redundants) done
Validating the new internal coordinates .... (2022 redundants) done
Calculating the B-matrix                .... done
Calculating the G,G- and P matrices     .... done
Transforming gradient to internals      .... done
Projecting the internal gradient        .... done
Number of atoms                         ....  17
Number of internal coordinates          ....  69
Current Energy                          ....   -30.663710210 Eh
Current gradient norm                   ....     0.222134326 Eh/bohr
Maximum allowed component of the step   ....  0.300
Current trust radius                    ....  0.300
Evaluating the initial hessian          ....  (Almloef) done
Projecting the Hessian                  .... done
Forming the augmented Hessian           .... done
Diagonalizing the augmented Hessian     .... done
Last element of RFO vector              ....  0.924466213
Lowest eigenvalues of augmented Hessian:
 -0.053561956  0.013924767  0.014123285  0.014962439  0.018260638
Length of the computed step             ....  0.412415265
Warning: the length of the step is outside the trust region - taking restricted step instead
The input lambda is                     ....     0.012922
   iter:   5  x=    0.002204  g=  815.732131 f(x)=     3.747980
   iter:  10  x=   -0.092171  g=    2.029054 f(x)=     0.064437
   iter:  15  x=   -0.123992  g=    0.526599 f(x)=     0.000000
The output lambda is                    ....    -0.123992 (16 iterations)
The final length of the internal step   ....  0.300000000
Converting the step to Cartesian space:
 Initial RMS(Int)=    0.0361157559
Transforming coordinates:
 Iter   0:  RMS(Cart)=    0.0818519665 RMS(Int)=    0.7513147698
 Iter   5:  RMS(Cart)=    0.0000000300 RMS(Int)=    0.0000000337
done
Storing new coordinates                 .... done

                                .--------------------.
          ----------------------|Geometry convergence|-------------------------
          Item                value                   Tolerance       Converged
          ---------------------------------------------------------------------
          RMS gradient        0.0198664171            0.0001000000      NO
          MAX gradient        0.1146322795            0.0003000000      NO
          RMS step            0.0361157559            0.0020000000      NO
          MAX step            0.1696371685            0.0040000000      NO
          -------------------------------------------------------------------------
          ........................................................
          Max(Bonds)      0.0898      Max(Angles)    3.64
          Max(Dihed)        3.30      Max(Improp)    0.00
          ---------------------------------------------------------------------

The optimization has not yet converged - more geometry cycles are needed


    ---------------------------------------------------------------------------
                         Redundant Internal Coordinates
                            (Angstroem and degrees)

        Definition                    Value    dE/dq     Step     New-Value
    ----------------------------------------------------------------------------
     1. B(C   1,N   0)                1.4336 -0.030763  0.0272    1.4608   
     2. B(C   2,C   1)                1.4889 -0.011538  0.0111    1.5000   
     3. B(O   3,C   2)                1.2684  0.043776 -0.0232    1.2452   
     4. B(N   4,C   2)                1.4006  0.053409 -0.0427    1.3579   
     5. B(C   5,N   4)                1.4363 -0.004614  0.0041    1.4404   
     6. B(C   6,C   5)                1.4870 -0.027564  0.0260    1.5130   
     7. B(O   7,C   6)                1.2757  0.036415 -0.0197    1.2559   
     8. B(O   8,C   6)                1.3938  0.114632 -0.0898    1.3041   
     9. B(H   9,N   0)                1.0446  0.014147 -0.0148    1.0297   
    10. B(H  10,N   0)                1.0378 -0.000382  0.0003    1.0381   
    11. B(H  10,O   3)                2.0077  0.002186 -0.0093    1.9984   
    12. B(H  11,N   0)                1.0628  0.023291 -0.0257    1.0372   
    13. B(H  12,C   1)                1.1233  0.015703 -0.0188    1.1046   
    14. B(H  13,C   1)                1.1260  0.016722 -0.0201    1.1059   
    15. B(H  14,N   4)                1.0598  0.034629 -0.0378    1.0219   
    16. B(H  15,C   5)                1.0970  0.004739 -0.0053    1.0917   
    17. B(H  16,C   5)                1.1225  0.015295 -0.0182    1.1043   
    18. A(H  10,N   0,H  11)          110.74  0.003647   -0.50    110.24   
    19. A(H   9,N   0,H  11)          109.30  0.005563   -0.45    108.85   
    20. A(C   1,N   0,H  10)          108.23  0.005003   -0.68    107.55   
    21. A(H   9,N   0,H  10)          111.75  0.006037   -1.06    110.69   
    22. A(C   1,N   0,H   9)          108.90 -0.009145    1.17    110.07   
    23. A(C   1,N   0,H  11)          107.82 -0.012079    1.66    109.48   
    24. A(N   0,C   1,H  13)          110.56 -0.004945    0.58    111.14   
    25. A(C   2,C   1,H  12)          109.28 -0.000603   -0.10    109.18   
    26. A(H  12,C   1,H  13)          104.77 -0.003290    0.59    105.36   
    27. A(C   2,C   1,H  13)          109.27  0.003670   -0.44    108.83   
    28. A(N   0,C   1,C   2)          111.09  0.009394   -1.10    110.00   
    29. A(N   0,C   1,H  12)          111.66 -0.004828    0.56    112.22   
    30. A(C   1,C   2,N   4)          122.61  0.021589   -2.33    120.28   
    31. A(C   1,C   2,O   3)          117.93 -0.004507    0.56    118.49   
    32. A(O   3,C   2,N   4)          119.45 -0.017082    1.77    121.22   
    33. A(C   5,N   4,H  14)          121.78  0.004792   -0.58    121.20   
    34. A(C   2,N   4,C   5)          121.24 -0.003398    0.39    121.63   
    35. A(C   2,N   4,H  14)          116.98 -0.001393    0.19    117.17   
    36. A(C   6,C   5,H  16)          104.29  0.004639   -0.28    104.01   
    37. A(N   4,C   5,H  16)          107.72  0.003131   -0.19    107.53   
    38. A(C   6,C   5,H  15)          113.03  0.009338   -1.04    111.98   
    39. A(N   4,C   5,C   6)          107.75 -0.030074    3.64    111.39   
    40. A(N   4,C   5,H  15)          114.92  0.014052   -1.83    113.08   
    41. A(H  15,C   5,H  16)          108.50 -0.001807   -0.16    108.34   
    42. A(C   5,C   6,O   7)          115.67 -0.012275    1.30    116.97   
    43. A(O   7,C   6,O   8)          121.71 -0.001331    0.16    121.88   
    44. A(C   5,C   6,O   8)          122.62  0.013606   -1.46    121.16   
    45. D(H  12,C   1,N   0,H   9)    123.51 -0.004569    0.92    124.43   
    46. D(H  12,C   1,N   0,H  11)      5.03  0.000654   -0.12      4.91   
    47. D(C   2,C   1,N   0,H  10)      7.47  0.002832   -0.60      6.87   
    48. D(H  12,C   1,N   0,H  10)   -114.81  0.000321   -0.08   -114.89   
    49. D(C   2,C   1,N   0,H  11)    127.31  0.003165   -0.64    126.66   
    50. D(C   2,C   1,N   0,H   9)   -114.21 -0.002058    0.40   -113.81   
    51. D(O   3,C   2,C   1,N   0)      0.00  0.002774   -0.87     -0.87   
    52. D(N   4,C   2,C   1,N   0)   -180.00 -0.001468    0.73   -179.27   
    53. D(O   3,C   2,C   1,H  13)   -122.25  0.000337   -0.57   -122.82   
    54. D(N   4,C   2,C   1,H  12)    -56.35 -0.001649    0.62    -55.73   
    55. D(O   3,C   2,C   1,H  12)    123.65  0.002594   -0.98    122.67   
    56. D(H  14,N   4,C   2,C   1)     -0.00 -0.002365    1.11      1.11   
    57. D(C   5,N   4,C   2,O   3)     -0.00 -0.008956    3.30      3.30   
    58. D(H  14,N   4,C   2,O   3)    180.00 -0.006669    2.73    182.73   
    59. D(C   5,N   4,C   2,C   1)   -180.00 -0.004652    1.68   -178.32   
    60. D(H  16,C   5,N   4,C   2)    171.98 -0.010865    2.98    174.96   
    61. D(H  15,C   5,N   4,H  14)    113.02 -0.004110    2.04    115.06   
    62. D(H  15,C   5,N   4,C   2)    -66.98 -0.001712    1.45    -65.54   
    63. D(C   6,C   5,N   4,H  14)   -120.00 -0.005846    2.27   -117.73   
    64. D(C   6,C   5,N   4,C   2)     60.00 -0.003448    1.67     61.67   
    65. D(O   8,C   6,C   5,H  15)    128.07 -0.006532    2.89    130.96   
    66. D(O   8,C   6,C   5,N   4)      0.00 -0.008129    3.19      3.19   
    67. D(O   7,C   6,C   5,H  16)     65.72  0.004580   -0.87     64.85   
    68. D(O   7,C   6,C   5,H  15)    -51.93 -0.000859    0.02    -51.90   
    69. D(O   7,C   6,C   5,N   4)   -180.00 -0.002456    0.33   -179.67   
    ----------------------------------------------------------------------------

Geometry step timings:
Preparation and reading OPT file:      0.000 s ( 1.033 %)
Internal coordinates            :      0.000 s ( 0.886 %)
B/P matrices and projection     :      0.000 s (30.480 %)
Hessian update/contruction      :      0.000 s ( 7.897 %)
Making the step                 :      0.001 s (43.985 %)
Converting the step to Cartesian:      0.000 s ( 3.247 %)
Storing new data                :      0.000 s ( 1.402 %)
Checking convergence            :      0.000 s ( 0.886 %)
Final printing                  :      0.000 s (10.111 %)
Total time                      :      0.001 s

Time for energy+gradient        :      0.018 s
Time for complete geometry iter :      0.020 s

         *************************************************************
         *                GEOMETRY OPTIMIZATION CYCLE   2            *
         *************************************************************
---------------------------------
CARTESIAN COORDINATES (ANGSTROEM)
---------------------------------
  N     2.655664    0.353230    0.078420
  C     1.491800    0.316173   -0.803626
  C     0.291827   -0.174397   -0.049072
  O     0.429648   -0.484815    1.148946
  N    -0.905358   -0.304396   -0.676564
  C    -2.084152   -0.738717    0.028033
  C    -2.451381    0.224656    1.135397
  O    -3.463382   -0.058049    1.823333
  O    -1.776977    1.324905    1.323112
  H     2.958141    1.326823    0.223227
  H     2.379900   -0.083074    0.979162
  H     3.434233   -0.178145   -0.354208
  H     1.655702   -0.329905   -1.684394
  H     1.270067    1.319103   -1.213424
  H    -0.938556   -0.072125   -1.671195
  H    -2.013489   -1.767164    0.387366
  H    -2.933686   -0.674105   -0.674513

----------------------------
CARTESIAN COORDINATES (A.U.)
----------------------------
  NO LB    ZA    FRAG    MASS        X           Y           Z
   0 N   7.0000    0    14.007    5.018477    0.667507    0.148192
   1 C   6.0000    0    12.011    2.819094    0.597481   -1.518633
   2 C   6.0000    0    12.011    0.551473   -0.329562   -0.092734
   3 O   8.0000    0    15.999    0.811916   -0.916168    2.171193
   4 N   7.0000    0    14.007   -1.710878   -0.575224   -1.278520
   5 C   6.0000    0    12.011   -3.938476   -1.395973    0.052975
   6 C   6.0000    0    12.011   -4.632439    0.424539    2.145590
   7 O   8.0000    0    15.999   -6.544844   -0.109696    3.445600
   8 O   8.0000    0    15.999   -3.358001    2.503708    2.500319
   9 H   1.0000    0     1.008    5.590077    2.507332    0.421838
  10 H   1.0000    0     1.008    4.497359   -0.156988    1.850349
  11 H   1.0000    0     1.008    6.489760   -0.336645   -0.669356
  12 H   1.0000    0     1.008    3.128823   -0.623430   -3.183044
  13 H   1.0000    0     1.008    2.400079    2.492744   -2.293039
  14 H   1.0000    0     1.008   -1.773614   -0.136296   -3.158101
  15 H   1.0000    0     1.008   -3.804943   -3.339457    0.732016
  16 H   1.0000    0     1.008   -5.543863   -1.273873   -1.274645

      -----------------------------------------------------------      
     |                   =====================                   |     
     |                           x T B                           |     
     |                   =====================                   |     
     |                         S. Grimme                         |     
     |          Mulliken Center for Theoretical Chemistry        |     
     |                    University of Bonn                     |     
      -----------------------------------------------------------      

   * xtb version 6.7.1 (edcfbbe) compiled by 'albert@albert-system' on 2024-07-22

   xtb is free software: you can redistribute it and/or modify it under
   the terms of the GNU Lesser General Public License as published by
   the Free Software Foundation, either version 3 of the License, or
   (at your option) any later version.
   
   xtb is distributed in the hope that it will be useful,
   but WITHOUT ANY WARRANTY; without even the implied warranty of
   MERCHANTABILITY or FITNESS FOR A PARTICULAR PURPOSE.  See the
   GNU Lesser General Public License for more details.
   
   Cite this work as:
   * C. Bannwarth, E. Caldeweyher, S. Ehlert, A. Hansen, P. Pracht,
     J. Seibert, S. Spicher, S. Grimme, WIREs Comput. Mol. Sci., 2020, 11,
     e01493. DOI: 10.1002/wcms.1493
   
   for GFN2-xTB:
   * C. Bannwarth, S. Ehlert and S. Grimme., J. Chem. Theory Comput., 2019,
     15, 1652-1671. DOI: 10.1021/acs.jctc.8b01176
   for GFN1-xTB:
   * S. Grimme, C. Bannwarth, P. Shushkov, J. Chem. Theory Comput., 2017,
     13, 1989-2009. DOI: 10.1021/acs.jctc.7b00118
   for GFN0-xTB:
   * P. Pracht, E. Caldeweyher, S. Ehlert, S. Grimme, ChemRxiv, 2019, preprint.
     DOI: 10.26434/chemrxiv.8326202.v1
   for GFN-FF:
   * S. Spicher and S. Grimme, Angew. Chem. Int. Ed., 2020, 59, 15665-15673.
     DOI: 10.1002/anie.202004239
   
   for ALPB and GBSA implicit solvation:
   * S. Ehlert, M. Stahn, S. Spicher, S. Grimme, J. Chem. Theory Comput.,
     2021, 17, 4250-4261. DOI: 10.1021/acs.jctc.1c00471
   
   for ddCOSMO and CPCM-X implicit solvation:
   * M. Stahn, S. Ehlert, S. Grimme, J. Phys. Chem. A,
     2023, XX, XXXX-XXXX. DOI: 10.1021/acs.jpca.3c04382
   
   for DFT-D4:
   * E. Caldeweyher, C. Bannwarth and S. Grimme, J. Chem. Phys., 2017,
     147, 034112. DOI: 10.1063/1.4993215
   * E. Caldeweyher, S. Ehlert, A. Hansen, H. Neugebauer, S. Spicher,
     C. Bannwarth and S. Grimme, J. Chem. Phys., 2019, 150, 154122.
     DOI: 10.1063/1.5090222
   * E. Caldeweyher, J.-M. Mewes, S. Ehlert and S. Grimme, Phys. Chem. Chem. Phys.
     2020, 22, 8499-8512. DOI: 10.1039/D0CP00502A
   
   for sTDA-xTB:
   * S. Grimme and C. Bannwarth, J. Chem. Phys., 2016, 145, 054103.
     DOI: 10.1063/1.4959605
   
   in the mass-spec context:
   * V. Asgeirsson, C. Bauer and S. Grimme, Chem. Sci., 2017, 8, 4879.
     DOI: 10.1039/c7sc00601b
   * J. Koopman and S. Grimme, ACS Omega 2019, 4, 12, 15120-15133.
     DOI: 10.1021/acsomega.9b02011
   
   for metadynamics refer to:
   * S. Grimme, J. Chem. Theory Comput., 2019, 155, 2847-2862
     DOI: 10.1021/acs.jctc.9b00143
   
   for SPH calculations refer to:
   * S. Spicher and S. Grimme, J. Chem. Theory Comput., 2021, 17, 1701-1714
     DOI: 10.1021/acs.jctc.0c01306
   
   for ONIOM refer to:
   * C. Plett, A. Katbashev, S. Ehlert, S. Grimme, M. Bursch,
     Phys. Chem. Chem. Phys., 2023, 25, 17860-17868. DOI: 10.1039/D3CP02178E
   
   for DIPRO refer to:
   * J. Kohn, N. Gildemeister, S. Grimme, D. Fazzi, A. Hansen,
     J. Chem. Phys., 2023, just accepted.
   
   for PTB refer to:
   * S. Grimme, M. Mueller, A. Hansen, J. Chem. Phys., 2023, 158, 124111.
     DOI: 10.1063/5.0137838
   
   with help from (in alphabetical order)
   P. Atkinson, C. Bannwarth, F. Bohle, G. Brandenburg, E. Caldeweyher
   M. Checinski, S. Dohm, S. Ehlert, S. Ehrlich, I. Gerasimov, C. Hölzer
   A. Katbashev, J. Kohn, J. Koopman, C. Lavigne, S. Lehtola, F. März, M. Müller,
   F. Musil, H. Neugebauer, J. Pisarek, C. Plett, P. Pracht, F. Pultar,
   J. Seibert, P. Shushkov, S. Spicher, M. Stahn, M. Steiner, T. Strunk,
   J. Stückrath, T. Rose, and J. Unsleber
   
 * started run on 2026/04/11 at 16:57:59.103     
   ID    Z sym.   atoms
    1    7 N      1, 5
    2    6 C      2, 3, 6, 7
    3    8 O      4, 8, 9
    4    1 H      10-17

           -------------------------------------------------
          |                Calculation Setup                |
           -------------------------------------------------

          program call               : /home/analima/Programs/orca-6.1.0-f.0_linux_x86-64/bin/otool_xtb geo_opt_XTB.xyz --grad -c 0 -u 0 -P 1 --namespace geo_opt --input geo_opt_XTB.input.tmp --alpb WATER --acc 0.200000
          calculation namespace      : geo_opt
          coordinate file            : geo_opt_XTB.xyz
          omp threads                :                     1


           -------------------------------------------------
          |                 G F N 2 - x T B                 |
           -------------------------------------------------

        Reference                      10.1021/acs.jctc.8b01176
      * Hamiltonian:
        H0-scaling (s, p, d)           1.850000    2.230000    2.230000
        zeta-weighting                 0.500000
      * Dispersion:
        s8                             2.700000
        a1                             0.520000
        a2                             5.000000
        s9                             5.000000
      * Repulsion:
        kExp                           1.500000    1.000000
        rExp                           1.000000
      * Coulomb:
        alpha                          2.000000
        third order                    shell-resolved
        anisotropic                    true
        a3                             3.000000
        a5                             4.000000
        cn-shift                       1.200000
        cn-exp                         4.000000
        max-rad                        5.000000

      * Solvation model:               ALPB
        Solvent                        WATER
        Parameter file                 internal GFN2-xTB/ALPB
        Dielectric constant                8.0200E+01
        Reference state                gsolv [1 M gas/solution]
        Free energy shift                  1.0808E-03 Eh       6.7819E-01 kcal/mol
        Temperature                        2.9815E+02 K
        Density                            1.0000E+00 kg/L
        Solvent mass                       1.8000E+01 g/mol
        Interaction kernel             P16
        Born radius scaling (c1)           1.4744E+00
        Born radii integrator          GBOBC
        Born offset                        0.0000E+00 a0       0.0000E+00 AA
        H-bond correction              true
        Ion screening                  false
        Surface tension                    1.0000E-05 Eh       1.5569E+01 dyn/cm
        Grid points                               230 per atom
q/qsh data taken from xtbrestart
CAMM data taken from xtbrestart

          ...................................................
          :                      SETUP                      :
          :.................................................:
          :  # basis functions                  44          :
          :  # atomic orbitals                  44          :
          :  # shells                           26          :
          :  # electrons                        52          :
          :  max. iterations                   250          :
          :  Hamiltonian                  GFN2-xTB          :
          :  restarted?                       true          :
          :  GBSA solvation                   true          :
          :  PC potential                    false          :
          :  electronic temp.          300.0000000     K    :
          :  accuracy                    0.2000000          :
          :  -> integral cutoff          0.3198970E+02      :
          :  -> integral neglect         0.2000000E-08      :
          :  -> SCF convergence          0.2000000E-06 Eh   :
          :  -> wf. convergence          0.2000000E-04 e    :
          :  Broyden damping             0.4000000          :
          :  net charge                          0          :
          :  unpaired electrons                  0          :
          ...................................................

 iter      E             dE          RMSdq      gap      omega  full diag
   1    -30.9669394 -0.309669E+02  0.466E-01    3.68       0.0  T
   2    -30.9681322 -0.119281E-02  0.265E-01    3.74       1.0  T
   3    -30.9681984 -0.661742E-04  0.145E-01    3.78       1.0  T
   4    -30.9682108 -0.124007E-04  0.332E-02    3.79       1.0  T
   5    -30.9682170 -0.626079E-05  0.921E-03    3.80       2.6  T
   6    -30.9682171 -0.110953E-06  0.498E-03    3.80       4.9  T
   7    -30.9682172 -0.311294E-07  0.116E-03    3.80      20.8  T
   8    -30.9682172 -0.140769E-08  0.517E-04    3.80      46.9  T
   9    -30.9682172 -0.542606E-09  0.159E-04    3.80     152.3  T
  10    -30.9682172 -0.103952E-09  0.376E-05    3.80     644.8  T

   *** convergence criteria satisfied after 10 iterations ***

         #    Occupation            Energy/Eh            Energy/eV
      -------------------------------------------------------------
         1        2.0000           -0.7196033             -19.5814
       ...           ...                  ...                  ...
        20        2.0000           -0.4781560             -13.0113
        21        2.0000           -0.4627708             -12.5926
        22        2.0000           -0.4204848             -11.4420
        23        2.0000           -0.4172787             -11.3547
        24        2.0000           -0.3901340             -10.6161
        25        2.0000           -0.3737199             -10.1694
        26        2.0000           -0.3666601              -9.9773 (HOMO)
        27                         -0.2271862              -6.1821 (LUMO)
        28                         -0.1856228              -5.0511
        29                         -0.0518454              -1.4108
        30                         -0.0089308              -0.2430
        31                          0.0581704               1.5829
       ...                                ...                  ...
        44                          0.5443994              14.8139
      -------------------------------------------------------------
                  HL-Gap            0.1394739 Eh            3.7953 eV
             Fermi-level           -0.2969232 Eh           -8.0797 eV

 SCC (total)                   0 d,  0 h,  0 min,  0.009 sec
 SCC setup                      ...        0 min,  0.000 sec (  2.325%)
 Dispersion                     ...        0 min,  0.000 sec (  0.482%)
 classical contributions        ...        0 min,  0.000 sec (  0.113%)
 integral evaluation            ...        0 min,  0.001 sec (  7.440%)
 iterations                     ...        0 min,  0.005 sec ( 55.455%)
 molecular gradient             ...        0 min,  0.003 sec ( 33.138%)
 printout                       ...        0 min,  0.000 sec (  0.911%)

         :::::::::::::::::::::::::::::::::::::::::::::::::::::
         ::                     SUMMARY                     ::
         :::::::::::::::::::::::::::::::::::::::::::::::::::::
         :: total energy             -30.696855728264 Eh    ::
         :: total w/o Gsasa/hb       -30.684982319607 Eh    ::
         :: gradient norm              0.120831423486 Eh/a0 ::
         :: HOMO-LUMO gap              3.795278517780 eV    ::
         ::.................................................::
         :: SCC energy               -30.968202264175 Eh    ::
         :: -> isotropic ES            0.318218424680 Eh    ::
         :: -> anisotropic ES         -0.018397053799 Eh    ::
         :: -> anisotropic XC          0.007263120317 Eh    ::
         :: -> dispersion             -0.011091127555 Eh    ::
         :: -> Gsolv                  -0.150187830080 Eh    ::
         ::    -> Gelec               -0.138314421424 Eh    ::
         ::    -> Gsasa                0.004704913196 Eh    ::
         ::    -> Ghb                 -0.017659081550 Eh    ::
         ::    -> Gshift               0.001080759698 Eh    ::
         :: repulsion energy           0.271346535912 Eh    ::
         :: add. restraining           0.000000000000 Eh    ::
         :: total charge               0.000000000000 e     ::
         :::::::::::::::::::::::::::::::::::::::::::::::::::::


Property printout bound to 'properties.out'

           -------------------------------------------------
          | TOTAL ENERGY              -30.696855728264 Eh   |
          | GRADIENT NORM               0.120831423486 Eh/α |
          | HOMO-LUMO GAP               3.795278517780 eV   |
           -------------------------------------------------

------------------------------------------------------------------------
 * finished run on 2026/04/11 at 16:57:59.118     
------------------------------------------------------------------------
 total:
 * wall-time:     0 d,  0 h,  0 min,  0.014 sec
 *  cpu-time:     0 d,  0 h,  0 min,  0.013 sec
 * ratio c/w:     0.887 speedup
 SCF:
 * wall-time:     0 d,  0 h,  0 min,  0.009 sec
 *  cpu-time:     0 d,  0 h,  0 min,  0.008 sec
 * ratio c/w:     0.836 speedup


-------------------------   --------------------
FINAL SINGLE POINT ENERGY       -30.696855728260
-------------------------   --------------------


-------------
DIPOLE MOMENT
-------------
                                X             Y             Z
Total Dipole Moment    :      9.09000      -0.60300      -5.33100
                        -----------------------------------------
Magnitude (a.u.)       :     10.55515
Magnitude (Debye)      :     26.82907


------------------
CARTESIAN GRADIENT
------------------

   1   N   :   -0.015157242    0.000574899    0.008658651
   2   C   :    0.004912020   -0.011019101    0.029694063
   3   C   :    0.032342140    0.013336600   -0.030340795
   4   O   :   -0.005550718   -0.001143036    0.016321144
   5   N   :   -0.034062344    0.000895391    0.009249210
   6   C   :    0.002675392   -0.006345340    0.025013311
   7   C   :   -0.007239260   -0.057088614   -0.040576625
   8   O   :   -0.007550911    0.003614221    0.007508817
   9   O   :    0.023176770    0.049904916    0.017977781
  10   H   :    0.000321042    0.004687773   -0.004394827
  11   H   :    0.004260885   -0.000813522   -0.001296205
  12   H   :    0.003885341   -0.003715042   -0.007407356
  13   H   :    0.000239551   -0.001350428   -0.007514167
  14   H   :   -0.000150172    0.005981579   -0.004596573
  15   H   :    0.004723312    0.001229398   -0.010554651
  16   H   :   -0.002376675   -0.002338108   -0.004060951
  17   H   :   -0.004449130    0.003588413   -0.003680827

Difference to translation invariance:
           :   -0.0000000000   -0.0000000000    0.0000000000

Difference to rotation invariance:
           :    0.0001479090   -0.0000164057    0.0001705999

Norm of the Cartesian gradient     ...    0.1208314235
RMS gradient                       ...    0.0169197836
MAX gradient                       ...    0.0570886138
------------------------------------------------------------------------------
                         ORCA GEOMETRY RELAXATION STEP
------------------------------------------------------------------------------

Reading the OPT-File                    .... done
Getting information on internals        .... done
Copying old internal coords+grads       .... done
Making the new internal coordinates     .... (2022 redundants) done
Validating the new internal coordinates .... (2022 redundants) done
Calculating the B-matrix                .... done
Calculating the G,G- and P matrices     .... done
Transforming gradient to internals      .... done
Projecting the internal gradient        .... done
Number of atoms                         ....  17
Number of internal coordinates          ....  69
Current Energy                          ....   -30.696855728 Eh
Current gradient norm                   ....     0.120831423 Eh/bohr
Maximum allowed component of the step   ....  0.300
Current trust radius                    ....  0.300
Updating the Hessian (BFGS)             .... done
Forming the augmented Hessian           .... done
Diagonalizing the augmented Hessian     .... done
Last element of RFO vector              ....  0.946844320
Lowest eigenvalues of augmented Hessian:
 -0.022033600  0.013934051  0.014200345  0.014936697  0.018269595
Length of the computed step             ....  0.339751883
Warning: the length of the step is outside the trust region - taking restricted step instead
The input lambda is                     ....     0.012921
   iter:   5  x=    0.001338  g=  105.543265 f(x)=     0.519572
   iter:  10  x=   -0.035724  g=    1.399584 f(x)=     0.001478
The output lambda is                    ....    -0.035747 (13 iterations)
The final length of the internal step   ....  0.300000000
Converting the step to Cartesian space:
 Initial RMS(Int)=    0.0361157559
Transforming coordinates:
 Iter   0:  RMS(Cart)=    0.0450122846 RMS(Int)=    0.0358711799
 Iter   5:  RMS(Cart)=    0.0000000192 RMS(Int)=    0.0000000123
done
Storing new coordinates                 .... done
The predicted energy change is          ....    -0.011930677
Previously predicted energy change      ....    -0.028148372
Actually observed energy change         ....    -0.033145519
Ratio of predicted to observed change   ....     1.177528780
New trust radius                        ....     0.450000000

                                .--------------------.
          ----------------------|Geometry convergence|-------------------------
          Item                value                   Tolerance       Converged
          ---------------------------------------------------------------------
          Energy change      -0.0331455186            0.0000050000      NO
          RMS gradient        0.0094102718            0.0001000000      NO
          MAX gradient        0.0566823384            0.0003000000      NO
          RMS step            0.0361157559            0.0020000000      NO
          MAX step            0.1674476413            0.0040000000      NO
          -------------------------------------------------------------------------
          ........................................................
          Max(Bonds)      0.0886      Max(Angles)    3.40
          Max(Dihed)        3.98      Max(Improp)    0.00
          ---------------------------------------------------------------------

The optimization has not yet converged - more geometry cycles are needed


    ---------------------------------------------------------------------------
                         Redundant Internal Coordinates
                            (Angstroem and degrees)

        Definition                    Value    dE/dq     Step     New-Value
    ----------------------------------------------------------------------------
     1. B(C   1,N   0)                1.4608 -0.009889  0.0170    1.4778   
     2. B(C   2,C   1)                1.5000 -0.012119  0.0227    1.5227   
     3. B(O   3,C   2)                1.2452  0.015312 -0.0169    1.2283   
     4. B(N   4,C   2)                1.3579  0.022352 -0.0357    1.3222   
     5. B(C   5,N   4)                1.4404  0.000209 -0.0004    1.4400   
     6. B(C   6,C   5)                1.5130 -0.015346  0.0287    1.5417   
     7. B(O   7,C   6)                1.2559  0.009382 -0.0109    1.2450   
     8. B(O   8,C   6)                1.3041  0.056682 -0.0886    1.2155   
     9. B(H   9,N   0)                1.0297  0.003907 -0.0077    1.0220   
    10. B(H  10,N   0)                1.0381 -0.000832  0.0019    1.0400   
    11. B(H  10,O   3)                1.9984  0.002593 -0.0297    1.9688   
    12. B(H  11,N   0)                1.0372  0.007911 -0.0166    1.0206   
    13. B(H  12,C   1)                1.1046  0.006820 -0.0157    1.0888   
    14. B(H  13,C   1)                1.1059  0.007155 -0.0166    1.0893   
    15. B(H  14,N   4)                1.0219  0.010398 -0.0214    1.0005   
    16. B(H  15,C   5)                1.0917  0.000711 -0.0013    1.0904   
    17. B(H  16,C   5)                1.1043  0.005974 -0.0136    1.0907   
    18. A(H  10,N   0,H  11)          110.24  0.001464   -0.40    109.85   
    19. A(H   9,N   0,H  11)          108.82  0.002258   -0.01    108.81   
    20. A(C   1,N   0,H  10)          107.55  0.004318   -1.35    106.20   
    21. A(H   9,N   0,H  10)          110.69  0.003281   -1.28    109.41   
    22. A(C   1,N   0,H   9)          110.06 -0.004793    1.24    111.29   
    23. A(C   1,N   0,H  11)          109.46 -0.006708    1.90    111.37   
    24. A(N   0,C   1,H  13)          111.13 -0.001816    0.38    111.51   
    25. A(C   2,C   1,H  12)          109.18 -0.001211    0.16    109.34   
    26. A(H  12,C   1,H  13)          105.35 -0.003331    1.47    106.82   
    27. A(C   2,C   1,H  13)          108.82  0.001612   -0.23    108.59   
    28. A(N   0,C   1,C   2)          109.99  0.005497   -1.59    108.40   
    29. A(N   0,C   1,H  12)          112.22 -0.001064   -0.03    112.19   
    30. A(C   1,C   2,N   4)          120.28  0.016012   -3.40    116.87   
    31. A(C   1,C   2,O   3)          118.49 -0.003530    0.76    119.25   
    32. A(O   3,C   2,N   4)          121.22 -0.012439    2.62    123.84   
    33. A(C   5,N   4,H  14)          121.20  0.004328   -1.11    120.10   
    34. A(C   2,N   4,C   5)          121.62  0.000458   -0.12    121.50   
    35. A(C   2,N   4,H  14)          117.17 -0.004762    1.22    118.39   
    36. A(C   6,C   5,H  16)          103.98 -0.001165    1.06    105.04   
    37. A(N   4,C   5,H  16)          107.50 -0.001269    1.08    108.58   
    38. A(C   6,C   5,H  15)          112.00  0.004194   -1.68    110.32   
    39. A(N   4,C   5,C   6)          111.39 -0.006431    1.20    112.59   
    40. A(N   4,C   5,H  15)          113.09  0.003847   -1.45    111.63   
    41. A(H  15,C   5,H  16)          108.32  0.000351    0.12    108.44   
    42. A(C   5,C   6,O   7)          116.95 -0.000036    0.05    117.00   
    43. A(O   7,C   6,O   8)          121.86 -0.014384    3.00    124.86   
    44. A(C   5,C   6,O   8)          121.13  0.014430   -3.11    118.02   
    45. D(H  12,C   1,N   0,H   9)    124.45 -0.003443    1.51    125.96   
    46. D(H  12,C   1,N   0,H  11)      4.90  0.000882   -0.30      4.59   
    47. D(C   2,C   1,N   0,H  10)      6.87  0.001990   -1.09      5.78   
    48. D(H  12,C   1,N   0,H  10)   -114.88  0.000383   -0.14   -115.02   
    49. D(C   2,C   1,N   0,H  11)    126.65  0.002490   -1.25    125.40   
    50. D(C   2,C   1,N   0,H   9)   -113.80 -0.001835    0.56   -113.24   
    51. D(O   3,C   2,C   1,N   0)     -0.86  0.000841   -0.02     -0.88   
    52. D(N   4,C   2,C   1,N   0)   -179.27 -0.000721   -0.21   -179.49   
    53. D(O   3,C   2,C   1,H  13)   -122.82 -0.001405    0.69   -122.13   
    54. D(N   4,C   2,C   1,H  12)    -55.73  0.000761   -1.21    -56.94   
    55. D(O   3,C   2,C   1,H  12)    122.68  0.002322   -1.01    121.67   
    56. D(H  14,N   4,C   2,C   1)      1.10 -0.000569    0.01      1.12   
    57. D(C   5,N   4,C   2,O   3)      3.31 -0.005083    3.12      6.43   
    58. D(H  14,N   4,C   2,O   3)   -177.26 -0.002334   -0.17   -177.43   
    59. D(C   5,N   4,C   2,C   1)   -178.33 -0.003319    3.30   -175.02   
    60. D(H  16,C   5,N   4,C   2)    174.96 -0.004126    0.49    175.46   
    61. D(H  15,C   5,N   4,H  14)    115.07 -0.005022    3.98    119.06   
    62. D(H  15,C   5,N   4,C   2)    -65.52 -0.002215    0.54    -64.98   
    63. D(C   6,C   5,N   4,H  14)   -117.75 -0.001540    1.60   -116.15   
    64. D(C   6,C   5,N   4,C   2)     61.66  0.001267   -1.85     59.81   
    65. D(O   8,C   6,C   5,H  15)    130.96 -0.000074   -2.88    128.08   
    66. D(O   8,C   6,C   5,N   4)      3.20 -0.003412   -0.66      2.53   
    67. D(O   7,C   6,C   5,H  16)     64.84  0.001500    1.08     65.92   
    68. D(O   7,C   6,C   5,H  15)    -51.90 -0.000265    1.12    -50.78   
    69. D(O   7,C   6,C   5,N   4)   -179.67 -0.003603    3.34   -176.33   
    ----------------------------------------------------------------------------

Geometry step timings:
Preparation and reading OPT file:      0.000 s ( 0.789 %)
Internal coordinates            :      0.000 s ( 0.841 %)
B/P matrices and projection     :      0.001 s (31.125 %)
Hessian update/contruction      :      0.000 s (10.042 %)
Making the step                 :      0.001 s (40.431 %)
Converting the step to Cartesian:      0.000 s ( 3.628 %)
Storing new data                :      0.000 s ( 0.999 %)
Checking convergence            :      0.000 s ( 1.157 %)
Final printing                  :      0.000 s (10.936 %)
Total time                      :      0.002 s

Time for energy+gradient        :      0.018 s
Time for complete geometry iter :      0.021 s

         *************************************************************
         *                GEOMETRY OPTIMIZATION CYCLE   3            *
         *************************************************************
---------------------------------
CARTESIAN COORDINATES (ANGSTROEM)
---------------------------------
  N     2.646915    0.361092    0.063676
  C     1.467358    0.318708   -0.825639
  C     0.282788   -0.209462   -0.027810
  O     0.443568   -0.524186    1.148591
  N    -0.866601   -0.326224   -0.670819
  C    -2.073883   -0.713319    0.011899
  C    -2.456485    0.266828    1.138771
  O    -3.448773   -0.026371    1.831130
  O    -1.761771    1.250932    1.300824
  H     2.944205    1.323021    0.239116
  H     2.351727   -0.078289    0.958922
  H     3.431019   -0.156604   -0.334707
  H     1.629960   -0.318207   -1.693662
  H     1.217052    1.309078   -1.203949
  H    -0.895820   -0.080759   -1.640325
  H    -2.008842   -1.730286    0.399849
  H    -2.902418   -0.665953   -0.695867

----------------------------
CARTESIAN COORDINATES (A.U.)
----------------------------
  NO LB    ZA    FRAG    MASS        X           Y           Z
   0 N   7.0000    0    14.007    5.001944    0.682366    0.120331
   1 C   6.0000    0    12.011    2.772905    0.602271   -1.560232
   2 C   6.0000    0    12.011    0.534392   -0.395826   -0.052553
   3 O   8.0000    0    15.999    0.838221   -0.990568    2.170522
   4 N   7.0000    0    14.007   -1.637639   -0.616474   -1.267665
   5 C   6.0000    0    12.011   -3.919071   -1.347978    0.022486
   6 C   6.0000    0    12.011   -4.642083    0.504232    2.151965
   7 O   8.0000    0    15.999   -6.517236   -0.049833    3.460333
   8 O   8.0000    0    15.999   -3.329264    2.363919    2.458202
   9 H   1.0000    0     1.008    5.563740    2.500148    0.451864
  10 H   1.0000    0     1.008    4.444120   -0.147945    1.812101
  11 H   1.0000    0     1.008    6.483686   -0.295939   -0.632505
  12 H   1.0000    0     1.008    3.080179   -0.601323   -3.200558
  13 H   1.0000    0     1.008    2.299894    2.473798   -2.275135
  14 H   1.0000    0     1.008   -1.692854   -0.152612   -3.099765
  15 H   1.0000    0     1.008   -3.796161   -3.269768    0.755606
  16 H   1.0000    0     1.008   -5.484775   -1.258469   -1.314997

      -----------------------------------------------------------      
     |                   =====================                   |     
     |                           x T B                           |     
     |                   =====================                   |     
     |                         S. Grimme                         |     
     |          Mulliken Center for Theoretical Chemistry        |     
     |                    University of Bonn                     |     
      -----------------------------------------------------------      

   * xtb version 6.7.1 (edcfbbe) compiled by 'albert@albert-system' on 2024-07-22

   xtb is free software: you can redistribute it and/or modify it under
   the terms of the GNU Lesser General Public License as published by
   the Free Software Foundation, either version 3 of the License, or
   (at your option) any later version.
   
   xtb is distributed in the hope that it will be useful,
   but WITHOUT ANY WARRANTY; without even the implied warranty of
   MERCHANTABILITY or FITNESS FOR A PARTICULAR PURPOSE.  See the
   GNU Lesser General Public License for more details.
   
   Cite this work as:
   * C. Bannwarth, E. Caldeweyher, S. Ehlert, A. Hansen, P. Pracht,
     J. Seibert, S. Spicher, S. Grimme, WIREs Comput. Mol. Sci., 2020, 11,
     e01493. DOI: 10.1002/wcms.1493
   
   for GFN2-xTB:
   * C. Bannwarth, S. Ehlert and S. Grimme., J. Chem. Theory Comput., 2019,
     15, 1652-1671. DOI: 10.1021/acs.jctc.8b01176
   for GFN1-xTB:
   * S. Grimme, C. Bannwarth, P. Shushkov, J. Chem. Theory Comput., 2017,
     13, 1989-2009. DOI: 10.1021/acs.jctc.7b00118
   for GFN0-xTB:
   * P. Pracht, E. Caldeweyher, S. Ehlert, S. Grimme, ChemRxiv, 2019, preprint.
     DOI: 10.26434/chemrxiv.8326202.v1
   for GFN-FF:
   * S. Spicher and S. Grimme, Angew. Chem. Int. Ed., 2020, 59, 15665-15673.
     DOI: 10.1002/anie.202004239
   
   for ALPB and GBSA implicit solvation:
   * S. Ehlert, M. Stahn, S. Spicher, S. Grimme, J. Chem. Theory Comput.,
     2021, 17, 4250-4261. DOI: 10.1021/acs.jctc.1c00471
   
   for ddCOSMO and CPCM-X implicit solvation:
   * M. Stahn, S. Ehlert, S. Grimme, J. Phys. Chem. A,
     2023, XX, XXXX-XXXX. DOI: 10.1021/acs.jpca.3c04382
   
   for DFT-D4:
   * E. Caldeweyher, C. Bannwarth and S. Grimme, J. Chem. Phys., 2017,
     147, 034112. DOI: 10.1063/1.4993215
   * E. Caldeweyher, S. Ehlert, A. Hansen, H. Neugebauer, S. Spicher,
     C. Bannwarth and S. Grimme, J. Chem. Phys., 2019, 150, 154122.
     DOI: 10.1063/1.5090222
   * E. Caldeweyher, J.-M. Mewes, S. Ehlert and S. Grimme, Phys. Chem. Chem. Phys.
     2020, 22, 8499-8512. DOI: 10.1039/D0CP00502A
   
   for sTDA-xTB:
   * S. Grimme and C. Bannwarth, J. Chem. Phys., 2016, 145, 054103.
     DOI: 10.1063/1.4959605
   
   in the mass-spec context:
   * V. Asgeirsson, C. Bauer and S. Grimme, Chem. Sci., 2017, 8, 4879.
     DOI: 10.1039/c7sc00601b
   * J. Koopman and S. Grimme, ACS Omega 2019, 4, 12, 15120-15133.
     DOI: 10.1021/acsomega.9b02011
   
   for metadynamics refer to:
   * S. Grimme, J. Chem. Theory Comput., 2019, 155, 2847-2862
     DOI: 10.1021/acs.jctc.9b00143
   
   for SPH calculations refer to:
   * S. Spicher and S. Grimme, J. Chem. Theory Comput., 2021, 17, 1701-1714
     DOI: 10.1021/acs.jctc.0c01306
   
   for ONIOM refer to:
   * C. Plett, A. Katbashev, S. Ehlert, S. Grimme, M. Bursch,
     Phys. Chem. Chem. Phys., 2023, 25, 17860-17868. DOI: 10.1039/D3CP02178E
   
   for DIPRO refer to:
   * J. Kohn, N. Gildemeister, S. Grimme, D. Fazzi, A. Hansen,
     J. Chem. Phys., 2023, just accepted.
   
   for PTB refer to:
   * S. Grimme, M. Mueller, A. Hansen, J. Chem. Phys., 2023, 158, 124111.
     DOI: 10.1063/5.0137838
   
   with help from (in alphabetical order)
   P. Atkinson, C. Bannwarth, F. Bohle, G. Brandenburg, E. Caldeweyher
   M. Checinski, S. Dohm, S. Ehlert, S. Ehrlich, I. Gerasimov, C. Hölzer
   A. Katbashev, J. Kohn, J. Koopman, C. Lavigne, S. Lehtola, F. März, M. Müller,
   F. Musil, H. Neugebauer, J. Pisarek, C. Plett, P. Pracht, F. Pultar,
   J. Seibert, P. Shushkov, S. Spicher, M. Stahn, M. Steiner, T. Strunk,
   J. Stückrath, T. Rose, and J. Unsleber
   
 * started run on 2026/04/11 at 16:57:59.124     
   ID    Z sym.   atoms
    1    7 N      1, 5
    2    6 C      2, 3, 6, 7
    3    8 O      4, 8, 9
    4    1 H      10-17

           -------------------------------------------------
          |                Calculation Setup                |
           -------------------------------------------------

          program call               : /home/analima/Programs/orca-6.1.0-f.0_linux_x86-64/bin/otool_xtb geo_opt_XTB.xyz --grad -c 0 -u 0 -P 1 --namespace geo_opt --input geo_opt_XTB.input.tmp --alpb WATER --acc 0.200000
          calculation namespace      : geo_opt
          coordinate file            : geo_opt_XTB.xyz
          omp threads                :                     1


           -------------------------------------------------
          |                 G F N 2 - x T B                 |
           -------------------------------------------------

        Reference                      10.1021/acs.jctc.8b01176
      * Hamiltonian:
        H0-scaling (s, p, d)           1.850000    2.230000    2.230000
        zeta-weighting                 0.500000
      * Dispersion:
        s8                             2.700000
        a1                             0.520000
        a2                             5.000000
        s9                             5.000000
      * Repulsion:
        kExp                           1.500000    1.000000
        rExp                           1.000000
      * Coulomb:
        alpha                          2.000000
        third order                    shell-resolved
        anisotropic                    true
        a3                             3.000000
        a5                             4.000000
        cn-shift                       1.200000
        cn-exp                         4.000000
        max-rad                        5.000000

      * Solvation model:               ALPB
        Solvent                        WATER
        Parameter file                 internal GFN2-xTB/ALPB
        Dielectric constant                8.0200E+01
        Reference state                gsolv [1 M gas/solution]
        Free energy shift                  1.0808E-03 Eh       6.7819E-01 kcal/mol
        Temperature                        2.9815E+02 K
        Density                            1.0000E+00 kg/L
        Solvent mass                       1.8000E+01 g/mol
        Interaction kernel             P16
        Born radius scaling (c1)           1.4744E+00
        Born radii integrator          GBOBC
        Born offset                        0.0000E+00 a0       0.0000E+00 AA
        H-bond correction              true
        Ion screening                  false
        Surface tension                    1.0000E-05 Eh       1.5569E+01 dyn/cm
        Grid points                               230 per atom
q/qsh data taken from xtbrestart
CAMM data taken from xtbrestart

          ...................................................
          :                      SETUP                      :
          :.................................................:
          :  # basis functions                  44          :
          :  # atomic orbitals                  44          :
          :  # shells                           26          :
          :  # electrons                        52          :
          :  max. iterations                   250          :
          :  Hamiltonian                  GFN2-xTB          :
          :  restarted?                       true          :
          :  GBSA solvation                   true          :
          :  PC potential                    false          :
          :  electronic temp.          300.0000000     K    :
          :  accuracy                    0.2000000          :
          :  -> integral cutoff          0.3198970E+02      :
          :  -> integral neglect         0.2000000E-08      :
          :  -> SCF convergence          0.2000000E-06 Eh   :
          :  -> wf. convergence          0.2000000E-04 e    :
          :  Broyden damping             0.4000000          :
          :  net charge                          0          :
          :  unpaired electrons                  0          :
          ...................................................

 iter      E             dE          RMSdq      gap      omega  full diag
   1    -31.0119774 -0.310120E+02  0.439E-01    3.89       0.0  T
   2    -31.0137164 -0.173901E-02  0.230E-01    3.89       1.0  T
   3    -31.0137907 -0.742954E-04  0.133E-01    3.92       1.0  T
   4    -31.0137936 -0.287347E-05  0.437E-02    3.94       1.0  T
   5    -31.0137988 -0.521683E-05  0.801E-03    3.95       3.0  T
   6    -31.0137989 -0.102515E-06  0.438E-03    3.95       5.5  T
   7    -31.0137989 -0.193885E-07  0.110E-03    3.95      22.1  T
   8    -31.0137989 -0.366730E-08  0.618E-04    3.95      39.2  T
   9    -31.0137989 -0.545544E-09  0.121E-04    3.95     200.9  T
  10    -31.0137989 -0.280735E-10  0.380E-05    3.95     638.3  T

   *** convergence criteria satisfied after 10 iterations ***

         #    Occupation            Energy/Eh            Energy/eV
      -------------------------------------------------------------
         1        2.0000           -0.7208962             -19.6166
       ...           ...                  ...                  ...
        20        2.0000           -0.4804500             -13.0737
        21        2.0000           -0.4679674             -12.7340
        22        2.0000           -0.4245185             -11.5517
        23        2.0000           -0.4171545             -11.3514
        24        2.0000           -0.3962213             -10.7817
        25        2.0000           -0.3785092             -10.2998
        26        2.0000           -0.3613678              -9.8333 (HOMO)
        27                         -0.2163540              -5.8873 (LUMO)
        28                         -0.1620022              -4.4083
        29                         -0.0518247              -1.4102
        30                          0.0086770               0.2361
        31                          0.0556145               1.5133
       ...                                ...                  ...
        44                          0.6838831              18.6094
      -------------------------------------------------------------
                  HL-Gap            0.1450138 Eh            3.9460 eV
             Fermi-level           -0.2888609 Eh           -7.8603 eV

 SCC (total)                   0 d,  0 h,  0 min,  0.010 sec
 SCC setup                      ...        0 min,  0.000 sec (  2.262%)
 Dispersion                     ...        0 min,  0.000 sec (  0.479%)
 classical contributions        ...        0 min,  0.000 sec (  0.119%)
 integral evaluation            ...        0 min,  0.001 sec (  6.946%)
 iterations                     ...        0 min,  0.007 sec ( 71.414%)
 molecular gradient             ...        0 min,  0.002 sec ( 18.234%)
 printout                       ...        0 min,  0.000 sec (  0.449%)

         :::::::::::::::::::::::::::::::::::::::::::::::::::::
         ::                     SUMMARY                     ::
         :::::::::::::::::::::::::::::::::::::::::::::::::::::
         :: total energy             -30.705618526925 Eh    ::
         :: total w/o Gsasa/hb       -30.694264141174 Eh    ::
         :: gradient norm              0.060403305365 Eh/a0 ::
         :: HOMO-LUMO gap              3.946025374187 eV    ::
         ::.................................................::
         :: SCC energy               -31.013785009396 Eh    ::
         :: -> isotropic ES            0.302480318974 Eh    ::
         :: -> anisotropic ES         -0.018522461185 Eh    ::
         :: -> anisotropic XC          0.005179483688 Eh    ::
         :: -> dispersion             -0.011172846054 Eh    ::
         :: -> Gsolv                  -0.141639837979 Eh    ::
         ::    -> Gelec               -0.130285452228 Eh    ::
         ::    -> Gsasa                0.004604727450 Eh    ::
         ::    -> Ghb                 -0.017039872899 Eh    ::
         ::    -> Gshift               0.001080759698 Eh    ::
         :: repulsion energy           0.308166482470 Eh    ::
         :: add. restraining           0.000000000000 Eh    ::
         :: total charge              -0.000000000000 e     ::
         :::::::::::::::::::::::::::::::::::::::::::::::::::::


Property printout bound to 'properties.out'

           -------------------------------------------------
          | TOTAL ENERGY              -30.705618526925 Eh   |
          | GRADIENT NORM               0.060403305365 Eh/α |
          | HOMO-LUMO GAP               3.946025374187 eV   |
           -------------------------------------------------

------------------------------------------------------------------------
 * finished run on 2026/04/11 at 16:57:59.139     
------------------------------------------------------------------------
 total:
 * wall-time:     0 d,  0 h,  0 min,  0.015 sec
 *  cpu-time:     0 d,  0 h,  0 min,  0.011 sec
 * ratio c/w:     0.727 speedup
 SCF:
 * wall-time:     0 d,  0 h,  0 min,  0.010 sec
 *  cpu-time:     0 d,  0 h,  0 min,  0.006 sec
 * ratio c/w:     0.614 speedup


-------------------------   --------------------
FINAL SINGLE POINT ENERGY       -30.705618526930
-------------------------   --------------------


-------------
DIPOLE MOMENT
-------------
                                X             Y             Z
Total Dipole Moment    :      8.93300      -0.28500      -5.17100
                        -----------------------------------------
Magnitude (a.u.)       :     10.32565
Magnitude (Debye)      :     26.24571


------------------
CARTESIAN GRADIENT
------------------

   1   N   :    0.000803649   -0.000462748    0.006719106
   2   C   :   -0.002269901   -0.004709071    0.006024021
   3   C   :    0.002746803    0.001014233   -0.013187122
   4   O   :   -0.008544865    0.003368180   -0.003023622
   5   N   :   -0.002092446    0.005147612    0.001586693
   6   C   :    0.006181229    0.003727681    0.017326323
   7   C   :    0.013911772    0.016693548   -0.014322895
   8   O   :    0.009684095    0.009016299    0.001306305
   9   O   :   -0.025058513   -0.035080356    0.001678561
  10   H   :    0.000152075   -0.001524411   -0.002894583
  11   H   :    0.004476023   -0.000002878   -0.001467382
  12   H   :   -0.002928849    0.002603612   -0.000346953
  13   H   :   -0.001699391    0.002985495   -0.001095206
  14   H   :    0.000350020   -0.001779635   -0.001767691
  15   H   :    0.004682026   -0.003409807    0.006009821
  16   H   :   -0.001107371   -0.000275260   -0.003722165
  17   H   :    0.000713645    0.002687505    0.001176793

Difference to translation invariance:
           :    0.0000000000    0.0000000000   -0.0000000000

Difference to rotation invariance:
           :   -0.0000603512    0.0001709979   -0.0002347058

Norm of the Cartesian gradient     ...    0.0604033054
RMS gradient                       ...    0.0084581546
MAX gradient                       ...    0.0350803564
------------------------------------------------------------------------------
                         ORCA GEOMETRY RELAXATION STEP
------------------------------------------------------------------------------

Reading the OPT-File                    .... done
Getting information on internals        .... done
Copying old internal coords+grads       .... done
Making the new internal coordinates     .... (2022 redundants) done
Validating the new internal coordinates .... (2022 redundants) done
Calculating the B-matrix                .... done
Calculating the G,G- and P matrices     .... done
Transforming gradient to internals      .... done
Projecting the internal gradient        .... done
Number of atoms                         ....  17
Number of internal coordinates          ....  69
Current Energy                          ....   -30.705618527 Eh
Current gradient norm                   ....     0.060403305 Eh/bohr
Maximum allowed component of the step   ....  0.300
Current trust radius                    ....  0.450
Updating the Hessian (BFGS)             .... done
Forming the augmented Hessian           .... done
Diagonalizing the augmented Hessian     .... done
Last element of RFO vector              ....  0.922727346
Lowest eigenvalues of augmented Hessian:
 -0.008500035  0.013939988  0.014179243  0.016071798  0.018334870
Length of the computed step             ....  0.417732604
The final length of the internal step   ....  0.417732604
Converting the step to Cartesian space:
 Initial RMS(Int)=    0.0502890959
Transforming coordinates:
 Iter   0:  RMS(Cart)=    0.1171921876 RMS(Int)=    0.0501479685
 Iter   5:  RMS(Cart)=    0.0000088494 RMS(Int)=    0.0000059586
done
Storing new coordinates                 .... done
The predicted energy change is          ....    -0.004991648
Previously predicted energy change      ....    -0.011930677
Actually observed energy change         ....    -0.008762799
Ratio of predicted to observed change   ....     0.734476235
New trust radius                        ....     0.450000000

                                .--------------------.
          ----------------------|Geometry convergence|-------------------------
          Item                value                   Tolerance       Converged
          ---------------------------------------------------------------------
          Energy change      -0.0087627987            0.0000050000      NO
          RMS gradient        0.0065170424            0.0001000000      NO
          MAX gradient        0.0425057258            0.0003000000      NO
          RMS step            0.0502890959            0.0020000000      NO
          MAX step            0.1974392156            0.0040000000      NO
          -------------------------------------------------------------------------
          ........................................................
          Max(Bonds)      0.0517      Max(Angles)    1.90
          Max(Dihed)       11.31      Max(Improp)    0.00
          ---------------------------------------------------------------------

The optimization has not yet converged - more geometry cycles are needed


    ---------------------------------------------------------------------------
                         Redundant Internal Coordinates
                            (Angstroem and degrees)

        Definition                    Value    dE/dq     Step     New-Value
    ----------------------------------------------------------------------------
     1. B(C   1,N   0)                1.4778  0.000870 -0.0006    1.4773   
     2. B(C   2,C   1)                1.5227 -0.007466  0.0099    1.5326   
     3. B(O   3,C   2)                1.2283 -0.004954  0.0012    1.2295   
     4. B(N   4,C   2)                1.3222 -0.011239  0.0050    1.3272   
     5. B(C   5,N   4)                1.4400 -0.001125  0.0005    1.4404   
     6. B(C   6,C   5)                1.5417 -0.013892  0.0172    1.5589   
     7. B(O   7,C   6)                1.2450 -0.009115  0.0043    1.2493   
     8. B(O   8,C   6)                1.2155 -0.042506  0.0213    1.2368   
     9. B(H   9,N   0)                1.0220 -0.001884  0.0016    1.0236   
    10. B(H  10,N   0)                1.0400 -0.001049  0.0022    1.0422   
    11. B(H  10,O   3)                1.9687  0.003267 -0.0517    1.9170   
    12. B(H  11,N   0)                1.0206 -0.003439  0.0025    1.0230   
    13. B(H  12,C   1)                1.0888 -0.001129 -0.0006    1.0883   
    14. B(H  13,C   1)                1.0893 -0.001083 -0.0007    1.0886   
    15. B(H  14,N   4)                1.0005 -0.006796  0.0063    1.0068   
    16. B(H  15,C   5)                1.0904 -0.001132  0.0015    1.0919   
    17. B(H  16,C   5)                1.0907 -0.001189 -0.0000    1.0907   
    18. A(H  10,N   0,H  11)          109.86  0.000261   -0.01    109.85   
    19. A(H   9,N   0,H  11)          108.72 -0.000046    0.43    109.15   
    20. A(C   1,N   0,H  10)          106.22  0.002173   -0.96    105.26   
    21. A(H   9,N   0,H  10)          109.42  0.001518   -0.66    108.76   
    22. A(C   1,N   0,H   9)          111.25 -0.001367    0.42    111.68   
    23. A(C   1,N   0,H  11)          111.33 -0.002428    0.81    112.14   
    24. A(N   0,C   1,H  13)          111.49  0.000698    0.04    111.53   
    25. A(C   2,C   1,H  12)          109.33 -0.000151    0.06    109.39   
    26. A(H  12,C   1,H  13)          106.81 -0.003007    1.17    107.99   
    27. A(C   2,C   1,H  13)          108.58  0.000950    0.07    108.64   
    28. A(N   0,C   1,C   2)          108.39  0.000519   -0.99    107.40   
    29. A(N   0,C   1,H  12)          112.17  0.000971   -0.23    111.93   
    30. A(C   1,C   2,N   4)          116.88  0.006495   -1.12    115.75   
    31. A(C   1,C   2,O   3)          119.26  0.001242   -0.23    119.03   
    32. A(O   3,C   2,N   4)          123.84 -0.007699    1.36    125.20   
    33. A(C   5,N   4,H  14)          120.06  0.004582   -0.81    119.25   
    34. A(C   2,N   4,C   5)          121.47 -0.001083    0.07    121.53   
    35. A(C   2,N   4,H  14)          118.36 -0.003382    0.72    119.08   
    36. A(C   6,C   5,H  16)          104.96 -0.002554    0.94    105.90   
    37. A(N   4,C   5,H  16)          108.51 -0.000793    0.63    109.15   
    38. A(C   6,C   5,H  15)          110.35  0.000520   -0.65    109.70   
    39. A(N   4,C   5,C   6)          112.56  0.002180   -0.42    112.14   
    40. A(N   4,C   5,H  15)          111.68  0.000291   -0.51    111.17   
    41. A(H  15,C   5,H  16)          108.46  0.000087    0.22    108.68   
    42. A(C   5,C   6,O   7)          117.04  0.010340   -1.17    115.87   
    43. A(O   7,C   6,O   8)          124.90 -0.011907    1.90    126.80   
    44. A(C   5,C   6,O   8)          118.06  0.001457   -0.71    117.35   
    45. D(H  12,C   1,N   0,H   9)    125.99 -0.001950    0.82    126.81   
    46. D(H  12,C   1,N   0,H  11)      4.55  0.000746   -0.41      4.14   
    47. D(C   2,C   1,N   0,H  10)      5.78  0.001218   -1.09      4.69   
    48. D(H  12,C   1,N   0,H  10)   -115.02  0.000446   -0.31   -115.33   
    49. D(C   2,C   1,N   0,H  11)    125.36  0.001518   -1.20    124.16   
    50. D(C   2,C   1,N   0,H   9)   -113.20 -0.001178    0.03   -113.17   
    51. D(O   3,C   2,C   1,N   0)     -0.87  0.000780   -2.01     -2.88   
    52. D(N   4,C   2,C   1,N   0)   -179.49 -0.000821    1.02   -178.46   
    53. D(O   3,C   2,C   1,H  13)   -122.14 -0.000936   -1.46   -123.60   
    54. D(N   4,C   2,C   1,H  12)    -56.94  0.000603    0.11    -56.83   
    55. D(O   3,C   2,C   1,H  12)    121.68  0.002204   -2.93    118.75   
    56. D(H  14,N   4,C   2,C   1)      1.08 -0.000177    1.00      2.08   
    57. D(C   5,N   4,C   2,O   3)      6.46 -0.004146    7.79     14.26   
    58. D(H  14,N   4,C   2,O   3)   -177.47 -0.002007    4.08   -173.39   
    59. D(C   5,N   4,C   2,C   1)   -174.99 -0.002315    4.71   -170.27   
    60. D(H  16,C   5,N   4,C   2)    175.52 -0.002472    3.91    179.44   
    61. D(H  15,C   5,N   4,H  14)    119.03 -0.004561    8.18    127.21   
    62. D(H  15,C   5,N   4,C   2)    -64.97 -0.002699    4.31    -60.66   
    63. D(C   6,C   5,N   4,H  14)   -116.20 -0.001959    6.58   -109.62   
    64. D(C   6,C   5,N   4,C   2)     59.80 -0.000097    2.71     62.51   
    65. D(O   8,C   6,C   5,H  15)    128.06 -0.003332    9.81    137.87   
    66. D(O   8,C   6,C   5,N   4)      2.56 -0.005756   11.31     13.87   
    67. D(O   7,C   6,C   5,H  16)     65.88  0.001460   -2.53     63.35   
    68. D(O   7,C   6,C   5,H  15)    -50.78  0.002509   -3.02    -53.81   
    69. D(O   7,C   6,C   5,N   4)   -176.29  0.000084   -1.52   -177.81   
    ----------------------------------------------------------------------------

Geometry step timings:
Preparation and reading OPT file:      0.000 s ( 1.327 %)
Internal coordinates            :      0.000 s ( 1.422 %)
B/P matrices and projection     :      0.001 s (48.436 %)
Hessian update/contruction      :      0.000 s (11.374 %)
Making the step                 :      0.000 s (21.422 %)
Converting the step to Cartesian:      0.000 s ( 3.223 %)
Storing new data                :      0.000 s ( 1.137 %)
Checking convergence            :      0.000 s ( 1.137 %)
Final printing                  :      0.000 s (10.521 %)
Total time                      :      0.001 s

Time for energy+gradient        :      0.018 s
Time for complete geometry iter :      0.019 s

         *************************************************************
         *                GEOMETRY OPTIMIZATION CYCLE   4            *
         *************************************************************
---------------------------------
CARTESIAN COORDINATES (ANGSTROEM)
---------------------------------
  N     2.653395    0.345314    0.050985
  C     1.455567    0.357694   -0.813399
  C     0.306646   -0.263766   -0.011799
  O     0.534136   -0.699133    1.115346
  N    -0.852863   -0.363180   -0.649864
  C    -2.061400   -0.732390    0.041510
  C    -2.452382    0.307101    1.135511
  O    -3.469549    0.026288    1.804201
  O    -1.875307    1.400487    1.101439
  H     2.944878    1.292926    0.305742
  H     2.362910   -0.159837    0.915112
  H     3.439976   -0.139881   -0.387751
  H     1.608200   -0.213141   -1.727291
  H     1.175580    1.371696   -1.093568
  H    -0.908875   -0.062758   -1.609187
  H    -1.971310   -1.723349    0.491085
  H    -2.889601   -0.744071   -0.668073

----------------------------
CARTESIAN COORDINATES (A.U.)
----------------------------
  NO LB    ZA    FRAG    MASS        X           Y           Z
   0 N   7.0000    0    14.007    5.014190    0.652549    0.096349
   1 C   6.0000    0    12.011    2.750623    0.675944   -1.537102
   2 C   6.0000    0    12.011    0.579476   -0.498446   -0.022297
   3 O   8.0000    0    15.999    1.009370   -1.321171    2.107699
   4 N   7.0000    0    14.007   -1.611678   -0.686310   -1.228065
   5 C   6.0000    0    12.011   -3.895482   -1.384017    0.078442
   6 C   6.0000    0    12.011   -4.634330    0.580337    2.145804
   7 O   8.0000    0    15.999   -6.556498    0.049678    3.409446
   8 O   8.0000    0    15.999   -3.543817    2.646537    2.081417
   9 H   1.0000    0     1.008    5.565012    2.443276    0.577768
  10 H   1.0000    0     1.008    4.465254   -0.302049    1.729312
  11 H   1.0000    0     1.008    6.500613   -0.264336   -0.732742
  12 H   1.0000    0     1.008    3.039058   -0.402777   -3.264106
  13 H   1.0000    0     1.008    2.221524    2.592129   -2.066544
  14 H   1.0000    0     1.008   -1.717525   -0.118596   -3.040923
  15 H   1.0000    0     1.008   -3.725235   -3.256658    0.928017
  16 H   1.0000    0     1.008   -5.460554   -1.406090   -1.262475

      -----------------------------------------------------------      
     |                   =====================                   |     
     |                           x T B                           |     
     |                   =====================                   |     
     |                         S. Grimme                         |     
     |          Mulliken Center for Theoretical Chemistry        |     
     |                    University of Bonn                     |     
      -----------------------------------------------------------      

   * xtb version 6.7.1 (edcfbbe) compiled by 'albert@albert-system' on 2024-07-22

   xtb is free software: you can redistribute it and/or modify it under
   the terms of the GNU Lesser General Public License as published by
   the Free Software Foundation, either version 3 of the License, or
   (at your option) any later version.
   
   xtb is distributed in the hope that it will be useful,
   but WITHOUT ANY WARRANTY; without even the implied warranty of
   MERCHANTABILITY or FITNESS FOR A PARTICULAR PURPOSE.  See the
   GNU Lesser General Public License for more details.
   
   Cite this work as:
   * C. Bannwarth, E. Caldeweyher, S. Ehlert, A. Hansen, P. Pracht,
     J. Seibert, S. Spicher, S. Grimme, WIREs Comput. Mol. Sci., 2020, 11,
     e01493. DOI: 10.1002/wcms.1493
   
   for GFN2-xTB:
   * C. Bannwarth, S. Ehlert and S. Grimme., J. Chem. Theory Comput., 2019,
     15, 1652-1671. DOI: 10.1021/acs.jctc.8b01176
   for GFN1-xTB:
   * S. Grimme, C. Bannwarth, P. Shushkov, J. Chem. Theory Comput., 2017,
     13, 1989-2009. DOI: 10.1021/acs.jctc.7b00118
   for GFN0-xTB:
   * P. Pracht, E. Caldeweyher, S. Ehlert, S. Grimme, ChemRxiv, 2019, preprint.
     DOI: 10.26434/chemrxiv.8326202.v1
   for GFN-FF:
   * S. Spicher and S. Grimme, Angew. Chem. Int. Ed., 2020, 59, 15665-15673.
     DOI: 10.1002/anie.202004239
   
   for ALPB and GBSA implicit solvation:
   * S. Ehlert, M. Stahn, S. Spicher, S. Grimme, J. Chem. Theory Comput.,
     2021, 17, 4250-4261. DOI: 10.1021/acs.jctc.1c00471
   
   for ddCOSMO and CPCM-X implicit solvation:
   * M. Stahn, S. Ehlert, S. Grimme, J. Phys. Chem. A,
     2023, XX, XXXX-XXXX. DOI: 10.1021/acs.jpca.3c04382
   
   for DFT-D4:
   * E. Caldeweyher, C. Bannwarth and S. Grimme, J. Chem. Phys., 2017,
     147, 034112. DOI: 10.1063/1.4993215
   * E. Caldeweyher, S. Ehlert, A. Hansen, H. Neugebauer, S. Spicher,
     C. Bannwarth and S. Grimme, J. Chem. Phys., 2019, 150, 154122.
     DOI: 10.1063/1.5090222
   * E. Caldeweyher, J.-M. Mewes, S. Ehlert and S. Grimme, Phys. Chem. Chem. Phys.
     2020, 22, 8499-8512. DOI: 10.1039/D0CP00502A
   
   for sTDA-xTB:
   * S. Grimme and C. Bannwarth, J. Chem. Phys., 2016, 145, 054103.
     DOI: 10.1063/1.4959605
   
   in the mass-spec context:
   * V. Asgeirsson, C. Bauer and S. Grimme, Chem. Sci., 2017, 8, 4879.
     DOI: 10.1039/c7sc00601b
   * J. Koopman and S. Grimme, ACS Omega 2019, 4, 12, 15120-15133.
     DOI: 10.1021/acsomega.9b02011
   
   for metadynamics refer to:
   * S. Grimme, J. Chem. Theory Comput., 2019, 155, 2847-2862
     DOI: 10.1021/acs.jctc.9b00143
   
   for SPH calculations refer to:
   * S. Spicher and S. Grimme, J. Chem. Theory Comput., 2021, 17, 1701-1714
     DOI: 10.1021/acs.jctc.0c01306
   
   for ONIOM refer to:
   * C. Plett, A. Katbashev, S. Ehlert, S. Grimme, M. Bursch,
     Phys. Chem. Chem. Phys., 2023, 25, 17860-17868. DOI: 10.1039/D3CP02178E
   
   for DIPRO refer to:
   * J. Kohn, N. Gildemeister, S. Grimme, D. Fazzi, A. Hansen,
     J. Chem. Phys., 2023, just accepted.
   
   for PTB refer to:
   * S. Grimme, M. Mueller, A. Hansen, J. Chem. Phys., 2023, 158, 124111.
     DOI: 10.1063/5.0137838
   
   with help from (in alphabetical order)
   P. Atkinson, C. Bannwarth, F. Bohle, G. Brandenburg, E. Caldeweyher
   M. Checinski, S. Dohm, S. Ehlert, S. Ehrlich, I. Gerasimov, C. Hölzer
   A. Katbashev, J. Kohn, J. Koopman, C. Lavigne, S. Lehtola, F. März, M. Müller,
   F. Musil, H. Neugebauer, J. Pisarek, C. Plett, P. Pracht, F. Pultar,
   J. Seibert, P. Shushkov, S. Spicher, M. Stahn, M. Steiner, T. Strunk,
   J. Stückrath, T. Rose, and J. Unsleber
   
 * started run on 2026/04/11 at 16:57:59.143     
   ID    Z sym.   atoms
    1    7 N      1, 5
    2    6 C      2, 3, 6, 7
    3    8 O      4, 8, 9
    4    1 H      10-17

           -------------------------------------------------
          |                Calculation Setup                |
           -------------------------------------------------

          program call               : /home/analima/Programs/orca-6.1.0-f.0_linux_x86-64/bin/otool_xtb geo_opt_XTB.xyz --grad -c 0 -u 0 -P 1 --namespace geo_opt --input geo_opt_XTB.input.tmp --alpb WATER --acc 0.200000
          calculation namespace      : geo_opt
          coordinate file            : geo_opt_XTB.xyz
          omp threads                :                     1


           -------------------------------------------------
          |                 G F N 2 - x T B                 |
           -------------------------------------------------

        Reference                      10.1021/acs.jctc.8b01176
      * Hamiltonian:
        H0-scaling (s, p, d)           1.850000    2.230000    2.230000
        zeta-weighting                 0.500000
      * Dispersion:
        s8                             2.700000
        a1                             0.520000
        a2                             5.000000
        s9                             5.000000
      * Repulsion:
        kExp                           1.500000    1.000000
        rExp                           1.000000
      * Coulomb:
        alpha                          2.000000
        third order                    shell-resolved
        anisotropic                    true
        a3                             3.000000
        a5                             4.000000
        cn-shift                       1.200000
        cn-exp                         4.000000
        max-rad                        5.000000

      * Solvation model:               ALPB
        Solvent                        WATER
        Parameter file                 internal GFN2-xTB/ALPB
        Dielectric constant                8.0200E+01
        Reference state                gsolv [1 M gas/solution]
        Free energy shift                  1.0808E-03 Eh       6.7819E-01 kcal/mol
        Temperature                        2.9815E+02 K
        Density                            1.0000E+00 kg/L
        Solvent mass                       1.8000E+01 g/mol
        Interaction kernel             P16
        Born radius scaling (c1)           1.4744E+00
        Born radii integrator          GBOBC
        Born offset                        0.0000E+00 a0       0.0000E+00 AA
        H-bond correction              true
        Ion screening                  false
        Surface tension                    1.0000E-05 Eh       1.5569E+01 dyn/cm
        Grid points                               230 per atom
q/qsh data taken from xtbrestart
CAMM data taken from xtbrestart

          ...................................................
          :                      SETUP                      :
          :.................................................:
          :  # basis functions                  44          :
          :  # atomic orbitals                  44          :
          :  # shells                           26          :
          :  # electrons                        52          :
          :  max. iterations                   250          :
          :  Hamiltonian                  GFN2-xTB          :
          :  restarted?                       true          :
          :  GBSA solvation                   true          :
          :  PC potential                    false          :
          :  electronic temp.          300.0000000     K    :
          :  accuracy                    0.2000000          :
          :  -> integral cutoff          0.3198970E+02      :
          :  -> integral neglect         0.2000000E-08      :
          :  -> SCF convergence          0.2000000E-06 Eh   :
          :  -> wf. convergence          0.2000000E-04 e    :
          :  Broyden damping             0.4000000          :
          :  net charge                          0          :
          :  unpaired electrons                  0          :
          ...................................................

 iter      E             dE          RMSdq      gap      omega  full diag
   1    -31.0044318 -0.310044E+02  0.519E-01    3.83       0.0  T
   2    -31.0046032 -0.171356E-03  0.308E-01    3.86       1.0  T
   3    -31.0045944  0.877895E-05  0.645E-02    3.85       1.0  T
   4    -31.0046174 -0.230095E-04  0.130E-02    3.86       1.9  T
   5    -31.0046184 -0.100837E-05  0.600E-03    3.86       4.0  T
   6    -31.0046185 -0.180504E-07  0.108E-03    3.86      22.4  T
   7    -31.0046185 -0.393782E-08  0.436E-04    3.86      55.6  T
   8    -31.0046185 -0.272614E-09  0.186E-04    3.86     130.5  T
   9    -31.0046185 -0.711609E-10  0.421E-05    3.86     575.6  T

   *** convergence criteria satisfied after 9 iterations ***

         #    Occupation            Energy/Eh            Energy/eV
      -------------------------------------------------------------
         1        2.0000           -0.7233238             -19.6826
       ...           ...                  ...                  ...
        20        2.0000           -0.4826987             -13.1349
        21        2.0000           -0.4678789             -12.7316
        22        2.0000           -0.4279386             -11.6448
        23        2.0000           -0.4208662             -11.4524
        24        2.0000           -0.4001040             -10.8874
        25        2.0000           -0.3841526             -10.4533
        26        2.0000           -0.3626654              -9.8686 (HOMO)
        27                         -0.2209257              -6.0117 (LUMO)
        28                         -0.1741887              -4.7399
        29                         -0.0516905              -1.4066
        30                          0.0072924               0.1984
        31                          0.0496869               1.3520
       ...                                ...                  ...
        44                          0.6422257              17.4759
      -------------------------------------------------------------
                  HL-Gap            0.1417397 Eh            3.8569 eV
             Fermi-level           -0.2917955 Eh           -7.9402 eV

 SCC (total)                   0 d,  0 h,  0 min,  0.007 sec
 SCC setup                      ...        0 min,  0.000 sec (  3.561%)
 Dispersion                     ...        0 min,  0.000 sec (  0.564%)
 classical contributions        ...        0 min,  0.000 sec (  0.147%)
 integral evaluation            ...        0 min,  0.001 sec (  9.019%)
 iterations                     ...        0 min,  0.004 sec ( 57.146%)
 molecular gradient             ...        0 min,  0.002 sec ( 28.929%)
 printout                       ...        0 min,  0.000 sec (  0.538%)

         :::::::::::::::::::::::::::::::::::::::::::::::::::::
         ::                     SUMMARY                     ::
         :::::::::::::::::::::::::::::::::::::::::::::::::::::
         :: total energy             -30.708342277857 Eh    ::
         :: total w/o Gsasa/hb       -30.697270116280 Eh    ::
         :: gradient norm              0.033203785417 Eh/a0 ::
         :: HOMO-LUMO gap              3.856933028621 eV    ::
         ::.................................................::
         :: SCC energy               -31.004602033172 Eh    ::
         :: -> isotropic ES            0.293505619594 Eh    ::
         :: -> anisotropic ES         -0.018217185294 Eh    ::
         :: -> anisotropic XC          0.006020744722 Eh    ::
         :: -> dispersion             -0.011094945789 Eh    ::
         :: -> Gsolv                  -0.136174065165 Eh    ::
         ::    -> Gelec               -0.125101903587 Eh    ::
         ::    -> Gsasa                0.004789039276 Eh    ::
         ::    -> Ghb                 -0.016941960552 Eh    ::
         ::    -> Gshift               0.001080759698 Eh    ::
         :: repulsion energy           0.296259755314 Eh    ::
         :: add. restraining           0.000000000000 Eh    ::
         :: total charge              -0.000000000000 e     ::
         :::::::::::::::::::::::::::::::::::::::::::::::::::::


Property printout bound to 'properties.out'

           -------------------------------------------------
          | TOTAL ENERGY              -30.708342277857 Eh   |
          | GRADIENT NORM               0.033203785417 Eh/α |
          | HOMO-LUMO GAP               3.856933028621 eV   |
           -------------------------------------------------

------------------------------------------------------------------------
 * finished run on 2026/04/11 at 16:57:59.157     
------------------------------------------------------------------------
 total:
 * wall-time:     0 d,  0 h,  0 min,  0.013 sec
 *  cpu-time:     0 d,  0 h,  0 min,  0.011 sec
 * ratio c/w:     0.798 speedup
 SCF:
 * wall-time:     0 d,  0 h,  0 min,  0.008 sec
 *  cpu-time:     0 d,  0 h,  0 min,  0.006 sec
 * ratio c/w:     0.802 speedup


-------------------------   --------------------
FINAL SINGLE POINT ENERGY       -30.708342277860
-------------------------   --------------------


-------------
DIPOLE MOMENT
-------------
                                X             Y             Z
Total Dipole Moment    :      8.93900      -0.38700      -4.76500
                        -----------------------------------------
Magnitude (a.u.)       :     10.13710
Magnitude (Debye)      :     25.76645


------------------
CARTESIAN GRADIENT
------------------

   1   N   :   -0.001079616   -0.001991080    0.005275513
   2   C   :   -0.001385764   -0.002545937    0.000598208
   3   C   :    0.001926535    0.004187552   -0.001003844
   4   O   :   -0.002218866   -0.002455324   -0.001839900
   5   N   :   -0.003553940    0.003691849    0.000171348
   6   C   :   -0.001453460    0.005406257    0.005461228
   7   C   :    0.022567430   -0.006214148    0.007459758
   8   O   :   -0.007013155    0.004994941   -0.003501744
   9   O   :   -0.012209730   -0.004588285   -0.003929441
  10   H   :    0.000077916   -0.000242036   -0.001544869
  11   H   :    0.003295018    0.001208863   -0.001493473
  12   H   :   -0.001054409    0.001269963   -0.000538330
  13   H   :   -0.000972406    0.001943092   -0.000366464
  14   H   :    0.000660581   -0.001023770   -0.001031961
  15   H   :    0.003000243   -0.004060567   -0.000293589
  16   H   :   -0.000621900   -0.000412739   -0.002453934
  17   H   :    0.000035522    0.000831367   -0.000968505

Difference to translation invariance:
           :   -0.0000000000    0.0000000000    0.0000000000

Difference to rotation invariance:
           :    0.0003401745    0.0000519698   -0.0002428572

Norm of the Cartesian gradient     ...    0.0332037854
RMS gradient                       ...    0.0046494599
MAX gradient                       ...    0.0225674299
------------------------------------------------------------------------------
                         ORCA GEOMETRY RELAXATION STEP
------------------------------------------------------------------------------

Reading the OPT-File                    .... done
Getting information on internals        .... done
Copying old internal coords+grads       .... done
Making the new internal coordinates     .... (2022 redundants) done
Validating the new internal coordinates .... (2022 redundants) done
Calculating the B-matrix                .... done
Calculating the G,G- and P matrices     .... done
Transforming gradient to internals      .... done
Projecting the internal gradient        .... done
Number of atoms                         ....  17
Number of internal coordinates          ....  69
Current Energy                          ....   -30.708342278 Eh
Current gradient norm                   ....     0.033203785 Eh/bohr
Maximum allowed component of the step   ....  0.300
Current trust radius                    ....  0.450
Updating the Hessian (BFGS)             .... done
Forming the augmented Hessian           .... done
Diagonalizing the augmented Hessian     .... done
Last element of RFO vector              ....  0.904721670
Lowest eigenvalues of augmented Hessian:
 -0.008018377  0.013721897  0.014011709  0.016461863  0.018144795
Length of the computed step             ....  0.470866548
Warning: the length of the step is outside the trust region - taking restricted step instead
The input lambda is                     ....     0.011080
   iter:   5  x=    0.004338  g=  808.418697 f(x)=     2.072499
   iter:  10  x=   -0.009221  g=   15.187379 f(x)=     0.003688
The output lambda is                    ....    -0.009225 (13 iterations)
The final length of the internal step   ....  0.450000000
Converting the step to Cartesian space:
 Initial RMS(Int)=    0.0541736339
Transforming coordinates:
 Iter   0:  RMS(Cart)=    0.0763557607 RMS(Int)=    0.7517707196
 Iter   5:  RMS(Cart)=    0.0000014000 RMS(Int)=    0.0000010496
done
Storing new coordinates                 .... done
The predicted energy change is          ....    -0.004815406
Previously predicted energy change      ....    -0.004991648
Actually observed energy change         ....    -0.002723751
Ratio of predicted to observed change   ....     0.545661655
New trust radius                        ....     0.450000000

                                .--------------------.
          ----------------------|Geometry convergence|-------------------------
          Item                value                   Tolerance       Converged
          ---------------------------------------------------------------------
          Energy change      -0.0027237509            0.0000050000      NO
          RMS gradient        0.0028356453            0.0001000000      NO
          MAX gradient        0.0100071067            0.0003000000      NO
          RMS step            0.0541736339            0.0020000000      NO
          MAX step            0.1696688041            0.0040000000      NO
          -------------------------------------------------------------------------
          ........................................................
          Max(Bonds)      0.0557      Max(Angles)    1.22
          Max(Dihed)        9.72      Max(Improp)    0.00
          ---------------------------------------------------------------------

The optimization has not yet converged - more geometry cycles are needed


    ---------------------------------------------------------------------------
                         Redundant Internal Coordinates
                            (Angstroem and degrees)

        Definition                    Value    dE/dq     Step     New-Value
    ----------------------------------------------------------------------------
     1. B(C   1,N   0)                1.4772  0.000599 -0.0005    1.4767   
     2. B(C   2,C   1)                1.5326 -0.003104  0.0073    1.5399   
     3. B(O   3,C   2)                1.2295 -0.001263  0.0017    1.2312   
     4. B(N   4,C   2)                1.3272 -0.001564  0.0070    1.3342   
     5. B(C   5,N   4)                1.4404 -0.000107  0.0015    1.4420   
     6. B(C   6,C   5)                1.5589 -0.004696  0.0175    1.5764   
     7. B(O   7,C   6)                1.2493  0.002711  0.0018    1.2510   
     8. B(O   8,C   6)                1.2368 -0.009643  0.0332    1.2700   
     9. B(H   9,N   0)                1.0236 -0.000580  0.0011    1.0248   
    10. B(H  10,N   0)                1.0422 -0.001785  0.0036    1.0458   
    11. B(H  10,O   3)                1.9171  0.001965 -0.0557    1.8614   
    12. B(H  11,N   0)                1.0230 -0.001186  0.0028    1.0258   
    13. B(H  12,C   1)                1.0883 -0.000845  0.0009    1.0892   
    14. B(H  13,C   1)                1.0886 -0.000860  0.0008    1.0894   
    15. B(H  14,N   4)                1.0068 -0.001103  0.0050    1.0118   
    16. B(H  15,C   5)                1.0919 -0.000681  0.0014    1.0933   
    17. B(H  16,C   5)                1.0907  0.000591 -0.0008    1.0898   
    18. A(H  10,N   0,H  11)          109.88  0.000131   -0.03    109.84   
    19. A(H   9,N   0,H  11)          109.08  0.000031    0.46    109.53   
    20. A(C   1,N   0,H  10)          105.26  0.002056   -1.07    104.19   
    21. A(H   9,N   0,H  10)          108.77  0.000451   -0.61    108.15   
    22. A(C   1,N   0,H   9)          111.64 -0.001101    0.45    112.09   
    23. A(C   1,N   0,H  11)          112.12 -0.001449    0.81    112.92   
    24. A(N   0,C   1,H  13)          111.53 -0.000248    0.15    111.68   
    25. A(C   2,C   1,H  12)          109.37  0.000249   -0.07    109.30   
    26. A(H  12,C   1,H  13)          107.97 -0.001440    1.13    109.10   
    27. A(C   2,C   1,H  13)          108.63  0.001140   -0.03    108.60   
    28. A(N   0,C   1,C   2)          107.36 -0.000497   -0.89    106.47   
    29. A(N   0,C   1,H  12)          111.92  0.000853   -0.24    111.68   
    30. A(C   1,C   2,N   4)          115.71  0.000280   -0.58    115.13   
    31. A(C   1,C   2,O   3)          118.97  0.000716   -0.52    118.45   
    32. A(O   3,C   2,N   4)          125.16 -0.001100    1.01    126.16   
    33. A(C   5,N   4,H  14)          119.15  0.001873   -0.84    118.31   
    34. A(C   2,N   4,C   5)          121.43  0.000637    0.06    121.49   
    35. A(C   2,N   4,H  14)          118.97 -0.002214    0.57    119.54   
    36. A(C   6,C   5,H  16)          105.86 -0.000994    0.81    106.67   
    37. A(N   4,C   5,H  16)          109.12 -0.004285    1.10    110.22   
    38. A(C   6,C   5,H  15)          109.69  0.001419   -0.81    108.88   
    39. A(N   4,C   5,C   6)          112.11  0.002896   -0.29    111.82   
    40. A(N   4,C   5,H  15)          111.16 -0.001547   -0.39    110.77   
    41. A(H  15,C   5,H  16)          108.71  0.002521   -0.25    108.46   
    42. A(C   5,C   6,O   7)          115.46  0.000067   -1.22    114.24   
    43. A(O   7,C   6,O   8)          126.40 -0.003870    0.92    127.32   
    44. A(C   5,C   6,O   8)          116.94  0.000450   -0.52    116.42   
    45. D(H  12,C   1,N   0,H   9)    126.83 -0.001231    0.94    127.77   
    46. D(H  12,C   1,N   0,H  11)      4.10  0.000603   -0.41      3.69   
    47. D(C   2,C   1,N   0,H  10)      4.70  0.000448   -1.03      3.67   
    48. D(H  12,C   1,N   0,H  10)   -115.33 -0.000044   -0.19   -115.51   
    49. D(C   2,C   1,N   0,H  11)    124.12  0.001096   -1.25    122.87   
    50. D(C   2,C   1,N   0,H   9)   -113.14 -0.000738    0.09   -113.05   
    51. D(O   3,C   2,C   1,N   0)     -2.84 -0.000844   -0.72     -3.57   
    52. D(N   4,C   2,C   1,N   0)   -178.52  0.000630   -0.38   -178.90   
    53. D(O   3,C   2,C   1,H  13)   -123.58 -0.000903   -0.34   -123.92   
    54. D(N   4,C   2,C   1,H  12)    -56.88  0.001507   -1.29    -58.18   
    55. D(O   3,C   2,C   1,H  12)    118.79  0.000033   -1.64    117.15   
    56. D(H  14,N   4,C   2,C   1)      1.97  0.001320   -0.31      1.66   
    57. D(C   5,N   4,C   2,O   3)     14.37  0.000120    5.55     19.91   
    58. D(H  14,N   4,C   2,O   3)   -173.40  0.002803    0.17   -173.23   
    59. D(C   5,N   4,C   2,C   1)   -170.26 -0.001363    5.07   -165.19   
    60. D(H  16,C   5,N   4,C   2)    179.48 -0.000078    2.99    182.47   
    61. D(H  15,C   5,N   4,H  14)    127.15 -0.003060    8.70    135.85   
    62. D(H  15,C   5,N   4,C   2)    -60.63 -0.000683    3.20    -57.43   
    63. D(C   6,C   5,N   4,H  14)   -109.67 -0.000246    7.14   -102.54   
    64. D(C   6,C   5,N   4,C   2)     62.55  0.002131    1.63     64.18   
    65. D(O   8,C   6,C   5,H  15)    137.87  0.010007   -9.32    128.56   
    66. D(O   8,C   6,C   5,N   4)     13.87  0.008921   -8.01      5.86   
    67. D(O   7,C   6,C   5,H  16)     63.32 -0.003504    8.17     71.49   
    68. D(O   7,C   6,C   5,H  15)    -53.80 -0.006635    8.42    -45.38   
    69. D(O   7,C   6,C   5,N   4)   -177.80 -0.007721    9.72   -168.08   
    ----------------------------------------------------------------------------

Geometry step timings:
Preparation and reading OPT file:      0.000 s ( 0.951 %)
Internal coordinates            :      0.000 s ( 1.030 %)
B/P matrices and projection     :      0.000 s (34.073 %)
Hessian update/contruction      :      0.000 s ( 7.211 %)
Making the step                 :      0.000 s (39.461 %)
Converting the step to Cartesian:      0.000 s ( 3.645 %)
Storing new data                :      0.000 s ( 1.189 %)
Checking convergence            :      0.000 s ( 1.664 %)
Final printing                  :      0.000 s (10.539 %)
Total time                      :      0.001 s

Time for energy+gradient        :      0.018 s
Time for complete geometry iter :      0.019 s

         *************************************************************
         *                GEOMETRY OPTIMIZATION CYCLE   5            *
         *************************************************************
---------------------------------
CARTESIAN COORDINATES (ANGSTROEM)
---------------------------------
  N     2.628240    0.356642    0.063624
  C     1.439069    0.375018   -0.811669
  C     0.309101   -0.315783   -0.026053
  O     0.569888   -0.795430    1.077474
  N    -0.853182   -0.415332   -0.673611
  C    -2.073109   -0.739661    0.023468
  C    -2.470000    0.380450    1.059322
  O    -3.378998    0.059617    1.856712
  O    -1.764489    1.436477    1.064696
  H     2.897453    1.297789    0.366814
  H     2.318576   -0.180856    0.905627
  H     3.434801   -0.106970   -0.368663
  H     1.614840   -0.166654   -1.740143
  H     1.127691    1.392330   -1.045962
  H    -0.923615   -0.067780   -1.621243
  H    -1.976413   -1.691826    0.551916
  H    -2.899855   -0.818030   -0.682309

----------------------------
CARTESIAN COORDINATES (A.U.)
----------------------------
  NO LB    ZA    FRAG    MASS        X           Y           Z
   0 N   7.0000    0    14.007    4.966654    0.673956    0.120232
   1 C   6.0000    0    12.011    2.719447    0.708681   -1.533832
   2 C   6.0000    0    12.011    0.584117   -0.596744   -0.049233
   3 O   8.0000    0    15.999    1.076933   -1.503146    2.036131
   4 N   7.0000    0    14.007   -1.612280   -0.784864   -1.272940
   5 C   6.0000    0    12.011   -3.917607   -1.397757    0.044347
   6 C   6.0000    0    12.011   -4.667624    0.718947    2.001829
   7 O   8.0000    0    15.999   -6.385381    0.112660    3.508677
   8 O   8.0000    0    15.999   -3.334400    2.714549    2.011983
   9 H   1.0000    0     1.008    5.475393    2.452465    0.693178
  10 H   1.0000    0     1.008    4.381474   -0.341768    1.711388
  11 H   1.0000    0     1.008    6.490833   -0.202144   -0.696672
  12 H   1.0000    0     1.008    3.051605   -0.314930   -3.288393
  13 H   1.0000    0     1.008    2.131028    2.631122   -1.976582
  14 H   1.0000    0     1.008   -1.745379   -0.128086   -3.063705
  15 H   1.0000    0     1.008   -3.734879   -3.197089    1.042969
  16 H   1.0000    0     1.008   -5.479931   -1.545853   -1.289377

      -----------------------------------------------------------      
     |                   =====================                   |     
     |                           x T B                           |     
     |                   =====================                   |     
     |                         S. Grimme                         |     
     |          Mulliken Center for Theoretical Chemistry        |     
     |                    University of Bonn                     |     
      -----------------------------------------------------------      

   * xtb version 6.7.1 (edcfbbe) compiled by 'albert@albert-system' on 2024-07-22

   xtb is free software: you can redistribute it and/or modify it under
   the terms of the GNU Lesser General Public License as published by
   the Free Software Foundation, either version 3 of the License, or
   (at your option) any later version.
   
   xtb is distributed in the hope that it will be useful,
   but WITHOUT ANY WARRANTY; without even the implied warranty of
   MERCHANTABILITY or FITNESS FOR A PARTICULAR PURPOSE.  See the
   GNU Lesser General Public License for more details.
   
   Cite this work as:
   * C. Bannwarth, E. Caldeweyher, S. Ehlert, A. Hansen, P. Pracht,
     J. Seibert, S. Spicher, S. Grimme, WIREs Comput. Mol. Sci., 2020, 11,
     e01493. DOI: 10.1002/wcms.1493
   
   for GFN2-xTB:
   * C. Bannwarth, S. Ehlert and S. Grimme., J. Chem. Theory Comput., 2019,
     15, 1652-1671. DOI: 10.1021/acs.jctc.8b01176
   for GFN1-xTB:
   * S. Grimme, C. Bannwarth, P. Shushkov, J. Chem. Theory Comput., 2017,
     13, 1989-2009. DOI: 10.1021/acs.jctc.7b00118
   for GFN0-xTB:
   * P. Pracht, E. Caldeweyher, S. Ehlert, S. Grimme, ChemRxiv, 2019, preprint.
     DOI: 10.26434/chemrxiv.8326202.v1
   for GFN-FF:
   * S. Spicher and S. Grimme, Angew. Chem. Int. Ed., 2020, 59, 15665-15673.
     DOI: 10.1002/anie.202004239
   
   for ALPB and GBSA implicit solvation:
   * S. Ehlert, M. Stahn, S. Spicher, S. Grimme, J. Chem. Theory Comput.,
     2021, 17, 4250-4261. DOI: 10.1021/acs.jctc.1c00471
   
   for ddCOSMO and CPCM-X implicit solvation:
   * M. Stahn, S. Ehlert, S. Grimme, J. Phys. Chem. A,
     2023, XX, XXXX-XXXX. DOI: 10.1021/acs.jpca.3c04382
   
   for DFT-D4:
   * E. Caldeweyher, C. Bannwarth and S. Grimme, J. Chem. Phys., 2017,
     147, 034112. DOI: 10.1063/1.4993215
   * E. Caldeweyher, S. Ehlert, A. Hansen, H. Neugebauer, S. Spicher,
     C. Bannwarth and S. Grimme, J. Chem. Phys., 2019, 150, 154122.
     DOI: 10.1063/1.5090222
   * E. Caldeweyher, J.-M. Mewes, S. Ehlert and S. Grimme, Phys. Chem. Chem. Phys.
     2020, 22, 8499-8512. DOI: 10.1039/D0CP00502A
   
   for sTDA-xTB:
   * S. Grimme and C. Bannwarth, J. Chem. Phys., 2016, 145, 054103.
     DOI: 10.1063/1.4959605
   
   in the mass-spec context:
   * V. Asgeirsson, C. Bauer and S. Grimme, Chem. Sci., 2017, 8, 4879.
     DOI: 10.1039/c7sc00601b
   * J. Koopman and S. Grimme, ACS Omega 2019, 4, 12, 15120-15133.
     DOI: 10.1021/acsomega.9b02011
   
   for metadynamics refer to:
   * S. Grimme, J. Chem. Theory Comput., 2019, 155, 2847-2862
     DOI: 10.1021/acs.jctc.9b00143
   
   for SPH calculations refer to:
   * S. Spicher and S. Grimme, J. Chem. Theory Comput., 2021, 17, 1701-1714
     DOI: 10.1021/acs.jctc.0c01306
   
   for ONIOM refer to:
   * C. Plett, A. Katbashev, S. Ehlert, S. Grimme, M. Bursch,
     Phys. Chem. Chem. Phys., 2023, 25, 17860-17868. DOI: 10.1039/D3CP02178E
   
   for DIPRO refer to:
   * J. Kohn, N. Gildemeister, S. Grimme, D. Fazzi, A. Hansen,
     J. Chem. Phys., 2023, just accepted.
   
   for PTB refer to:
   * S. Grimme, M. Mueller, A. Hansen, J. Chem. Phys., 2023, 158, 124111.
     DOI: 10.1063/5.0137838
   
   with help from (in alphabetical order)
   P. Atkinson, C. Bannwarth, F. Bohle, G. Brandenburg, E. Caldeweyher
   M. Checinski, S. Dohm, S. Ehlert, S. Ehrlich, I. Gerasimov, C. Hölzer
   A. Katbashev, J. Kohn, J. Koopman, C. Lavigne, S. Lehtola, F. März, M. Müller,
   F. Musil, H. Neugebauer, J. Pisarek, C. Plett, P. Pracht, F. Pultar,
   J. Seibert, P. Shushkov, S. Spicher, M. Stahn, M. Steiner, T. Strunk,
   J. Stückrath, T. Rose, and J. Unsleber
   
 * started run on 2026/04/11 at 16:57:59.162     
   ID    Z sym.   atoms
    1    7 N      1, 5
    2    6 C      2, 3, 6, 7
    3    8 O      4, 8, 9
    4    1 H      10-17

           -------------------------------------------------
          |                Calculation Setup                |
           -------------------------------------------------

          program call               : /home/analima/Programs/orca-6.1.0-f.0_linux_x86-64/bin/otool_xtb geo_opt_XTB.xyz --grad -c 0 -u 0 -P 1 --namespace geo_opt --input geo_opt_XTB.input.tmp --alpb WATER --acc 0.200000
          calculation namespace      : geo_opt
          coordinate file            : geo_opt_XTB.xyz
          omp threads                :                     1


           -------------------------------------------------
          |                 G F N 2 - x T B                 |
           -------------------------------------------------

        Reference                      10.1021/acs.jctc.8b01176
      * Hamiltonian:
        H0-scaling (s, p, d)           1.850000    2.230000    2.230000
        zeta-weighting                 0.500000
      * Dispersion:
        s8                             2.700000
        a1                             0.520000
        a2                             5.000000
        s9                             5.000000
      * Repulsion:
        kExp                           1.500000    1.000000
        rExp                           1.000000
      * Coulomb:
        alpha                          2.000000
        third order                    shell-resolved
        anisotropic                    true
        a3                             3.000000
        a5                             4.000000
        cn-shift                       1.200000
        cn-exp                         4.000000
        max-rad                        5.000000

      * Solvation model:               ALPB
        Solvent                        WATER
        Parameter file                 internal GFN2-xTB/ALPB
        Dielectric constant                8.0200E+01
        Reference state                gsolv [1 M gas/solution]
        Free energy shift                  1.0808E-03 Eh       6.7819E-01 kcal/mol
        Temperature                        2.9815E+02 K
        Density                            1.0000E+00 kg/L
        Solvent mass                       1.8000E+01 g/mol
        Interaction kernel             P16
        Born radius scaling (c1)           1.4744E+00
        Born radii integrator          GBOBC
        Born offset                        0.0000E+00 a0       0.0000E+00 AA
        H-bond correction              true
        Ion screening                  false
        Surface tension                    1.0000E-05 Eh       1.5569E+01 dyn/cm
        Grid points                               230 per atom
q/qsh data taken from xtbrestart
CAMM data taken from xtbrestart

          ...................................................
          :                      SETUP                      :
          :.................................................:
          :  # basis functions                  44          :
          :  # atomic orbitals                  44          :
          :  # shells                           26          :
          :  # electrons                        52          :
          :  max. iterations                   250          :
          :  Hamiltonian                  GFN2-xTB          :
          :  restarted?                       true          :
          :  GBSA solvation                   true          :
          :  PC potential                    false          :
          :  electronic temp.          300.0000000     K    :
          :  accuracy                    0.2000000          :
          :  -> integral cutoff          0.3198970E+02      :
          :  -> integral neglect         0.2000000E-08      :
          :  -> SCF convergence          0.2000000E-06 Eh   :
          :  -> wf. convergence          0.2000000E-04 e    :
          :  Broyden damping             0.4000000          :
          :  net charge                          0          :
          :  unpaired electrons                  0          :
          ...................................................

 iter      E             dE          RMSdq      gap      omega  full diag
   1    -30.9921704 -0.309922E+02  0.375E-01    3.80       0.0  T
   2    -30.9925337 -0.363331E-03  0.212E-01    3.81       1.0  T
   3    -30.9925434 -0.967562E-05  0.984E-02    3.81       1.0  T
   4    -30.9925585 -0.151063E-04  0.186E-02    3.81       1.3  T
   5    -30.9925606 -0.208611E-05  0.550E-03    3.81       4.4  T
   6    -30.9925606 -0.208445E-07  0.193E-03    3.81      12.6  T
   7    -30.9925606 -0.358620E-08  0.470E-04    3.81      51.6  T
   8    -30.9925606 -0.310536E-09  0.190E-04    3.81     127.7  T
   9    -30.9925606 -0.436557E-10  0.676E-05    3.81     358.8  T

   *** convergence criteria satisfied after 9 iterations ***

         #    Occupation            Energy/Eh            Energy/eV
      -------------------------------------------------------------
         1        2.0000           -0.7237182             -19.6934
       ...           ...                  ...                  ...
        20        2.0000           -0.4827370             -13.1359
        21        2.0000           -0.4667164             -12.7000
        22        2.0000           -0.4306361             -11.7182
        23        2.0000           -0.4215807             -11.4718
        24        2.0000           -0.4012837             -10.9195
        25        2.0000           -0.3877895             -10.5523
        26        2.0000           -0.3643036              -9.9132 (HOMO)
        27                         -0.2243668              -6.1053 (LUMO)
        28                         -0.1836617              -4.9977
        29                         -0.0512281              -1.3940
        30                          0.0062546               0.1702
        31                          0.0446800               1.2158
       ...                                ...                  ...
        44                          0.6023843              16.3917
      -------------------------------------------------------------
                  HL-Gap            0.1399367 Eh            3.8079 eV
             Fermi-level           -0.2943352 Eh           -8.0093 eV

 SCC (total)                   0 d,  0 h,  0 min,  0.009 sec
 SCC setup                      ...        0 min,  0.000 sec (  2.693%)
 Dispersion                     ...        0 min,  0.000 sec (  0.471%)
 classical contributions        ...        0 min,  0.000 sec (  0.112%)
 integral evaluation            ...        0 min,  0.001 sec (  8.693%)
 iterations                     ...        0 min,  0.005 sec ( 54.457%)
 molecular gradient             ...        0 min,  0.003 sec ( 32.848%)
 printout                       ...        0 min,  0.000 sec (  0.615%)

         :::::::::::::::::::::::::::::::::::::::::::::::::::::
         ::                     SUMMARY                     ::
         :::::::::::::::::::::::::::::::::::::::::::::::::::::
         :: total energy             -30.709382229393 Eh    ::
         :: total w/o Gsasa/hb       -30.698428904102 Eh    ::
         :: gradient norm              0.047803508748 Eh/a0 ::
         :: HOMO-LUMO gap              3.807872370743 eV    ::
         ::.................................................::
         :: SCC energy               -30.992539959771 Eh    ::
         :: -> isotropic ES            0.286575157236 Eh    ::
         :: -> anisotropic ES         -0.018188445616 Eh    ::
         :: -> anisotropic XC          0.007003461031 Eh    ::
         :: -> dispersion             -0.011127163431 Eh    ::
         :: -> Gsolv                  -0.131628769932 Eh    ::
         ::    -> Gelec               -0.120675444641 Eh    ::
         ::    -> Gsasa                0.004716088703 Eh    ::
         ::    -> Ghb                 -0.016750173692 Eh    ::
         ::    -> Gshift               0.001080759698 Eh    ::
         :: repulsion energy           0.283157730378 Eh    ::
         :: add. restraining           0.000000000000 Eh    ::
         :: total charge               0.000000000000 e     ::
         :::::::::::::::::::::::::::::::::::::::::::::::::::::


Property printout bound to 'properties.out'

           -------------------------------------------------
          | TOTAL ENERGY              -30.709382229393 Eh   |
          | GRADIENT NORM               0.047803508748 Eh/α |
          | HOMO-LUMO GAP               3.807872370743 eV   |
           -------------------------------------------------

------------------------------------------------------------------------
 * finished run on 2026/04/11 at 16:57:59.176     
------------------------------------------------------------------------
 total:
 * wall-time:     0 d,  0 h,  0 min,  0.013 sec
 *  cpu-time:     0 d,  0 h,  0 min,  0.012 sec
 * ratio c/w:     0.871 speedup
 SCF:
 * wall-time:     0 d,  0 h,  0 min,  0.009 sec
 *  cpu-time:     0 d,  0 h,  0 min,  0.007 sec
 * ratio c/w:     0.818 speedup


-------------------------   --------------------
FINAL SINGLE POINT ENERGY       -30.709382229390
-------------------------   --------------------


-------------
DIPOLE MOMENT
-------------
                                X             Y             Z
Total Dipole Moment    :      8.45700      -0.35100      -4.72500
                        -----------------------------------------
Magnitude (a.u.)       :      9.69380
Magnitude (Debye)      :     24.63967


------------------
CARTESIAN GRADIENT
------------------

   1   N   :   -0.002714613   -0.002460720    0.004067368
   2   C   :   -0.001043026    0.000189812   -0.001787743
   3   C   :    0.003709558    0.002902577    0.003605857
   4   O   :    0.001784164   -0.004130283    0.001859618
   5   N   :   -0.004239067    0.002942759   -0.001568456
   6   C   :    0.002687300   -0.003596857    0.005460086
   7   C   :   -0.018477342   -0.010774006   -0.016085334
   8   O   :   -0.005797873   -0.008348838    0.010571004
   9   O   :    0.020653816    0.026020720    0.003680894
  10   H   :    0.000104182    0.000575602   -0.000215008
  11   H   :    0.002129011    0.001812275   -0.001168863
  12   H   :    0.001080570   -0.000142150   -0.000975389
  13   H   :   -0.000304483    0.000380097   -0.000370119
  14   H   :    0.000404440    0.000324489   -0.000563666
  15   H   :    0.001014960   -0.003493718   -0.004433039
  16   H   :   -0.000255697   -0.003031608   -0.002804089
  17   H   :   -0.000735898    0.000829849    0.000726881

Difference to translation invariance:
           :    0.0000000000   -0.0000000000   -0.0000000000

Difference to rotation invariance:
           :    0.0002296082    0.0000398020    0.0000888386

Norm of the Cartesian gradient     ...    0.0478035087
RMS gradient                       ...    0.0066938301
MAX gradient                       ...    0.0260207196
------------------------------------------------------------------------------
                         ORCA GEOMETRY RELAXATION STEP
------------------------------------------------------------------------------

Reading the OPT-File                    .... done
Getting information on internals        .... done
Copying old internal coords+grads       .... done
Making the new internal coordinates     .... (2022 redundants) done
Validating the new internal coordinates .... (2022 redundants) done
Calculating the B-matrix                .... done
Calculating the G,G- and P matrices     .... done
Transforming gradient to internals      .... done
Projecting the internal gradient        .... done
Number of atoms                         ....  17
Number of internal coordinates          ....  69
Current Energy                          ....   -30.709382229 Eh
Current gradient norm                   ....     0.047803509 Eh/bohr
Maximum allowed component of the step   ....  0.300
Current trust radius                    ....  0.450
Updating the Hessian (BFGS)             .... done
Forming the augmented Hessian           .... done
Diagonalizing the augmented Hessian     .... done
Last element of RFO vector              ....  0.977415408
Lowest eigenvalues of augmented Hessian:
 -0.003987319  0.013855076  0.014355907  0.015581348  0.018560994
Length of the computed step             ....  0.216210061
The final length of the internal step   ....  0.216210061
Converting the step to Cartesian space:
 Initial RMS(Int)=    0.0260286326
Transforming coordinates:
 Iter   0:  RMS(Cart)=    0.0364280147 RMS(Int)=    0.7535582902
 Iter   5:  RMS(Cart)=    0.0000000280 RMS(Int)=    0.0000000174
done
Storing new coordinates                 .... done
The predicted energy change is          ....    -0.002086857
Previously predicted energy change      ....    -0.004815406
Actually observed energy change         ....    -0.001039952
Ratio of predicted to observed change   ....     0.215963403
New trust radius                        ....     0.300000000

                                .--------------------.
          ----------------------|Geometry convergence|-------------------------
          Item                value                   Tolerance       Converged
          ---------------------------------------------------------------------
          Energy change      -0.0010399515            0.0000050000      NO
          RMS gradient        0.0048408482            0.0001000000      NO
          MAX gradient        0.0331288073            0.0003000000      NO
          RMS step            0.0260286326            0.0020000000      NO
          MAX step            0.1108406868            0.0040000000      NO
          -------------------------------------------------------------------------
          ........................................................
          Max(Bonds)      0.0235      Max(Angles)    0.58
          Max(Dihed)        6.35      Max(Improp)    0.00
          ---------------------------------------------------------------------

The optimization has not yet converged - more geometry cycles are needed


    ---------------------------------------------------------------------------
                         Redundant Internal Coordinates
                            (Angstroem and degrees)

        Definition                    Value    dE/dq     Step     New-Value
    ----------------------------------------------------------------------------
     1. B(C   1,N   0)                1.4767  0.000965  0.0000    1.4767   
     2. B(C   2,C   1)                1.5399 -0.000109  0.0013    1.5412   
     3. B(O   3,C   2)                1.2312  0.003646 -0.0026    1.2286   
     4. B(N   4,C   2)                1.3342  0.006608 -0.0061    1.3282   
     5. B(C   5,N   4)                1.4420  0.002127 -0.0014    1.4406   
     6. B(C   6,C   5)                1.5764  0.004613 -0.0010    1.5754   
     7. B(O   7,C   6)                1.2510  0.013089 -0.0063    1.2447   
     8. B(O   8,C   6)                1.2700  0.033129 -0.0235    1.2466   
     9. B(H   9,N   0)                1.0248  0.000493 -0.0007    1.0240   
    10. B(H  10,N   0)                1.0458 -0.002104  0.0025    1.0483   
    11. B(H  10,O   3)                1.8615  0.000764 -0.0125    1.8490   
    12. B(H  11,N   0)                1.0258  0.001325 -0.0017    1.0241   
    13. B(H  12,C   1)                1.0892  0.000080 -0.0005    1.0887   
    14. B(H  13,C   1)                1.0894  0.000305 -0.0008    1.0886   
    15. B(H  14,N   4)                1.0118  0.002879 -0.0035    1.0083   
    16. B(H  15,C   5)                1.0933  0.001263 -0.0010    1.0922   
    17. B(H  16,C   5)                1.0898  0.000027 -0.0009    1.0890   
    18. A(H  10,N   0,H  11)          109.86 -0.000055   -0.06    109.80   
    19. A(H   9,N   0,H  11)          109.46 -0.000021    0.12    109.59   
    20. A(C   1,N   0,H  10)          104.19  0.001764   -0.44    103.75   
    21. A(H   9,N   0,H  10)          108.16 -0.000430   -0.01    108.15   
    22. A(C   1,N   0,H   9)          112.05 -0.000687    0.21    112.27   
    23. A(C   1,N   0,H  11)          112.89 -0.000498    0.21    113.10   
    24. A(N   0,C   1,H  13)          111.67 -0.000344    0.13    111.80   
    25. A(C   2,C   1,H  12)          109.28  0.000240    0.02    109.30   
    26. A(H  12,C   1,H  13)          109.10 -0.000435    0.21    109.31   
    27. A(C   2,C   1,H  13)          108.60  0.001009   -0.10    108.50   
    28. A(N   0,C   1,C   2)          106.44 -0.001165   -0.13    106.30   
    29. A(N   0,C   1,H  12)          111.66  0.000721   -0.08    111.58   
    30. A(C   1,C   2,N   4)          115.16 -0.002335    0.09    115.24   
    31. A(C   1,C   2,O   3)          118.46  0.000142   -0.08    118.39   
    32. A(O   3,C   2,N   4)          126.19  0.002083    0.02    126.21   
    33. A(C   5,N   4,H  14)          118.11  0.000248   -0.06    118.05   
    34. A(C   2,N   4,C   5)          121.27  0.000497    0.00    121.27   
    35. A(C   2,N   4,H  14)          119.31 -0.000338    0.22    119.54   
    36. A(C   6,C   5,H  16)          106.60 -0.003474    0.55    107.15   
    37. A(N   4,C   5,H  16)          110.17  0.001524    0.15    110.32   
    38. A(C   6,C   5,H  15)          108.87  0.001700   -0.58    108.29   
    39. A(N   4,C   5,C   6)          111.77  0.003930   -0.50    111.27   
    40. A(N   4,C   5,H  15)          110.78 -0.002460    0.13    110.91   
    41. A(H  15,C   5,H  16)          108.51 -0.001371    0.35    108.86   
    42. A(C   5,C   6,O   7)          114.81 -0.006190    0.50    115.30   
    43. A(O   7,C   6,O   8)          127.89  0.001668    0.04    127.93   
    44. A(C   5,C   6,O   8)          116.98  0.003472   -0.50    116.49   
    45. D(H  12,C   1,N   0,H   9)    127.80 -0.000419    0.25    128.05   
    46. D(H  12,C   1,N   0,H  11)      3.65  0.000536   -0.10      3.55   
    47. D(C   2,C   1,N   0,H  10)      3.68 -0.000265   -0.07      3.61   
    48. D(H  12,C   1,N   0,H  10)   -115.51 -0.000238    0.09   -115.42   
    49. D(C   2,C   1,N   0,H  11)    122.84  0.000509   -0.26    122.57   
    50. D(C   2,C   1,N   0,H   9)   -113.02 -0.000446    0.09   -112.93   
    51. D(O   3,C   2,C   1,N   0)     -3.57 -0.000886    1.56     -2.01   
    52. D(N   4,C   2,C   1,N   0)   -178.89  0.000379   -1.61   -180.51   
    53. D(O   3,C   2,C   1,H  13)   -123.93 -0.000367    1.56   -122.38   
    54. D(N   4,C   2,C   1,H  12)    -58.17  0.000694   -1.82    -59.99   
    55. D(O   3,C   2,C   1,H  12)    117.16 -0.000571    1.35    118.51   
    56. D(H  14,N   4,C   2,C   1)      1.59  0.001759   -3.09     -1.50   
    57. D(C   5,N   4,C   2,O   3)     19.98  0.001194   -2.37     17.61   
    58. D(H  14,N   4,C   2,O   3)   -173.31  0.003266   -6.35   -179.66   
    59. D(C   5,N   4,C   2,C   1)   -165.11 -0.000313    0.89   -164.22   
    60. D(H  16,C   5,N   4,C   2)   -177.45  0.001033   -1.43   -178.88   
    61. D(H  15,C   5,N   4,H  14)    135.77 -0.003243    3.48    139.25   
    62. D(H  15,C   5,N   4,C   2)    -57.38 -0.001271   -0.77    -58.15   
    63. D(C   6,C   5,N   4,H  14)   -102.63 -0.000080    2.36   -100.27   
    64. D(C   6,C   5,N   4,C   2)     64.23  0.001892   -1.90     62.33   
    65. D(O   8,C   6,C   5,H  15)    128.61 -0.004448    1.52    130.14   
    66. D(O   8,C   6,C   5,N   4)      5.92 -0.005121    2.21      8.13   
    67. D(O   7,C   6,C   5,H  16)     71.45  0.002631   -3.63     67.83   
    68. D(O   7,C   6,C   5,H  15)    -45.42  0.005231   -4.10    -49.52   
    69. D(O   7,C   6,C   5,N   4)   -168.11  0.004559   -3.41   -171.53   
    ----------------------------------------------------------------------------

Geometry step timings:
Preparation and reading OPT file:      0.000 s ( 0.959 %)
Internal coordinates            :      0.000 s ( 1.027 %)
B/P matrices and projection     :      0.001 s (38.836 %)
Hessian update/contruction      :      0.000 s (11.986 %)
Making the step                 :      0.000 s (27.808 %)
Converting the step to Cartesian:      0.000 s ( 4.110 %)
Storing new data                :      0.000 s ( 1.301 %)
Checking convergence            :      0.000 s ( 1.301 %)
Final printing                  :      0.000 s (12.671 %)
Total time                      :      0.001 s

Time for energy+gradient        :      0.017 s
Time for complete geometry iter :      0.019 s

         *************************************************************
         *                GEOMETRY OPTIMIZATION CYCLE   6            *
         *************************************************************
---------------------------------
CARTESIAN COORDINATES (ANGSTROEM)
---------------------------------
  N     2.611929    0.367446    0.071621
  C     1.435256    0.364526   -0.820660
  C     0.305115   -0.338845   -0.043810
  O     0.552140   -0.781706    1.075297
  N    -0.853093   -0.431582   -0.687199
  C    -2.068680   -0.746317    0.018907
  C    -2.414929    0.364267    1.081296
  O    -3.356598    0.093567    1.848980
  O    -1.715803    1.396068    1.057661
  H     2.864875    1.311801    0.376381
  H     2.289680   -0.171198    0.911190
  H     3.429986   -0.089831   -0.341242
  H     1.632678   -0.181930   -1.741347
  H     1.110346    1.374672   -1.063901
  H    -0.936600   -0.029869   -1.608264
  H    -1.979820   -1.702164    0.539892
  H    -2.906482   -0.798904   -0.674802

----------------------------
CARTESIAN COORDINATES (A.U.)
----------------------------
  NO LB    ZA    FRAG    MASS        X           Y           Z
   0 N   7.0000    0    14.007    4.935831    0.694372    0.135344
   1 C   6.0000    0    12.011    2.712242    0.688855   -1.550823
   2 C   6.0000    0    12.011    0.576584   -0.640325   -0.082790
   3 O   8.0000    0    15.999    1.043394   -1.477211    2.032018
   4 N   7.0000    0    14.007   -1.612113   -0.815572   -1.298617
   5 C   6.0000    0    12.011   -3.909238   -1.410334    0.035729
   6 C   6.0000    0    12.011   -4.563555    0.688365    2.043354
   7 O   8.0000    0    15.999   -6.343051    0.176815    3.494066
   8 O   8.0000    0    15.999   -3.242398    2.638186    1.998689
   9 H   1.0000    0     1.008    5.413828    2.478945    0.711258
  10 H   1.0000    0     1.008    4.326869   -0.323518    1.721900
  11 H   1.0000    0     1.008    6.481734   -0.169756   -0.644854
  12 H   1.0000    0     1.008    3.085315   -0.343799   -3.290669
  13 H   1.0000    0     1.008    2.098250    2.597754   -2.010482
  14 H   1.0000    0     1.008   -1.769918   -0.056444   -3.039178
  15 H   1.0000    0     1.008   -3.741318   -3.216624    1.020248
  16 H   1.0000    0     1.008   -5.492455   -1.509710   -1.275191

      -----------------------------------------------------------      
     |                   =====================                   |     
     |                           x T B                           |     
     |                   =====================                   |     
     |                         S. Grimme                         |     
     |          Mulliken Center for Theoretical Chemistry        |     
     |                    University of Bonn                     |     
      -----------------------------------------------------------      

   * xtb version 6.7.1 (edcfbbe) compiled by 'albert@albert-system' on 2024-07-22

   xtb is free software: you can redistribute it and/or modify it under
   the terms of the GNU Lesser General Public License as published by
   the Free Software Foundation, either version 3 of the License, or
   (at your option) any later version.
   
   xtb is distributed in the hope that it will be useful,
   but WITHOUT ANY WARRANTY; without even the implied warranty of
   MERCHANTABILITY or FITNESS FOR A PARTICULAR PURPOSE.  See the
   GNU Lesser General Public License for more details.
   
   Cite this work as:
   * C. Bannwarth, E. Caldeweyher, S. Ehlert, A. Hansen, P. Pracht,
     J. Seibert, S. Spicher, S. Grimme, WIREs Comput. Mol. Sci., 2020, 11,
     e01493. DOI: 10.1002/wcms.1493
   
   for GFN2-xTB:
   * C. Bannwarth, S. Ehlert and S. Grimme., J. Chem. Theory Comput., 2019,
     15, 1652-1671. DOI: 10.1021/acs.jctc.8b01176
   for GFN1-xTB:
   * S. Grimme, C. Bannwarth, P. Shushkov, J. Chem. Theory Comput., 2017,
     13, 1989-2009. DOI: 10.1021/acs.jctc.7b00118
   for GFN0-xTB:
   * P. Pracht, E. Caldeweyher, S. Ehlert, S. Grimme, ChemRxiv, 2019, preprint.
     DOI: 10.26434/chemrxiv.8326202.v1
   for GFN-FF:
   * S. Spicher and S. Grimme, Angew. Chem. Int. Ed., 2020, 59, 15665-15673.
     DOI: 10.1002/anie.202004239
   
   for ALPB and GBSA implicit solvation:
   * S. Ehlert, M. Stahn, S. Spicher, S. Grimme, J. Chem. Theory Comput.,
     2021, 17, 4250-4261. DOI: 10.1021/acs.jctc.1c00471
   
   for ddCOSMO and CPCM-X implicit solvation:
   * M. Stahn, S. Ehlert, S. Grimme, J. Phys. Chem. A,
     2023, XX, XXXX-XXXX. DOI: 10.1021/acs.jpca.3c04382
   
   for DFT-D4:
   * E. Caldeweyher, C. Bannwarth and S. Grimme, J. Chem. Phys., 2017,
     147, 034112. DOI: 10.1063/1.4993215
   * E. Caldeweyher, S. Ehlert, A. Hansen, H. Neugebauer, S. Spicher,
     C. Bannwarth and S. Grimme, J. Chem. Phys., 2019, 150, 154122.
     DOI: 10.1063/1.5090222
   * E. Caldeweyher, J.-M. Mewes, S. Ehlert and S. Grimme, Phys. Chem. Chem. Phys.
     2020, 22, 8499-8512. DOI: 10.1039/D0CP00502A
   
   for sTDA-xTB:
   * S. Grimme and C. Bannwarth, J. Chem. Phys., 2016, 145, 054103.
     DOI: 10.1063/1.4959605
   
   in the mass-spec context:
   * V. Asgeirsson, C. Bauer and S. Grimme, Chem. Sci., 2017, 8, 4879.
     DOI: 10.1039/c7sc00601b
   * J. Koopman and S. Grimme, ACS Omega 2019, 4, 12, 15120-15133.
     DOI: 10.1021/acsomega.9b02011
   
   for metadynamics refer to:
   * S. Grimme, J. Chem. Theory Comput., 2019, 155, 2847-2862
     DOI: 10.1021/acs.jctc.9b00143
   
   for SPH calculations refer to:
   * S. Spicher and S. Grimme, J. Chem. Theory Comput., 2021, 17, 1701-1714
     DOI: 10.1021/acs.jctc.0c01306
   
   for ONIOM refer to:
   * C. Plett, A. Katbashev, S. Ehlert, S. Grimme, M. Bursch,
     Phys. Chem. Chem. Phys., 2023, 25, 17860-17868. DOI: 10.1039/D3CP02178E
   
   for DIPRO refer to:
   * J. Kohn, N. Gildemeister, S. Grimme, D. Fazzi, A. Hansen,
     J. Chem. Phys., 2023, just accepted.
   
   for PTB refer to:
   * S. Grimme, M. Mueller, A. Hansen, J. Chem. Phys., 2023, 158, 124111.
     DOI: 10.1063/5.0137838
   
   with help from (in alphabetical order)
   P. Atkinson, C. Bannwarth, F. Bohle, G. Brandenburg, E. Caldeweyher
   M. Checinski, S. Dohm, S. Ehlert, S. Ehrlich, I. Gerasimov, C. Hölzer
   A. Katbashev, J. Kohn, J. Koopman, C. Lavigne, S. Lehtola, F. März, M. Müller,
   F. Musil, H. Neugebauer, J. Pisarek, C. Plett, P. Pracht, F. Pultar,
   J. Seibert, P. Shushkov, S. Spicher, M. Stahn, M. Steiner, T. Strunk,
   J. Stückrath, T. Rose, and J. Unsleber
   
 * started run on 2026/04/11 at 16:57:59.181     
   ID    Z sym.   atoms
    1    7 N      1, 5
    2    6 C      2, 3, 6, 7
    3    8 O      4, 8, 9
    4    1 H      10-17

           -------------------------------------------------
          |                Calculation Setup                |
           -------------------------------------------------

          program call               : /home/analima/Programs/orca-6.1.0-f.0_linux_x86-64/bin/otool_xtb geo_opt_XTB.xyz --grad -c 0 -u 0 -P 1 --namespace geo_opt --input geo_opt_XTB.input.tmp --alpb WATER --acc 0.200000
          calculation namespace      : geo_opt
          coordinate file            : geo_opt_XTB.xyz
          omp threads                :                     1


           -------------------------------------------------
          |                 G F N 2 - x T B                 |
           -------------------------------------------------

        Reference                      10.1021/acs.jctc.8b01176
      * Hamiltonian:
        H0-scaling (s, p, d)           1.850000    2.230000    2.230000
        zeta-weighting                 0.500000
      * Dispersion:
        s8                             2.700000
        a1                             0.520000
        a2                             5.000000
        s9                             5.000000
      * Repulsion:
        kExp                           1.500000    1.000000
        rExp                           1.000000
      * Coulomb:
        alpha                          2.000000
        third order                    shell-resolved
        anisotropic                    true
        a3                             3.000000
        a5                             4.000000
        cn-shift                       1.200000
        cn-exp                         4.000000
        max-rad                        5.000000

      * Solvation model:               ALPB
        Solvent                        WATER
        Parameter file                 internal GFN2-xTB/ALPB
        Dielectric constant                8.0200E+01
        Reference state                gsolv [1 M gas/solution]
        Free energy shift                  1.0808E-03 Eh       6.7819E-01 kcal/mol
        Temperature                        2.9815E+02 K
        Density                            1.0000E+00 kg/L
        Solvent mass                       1.8000E+01 g/mol
        Interaction kernel             P16
        Born radius scaling (c1)           1.4744E+00
        Born radii integrator          GBOBC
        Born offset                        0.0000E+00 a0       0.0000E+00 AA
        H-bond correction              true
        Ion screening                  false
        Surface tension                    1.0000E-05 Eh       1.5569E+01 dyn/cm
        Grid points                               230 per atom
q/qsh data taken from xtbrestart
CAMM data taken from xtbrestart

          ...................................................
          :                      SETUP                      :
          :.................................................:
          :  # basis functions                  44          :
          :  # atomic orbitals                  44          :
          :  # shells                           26          :
          :  # electrons                        52          :
          :  max. iterations                   250          :
          :  Hamiltonian                  GFN2-xTB          :
          :  restarted?                       true          :
          :  GBSA solvation                   true          :
          :  PC potential                    false          :
          :  electronic temp.          300.0000000     K    :
          :  accuracy                    0.2000000          :
          :  -> integral cutoff          0.3198970E+02      :
          :  -> integral neglect         0.2000000E-08      :
          :  -> SCF convergence          0.2000000E-06 Eh   :
          :  -> wf. convergence          0.2000000E-04 e    :
          :  Broyden damping             0.4000000          :
          :  net charge                          0          :
          :  unpaired electrons                  0          :
          ...................................................

 iter      E             dE          RMSdq      gap      omega  full diag
   1    -31.0038147 -0.310038E+02  0.173E-01    3.81       0.0  T
   2    -31.0039413 -0.126550E-03  0.980E-02    3.81       1.0  T
   3    -31.0039494 -0.813811E-05  0.509E-02    3.82       1.0  T
   4    -31.0039523 -0.293990E-05  0.978E-03    3.82       2.5  T
   5    -31.0039527 -0.314473E-06  0.331E-03    3.82       7.3  T
   6    -31.0039527 -0.751701E-08  0.907E-04    3.82      26.8  T
   7    -31.0039527 -0.101938E-08  0.325E-04    3.82      74.6  T
   8    -31.0039527 -0.525056E-10  0.107E-04    3.82     227.5  T
   9    -31.0039527 -0.432117E-10  0.275E-05    3.82     880.7  T

   *** convergence criteria satisfied after 9 iterations ***

         #    Occupation            Energy/Eh            Energy/eV
      -------------------------------------------------------------
         1        2.0000           -0.7240770             -19.7031
       ...           ...                  ...                  ...
        20        2.0000           -0.4829324             -13.1413
        21        2.0000           -0.4673163             -12.7163
        22        2.0000           -0.4322237             -11.7614
        23        2.0000           -0.4215910             -11.4721
        24        2.0000           -0.4023027             -10.9472
        25        2.0000           -0.3878899             -10.5550
        26        2.0000           -0.3627490              -9.8709 (HOMO)
        27                         -0.2223550              -6.0506 (LUMO)
        28                         -0.1752309              -4.7683
        29                         -0.0499997              -1.3606
        30                          0.0111276               0.3028
        31                          0.0452068               1.2301
       ...                                ...                  ...
        44                          0.6419786              17.4691
      -------------------------------------------------------------
                  HL-Gap            0.1403940 Eh            3.8203 eV
             Fermi-level           -0.2925520 Eh           -7.9607 eV

 SCC (total)                   0 d,  0 h,  0 min,  0.007 sec
 SCC setup                      ...        0 min,  0.000 sec (  4.501%)
 Dispersion                     ...        0 min,  0.000 sec (  1.010%)
 classical contributions        ...        0 min,  0.000 sec (  0.234%)
 integral evaluation            ...        0 min,  0.001 sec ( 17.006%)
 iterations                     ...        0 min,  0.004 sec ( 52.482%)
 molecular gradient             ...        0 min,  0.002 sec ( 24.198%)
 printout                       ...        0 min,  0.000 sec (  0.429%)

         :::::::::::::::::::::::::::::::::::::::::::::::::::::
         ::                     SUMMARY                     ::
         :::::::::::::::::::::::::::::::::::::::::::::::::::::
         :: total energy             -30.711844403759 Eh    ::
         :: total w/o Gsasa/hb       -30.700925930584 Eh    ::
         :: gradient norm              0.012988767269 Eh/a0 ::
         :: HOMO-LUMO gap              3.820316081485 eV    ::
         ::.................................................::
         :: SCC energy               -31.003931974827 Eh    ::
         :: -> isotropic ES            0.283621127205 Eh    ::
         :: -> anisotropic ES         -0.018669822820 Eh    ::
         :: -> anisotropic XC          0.006497149132 Eh    ::
         :: -> dispersion             -0.011205833148 Eh    ::
         :: -> Gsolv                  -0.129619854981 Eh    ::
         ::    -> Gelec               -0.118701381806 Eh    ::
         ::    -> Gsasa                0.004585734815 Eh    ::
         ::    -> Ghb                 -0.016584967688 Eh    ::
         ::    -> Gshift               0.001080759698 Eh    ::
         :: repulsion energy           0.292087571068 Eh    ::
         :: add. restraining           0.000000000000 Eh    ::
         :: total charge              -0.000000000000 e     ::
         :::::::::::::::::::::::::::::::::::::::::::::::::::::


Property printout bound to 'properties.out'

           -------------------------------------------------
          | TOTAL ENERGY              -30.711844403759 Eh   |
          | GRADIENT NORM               0.012988767269 Eh/α |
          | HOMO-LUMO GAP               3.820316081485 eV   |
           -------------------------------------------------

------------------------------------------------------------------------
 * finished run on 2026/04/11 at 16:57:59.194     
------------------------------------------------------------------------
 total:
 * wall-time:     0 d,  0 h,  0 min,  0.013 sec
 *  cpu-time:     0 d,  0 h,  0 min,  0.011 sec
 * ratio c/w:     0.847 speedup
 SCF:
 * wall-time:     0 d,  0 h,  0 min,  0.007 sec
 *  cpu-time:     0 d,  0 h,  0 min,  0.006 sec
 * ratio c/w:     0.792 speedup


-------------------------   --------------------
FINAL SINGLE POINT ENERGY       -30.711844403760
-------------------------   --------------------


-------------
DIPOLE MOMENT
-------------
                                X             Y             Z
Total Dipole Moment    :      8.38500      -0.30700      -4.64500
                        -----------------------------------------
Magnitude (a.u.)       :      9.59054
Magnitude (Debye)      :     24.37722


------------------
CARTESIAN GRADIENT
------------------

   1   N   :   -0.001141340   -0.001736434    0.002830157
   2   C   :   -0.001786750    0.001800597   -0.001670151
   3   C   :    0.001423284   -0.004800276    0.001722588
   4   O   :   -0.000494505    0.000638486   -0.000614102
   5   N   :   -0.000709116    0.004503179    0.000052374
   6   C   :    0.001621847    0.000162008    0.002504410
   7   C   :   -0.002547804   -0.001731919   -0.003663797
   8   O   :   -0.001526566   -0.001805622    0.002469809
   9   O   :    0.002976154    0.004744166    0.000617267
  10   H   :    0.000147980    0.000109854   -0.000248277
  11   H   :    0.001654792    0.001045412   -0.000806408
  12   H   :    0.000187783    0.000328847   -0.000262590
  13   H   :   -0.000243731    0.000263427    0.000126393
  14   H   :    0.000324811    0.000037850   -0.000502666
  15   H   :    0.000938152   -0.002931769   -0.001198239
  16   H   :   -0.000387282   -0.001351912   -0.001729320
  17   H   :   -0.000437708    0.000724106    0.000372553

Difference to translation invariance:
           :    0.0000000000   -0.0000000000    0.0000000000

Difference to rotation invariance:
           :    0.0002054513   -0.0001383499    0.0002088581

Norm of the Cartesian gradient     ...    0.0129887673
RMS gradient                       ...    0.0018187912
MAX gradient                       ...    0.0048002755
------------------------------------------------------------------------------
                         ORCA GEOMETRY RELAXATION STEP
------------------------------------------------------------------------------

Reading the OPT-File                    .... done
Getting information on internals        .... done
Copying old internal coords+grads       .... done
Making the new internal coordinates     .... (2022 redundants) done
Validating the new internal coordinates .... (2022 redundants) done
Calculating the B-matrix                .... done
Calculating the G,G- and P matrices     .... done
Transforming gradient to internals      .... done
Projecting the internal gradient        .... done
Number of atoms                         ....  17
Number of internal coordinates          ....  69
Current Energy                          ....   -30.711844404 Eh
Current gradient norm                   ....     0.012988767 Eh/bohr
Maximum allowed component of the step   ....  0.300
Current trust radius                    ....  0.300
Updating the Hessian (BFGS)             .... done
Forming the augmented Hessian           .... done
Diagonalizing the augmented Hessian     .... done
Last element of RFO vector              ....  0.970759753
Lowest eigenvalues of augmented Hessian:
 -0.001172677  0.013753464  0.013996970  0.014685362  0.019141488
Length of the computed step             ....  0.247283760
The final length of the internal step   ....  0.247283760
Converting the step to Cartesian space:
 Initial RMS(Int)=    0.0297694664
Transforming coordinates:
 Iter   0:  RMS(Cart)=    0.0339592328 RMS(Int)=    1.0614109591
 Iter   5:  RMS(Cart)=    0.0000000619 RMS(Int)=    0.0000000387
done
Storing new coordinates                 .... done
The predicted energy change is          ....    -0.000622193
Previously predicted energy change      ....    -0.002086857
Actually observed energy change         ....    -0.002462174
Ratio of predicted to observed change   ....     1.179848424
New trust radius                        ....     0.450000000

                                .--------------------.
          ----------------------|Geometry convergence|-------------------------
          Item                value                   Tolerance       Converged
          ---------------------------------------------------------------------
          Energy change      -0.0024621744            0.0000050000      NO
          RMS gradient        0.0011583306            0.0001000000      NO
          MAX gradient        0.0055894905            0.0003000000      NO
          RMS step            0.0297694664            0.0020000000      NO
          MAX step            0.1239322022            0.0040000000      NO
          -------------------------------------------------------------------------
          ........................................................
          Max(Bonds)      0.0264      Max(Angles)    0.76
          Max(Dihed)        7.10      Max(Improp)    0.00
          ---------------------------------------------------------------------

The optimization has not yet converged - more geometry cycles are needed


    ---------------------------------------------------------------------------
                         Redundant Internal Coordinates
                            (Angstroem and degrees)

        Definition                    Value    dE/dq     Step     New-Value
    ----------------------------------------------------------------------------
     1. B(C   1,N   0)                1.4767  0.001094 -0.0015    1.4752   
     2. B(C   2,C   1)                1.5412 -0.000140  0.0016    1.5429   
     3. B(O   3,C   2)                1.2286 -0.000896 -0.0001    1.2286   
     4. B(N   4,C   2)                1.3282  0.000173 -0.0014    1.3268   
     5. B(C   5,N   4)                1.4406  0.000372 -0.0006    1.4400   
     6. B(C   6,C   5)                1.5754  0.000714  0.0019    1.5773   
     7. B(O   7,C   6)                1.2447  0.003069 -0.0037    1.2411   
     8. B(O   8,C   6)                1.2466  0.005589 -0.0091    1.2375   
     9. B(H   9,N   0)                1.0240  0.000061 -0.0002    1.0238   
    10. B(H  10,N   0)                1.0483 -0.001319  0.0035    1.0518   
    11. B(H  10,O   3)                1.8490  0.000706 -0.0264    1.8226   
    12. B(H  11,N   0)                1.0241  0.000111 -0.0005    1.0236   
    13. B(H  12,C   1)                1.0887 -0.000280  0.0003    1.0890   
    14. B(H  13,C   1)                1.0886  0.000047 -0.0005    1.0882   
    15. B(H  14,N   4)                1.0083 -0.000153 -0.0001    1.0082   
    16. B(H  15,C   5)                1.0922  0.000327 -0.0006    1.0916   
    17. B(H  16,C   5)                1.0890  0.000063 -0.0007    1.0883   
    18. A(H  10,N   0,H  11)          109.82 -0.000141   -0.02    109.80   
    19. A(H   9,N   0,H  11)          109.54 -0.000169    0.23    109.77   
    20. A(C   1,N   0,H  10)          103.77  0.001160   -0.67    103.10   
    21. A(H   9,N   0,H  10)          108.15 -0.000213   -0.08    108.06   
    22. A(C   1,N   0,H   9)          112.24 -0.000307    0.22    112.46   
    23. A(C   1,N   0,H  11)          113.08 -0.000271    0.28    113.36   
    24. A(N   0,C   1,H  13)          111.78  0.000252    0.00    111.78   
    25. A(C   2,C   1,H  12)          109.28  0.000154    0.05    109.32   
    26. A(H  12,C   1,H  13)          109.32 -0.000679    0.44    109.77   
    27. A(C   2,C   1,H  13)          108.50  0.000857   -0.20    108.30   
    28. A(N   0,C   1,C   2)          106.30 -0.001042   -0.19    106.11   
    29. A(N   0,C   1,H  12)          111.56  0.000480   -0.11    111.45   
    30. A(C   1,C   2,N   4)          115.29 -0.002226    0.32    115.60   
    31. A(C   1,C   2,O   3)          118.44  0.000554   -0.24    118.20   
    32. A(O   3,C   2,N   4)          126.26  0.001704   -0.01    126.25   
    33. A(C   5,N   4,H  14)          117.70  0.000612   -0.44    117.26   
    34. A(C   2,N   4,C   5)          120.91 -0.000042   -0.16    120.74   
    35. A(C   2,N   4,H  14)          119.14 -0.000200    0.02    119.15   
    36. A(C   6,C   5,H  16)          107.13 -0.001918    0.76    107.89   
    37. A(N   4,C   5,H  16)          110.33  0.000243    0.26    110.59   
    38. A(C   6,C   5,H  15)          108.25  0.000725   -0.68    107.56   
    39. A(N   4,C   5,C   6)          111.22  0.002428   -0.72    110.50   
    40. A(N   4,C   5,H  15)          110.88 -0.001406    0.14    111.02   
    41. A(H  15,C   5,H  16)          108.92 -0.000113    0.31    109.23   
    42. A(C   5,C   6,O   7)          115.40 -0.001544    0.28    115.67   
    43. A(O   7,C   6,O   8)          128.02 -0.000031    0.32    128.34   
    44. A(C   5,C   6,O   8)          116.58  0.001565   -0.44    116.14   
    45. D(H  12,C   1,N   0,H   9)    128.06 -0.000204    0.23    128.29   
    46. D(H  12,C   1,N   0,H  11)      3.52  0.000482   -0.42      3.10   
    47. D(C   2,C   1,N   0,H  10)      3.62 -0.000118   -0.27      3.35   
    48. D(H  12,C   1,N   0,H  10)   -115.42  0.000070   -0.15   -115.57   
    49. D(C   2,C   1,N   0,H  11)    122.56  0.000294   -0.54    122.01   
    50. D(C   2,C   1,N   0,H   9)   -112.90 -0.000392    0.11   -112.80   
    51. D(O   3,C   2,C   1,N   0)     -2.05  0.000362   -1.10     -3.15   
    52. D(N   4,C   2,C   1,N   0)    179.54 -0.000789    2.76    182.31   
    53. D(O   3,C   2,C   1,H  13)   -122.41  0.000188   -0.87   -123.27   
    54. D(N   4,C   2,C   1,H  12)    -59.93 -0.000736    2.55    -57.38   
    55. D(O   3,C   2,C   1,H  12)    118.47  0.000415   -1.31    117.16   
    56. D(H  14,N   4,C   2,C   1)     -1.53  0.002020   -7.10     -8.63   
    57. D(C   5,N   4,C   2,O   3)     17.64 -0.000703    2.70     20.34   
    58. D(H  14,N   4,C   2,O   3)   -179.79  0.000794   -3.27   -183.06   
    59. D(C   5,N   4,C   2,C   1)   -164.10  0.000523   -1.13   -165.23   
    60. D(H  16,C   5,N   4,C   2)   -178.83  0.000109   -0.05   -178.88   
    61. D(H  15,C   5,N   4,H  14)    139.12 -0.002138    6.65    145.77   
    62. D(H  15,C   5,N   4,C   2)    -58.07 -0.000797    0.60    -57.47   
    63. D(C   6,C   5,N   4,H  14)   -100.38 -0.000540    5.32    -95.06   
    64. D(C   6,C   5,N   4,C   2)     62.43  0.000801   -0.73     61.70   
    65. D(O   8,C   6,C   5,H  15)    130.15 -0.000196   -1.68    128.47   
    66. D(O   8,C   6,C   5,N   4)      8.11 -0.000462   -0.85      7.26   
    67. D(O   7,C   6,C   5,H  16)     67.82  0.000530   -2.70     65.11   
    68. D(O   7,C   6,C   5,H  15)    -49.49  0.001305   -3.15    -52.65   
    69. D(O   7,C   6,C   5,N   4)   -171.54  0.001039   -2.32   -173.86   
    ----------------------------------------------------------------------------

Geometry step timings:
Preparation and reading OPT file:      0.000 s ( 1.041 %)
Internal coordinates            :      0.000 s ( 0.972 %)
B/P matrices and projection     :      0.001 s (38.931 %)
Hessian update/contruction      :      0.000 s (12.214 %)
Making the step                 :      0.000 s (27.620 %)
Converting the step to Cartesian:      0.000 s ( 4.094 %)
Storing new data                :      0.000 s ( 1.319 %)
Checking convergence            :      0.000 s ( 1.319 %)
Final printing                  :      0.000 s (12.491 %)
Total time                      :      0.001 s

Time for energy+gradient        :      0.016 s
Time for complete geometry iter :      0.018 s

         *************************************************************
         *                GEOMETRY OPTIMIZATION CYCLE   7            *
         *************************************************************
---------------------------------
CARTESIAN COORDINATES (ANGSTROEM)
---------------------------------
  N     2.610104    0.358664    0.067946
  C     1.432612    0.377458   -0.820430
  C     0.295354   -0.311319   -0.037796
  O     0.553730   -0.774562    1.070365
  N    -0.852905   -0.437162   -0.690466
  C    -2.061207   -0.765854    0.020548
  C    -2.406491    0.359096    1.070850
  O    -3.365418    0.117128    1.820607
  O    -1.703477    1.376668    1.029122
  H     2.880736    1.296027    0.378240
  H     2.267576   -0.176205    0.906332
  H     3.418994   -0.117369   -0.340536
  H     1.619977   -0.171806   -1.741887
  H     1.119517    1.392848   -1.055056
  H    -0.959175    0.029376   -1.577881
  H    -1.949916   -1.703806    0.567817
  H    -2.900011   -0.849182   -0.667775

----------------------------
CARTESIAN COORDINATES (A.U.)
----------------------------
  NO LB    ZA    FRAG    MASS        X           Y           Z
   0 N   7.0000    0    14.007    4.932381    0.677777    0.128400
   1 C   6.0000    0    12.011    2.707245    0.713293   -1.550387
   2 C   6.0000    0    12.011    0.558139   -0.588308   -0.071424
   3 O   8.0000    0    15.999    1.046397   -1.463711    2.022696
   4 N   7.0000    0    14.007   -1.611756   -0.826117   -1.304791
   5 C   6.0000    0    12.011   -3.895116   -1.447254    0.038830
   6 C   6.0000    0    12.011   -4.547609    0.678594    2.023614
   7 O   8.0000    0    15.999   -6.359718    0.221339    3.440449
   8 O   8.0000    0    15.999   -3.219105    2.601526    1.944758
   9 H   1.0000    0     1.008    5.443801    2.449136    0.714770
  10 H   1.0000    0     1.008    4.285097   -0.332979    1.712719
  11 H   1.0000    0     1.008    6.460962   -0.221795   -0.643519
  12 H   1.0000    0     1.008    3.061314   -0.324667   -3.291690
  13 H   1.0000    0     1.008    2.115580    2.632102   -1.993767
  14 H   1.0000    0     1.008   -1.812577    0.055512   -2.981763
  15 H   1.0000    0     1.008   -3.684807   -3.219726    1.073018
  16 H   1.0000    0     1.008   -5.480227   -1.604722   -1.261913

      -----------------------------------------------------------      
     |                   =====================                   |     
     |                           x T B                           |     
     |                   =====================                   |     
     |                         S. Grimme                         |     
     |          Mulliken Center for Theoretical Chemistry        |     
     |                    University of Bonn                     |     
      -----------------------------------------------------------      

   * xtb version 6.7.1 (edcfbbe) compiled by 'albert@albert-system' on 2024-07-22

   xtb is free software: you can redistribute it and/or modify it under
   the terms of the GNU Lesser General Public License as published by
   the Free Software Foundation, either version 3 of the License, or
   (at your option) any later version.
   
   xtb is distributed in the hope that it will be useful,
   but WITHOUT ANY WARRANTY; without even the implied warranty of
   MERCHANTABILITY or FITNESS FOR A PARTICULAR PURPOSE.  See the
   GNU Lesser General Public License for more details.
   
   Cite this work as:
   * C. Bannwarth, E. Caldeweyher, S. Ehlert, A. Hansen, P. Pracht,
     J. Seibert, S. Spicher, S. Grimme, WIREs Comput. Mol. Sci., 2020, 11,
     e01493. DOI: 10.1002/wcms.1493
   
   for GFN2-xTB:
   * C. Bannwarth, S. Ehlert and S. Grimme., J. Chem. Theory Comput., 2019,
     15, 1652-1671. DOI: 10.1021/acs.jctc.8b01176
   for GFN1-xTB:
   * S. Grimme, C. Bannwarth, P. Shushkov, J. Chem. Theory Comput., 2017,
     13, 1989-2009. DOI: 10.1021/acs.jctc.7b00118
   for GFN0-xTB:
   * P. Pracht, E. Caldeweyher, S. Ehlert, S. Grimme, ChemRxiv, 2019, preprint.
     DOI: 10.26434/chemrxiv.8326202.v1
   for GFN-FF:
   * S. Spicher and S. Grimme, Angew. Chem. Int. Ed., 2020, 59, 15665-15673.
     DOI: 10.1002/anie.202004239
   
   for ALPB and GBSA implicit solvation:
   * S. Ehlert, M. Stahn, S. Spicher, S. Grimme, J. Chem. Theory Comput.,
     2021, 17, 4250-4261. DOI: 10.1021/acs.jctc.1c00471
   
   for ddCOSMO and CPCM-X implicit solvation:
   * M. Stahn, S. Ehlert, S. Grimme, J. Phys. Chem. A,
     2023, XX, XXXX-XXXX. DOI: 10.1021/acs.jpca.3c04382
   
   for DFT-D4:
   * E. Caldeweyher, C. Bannwarth and S. Grimme, J. Chem. Phys., 2017,
     147, 034112. DOI: 10.1063/1.4993215
   * E. Caldeweyher, S. Ehlert, A. Hansen, H. Neugebauer, S. Spicher,
     C. Bannwarth and S. Grimme, J. Chem. Phys., 2019, 150, 154122.
     DOI: 10.1063/1.5090222
   * E. Caldeweyher, J.-M. Mewes, S. Ehlert and S. Grimme, Phys. Chem. Chem. Phys.
     2020, 22, 8499-8512. DOI: 10.1039/D0CP00502A
   
   for sTDA-xTB:
   * S. Grimme and C. Bannwarth, J. Chem. Phys., 2016, 145, 054103.
     DOI: 10.1063/1.4959605
   
   in the mass-spec context:
   * V. Asgeirsson, C. Bauer and S. Grimme, Chem. Sci., 2017, 8, 4879.
     DOI: 10.1039/c7sc00601b
   * J. Koopman and S. Grimme, ACS Omega 2019, 4, 12, 15120-15133.
     DOI: 10.1021/acsomega.9b02011
   
   for metadynamics refer to:
   * S. Grimme, J. Chem. Theory Comput., 2019, 155, 2847-2862
     DOI: 10.1021/acs.jctc.9b00143
   
   for SPH calculations refer to:
   * S. Spicher and S. Grimme, J. Chem. Theory Comput., 2021, 17, 1701-1714
     DOI: 10.1021/acs.jctc.0c01306
   
   for ONIOM refer to:
   * C. Plett, A. Katbashev, S. Ehlert, S. Grimme, M. Bursch,
     Phys. Chem. Chem. Phys., 2023, 25, 17860-17868. DOI: 10.1039/D3CP02178E
   
   for DIPRO refer to:
   * J. Kohn, N. Gildemeister, S. Grimme, D. Fazzi, A. Hansen,
     J. Chem. Phys., 2023, just accepted.
   
   for PTB refer to:
   * S. Grimme, M. Mueller, A. Hansen, J. Chem. Phys., 2023, 158, 124111.
     DOI: 10.1063/5.0137838
   
   with help from (in alphabetical order)
   P. Atkinson, C. Bannwarth, F. Bohle, G. Brandenburg, E. Caldeweyher
   M. Checinski, S. Dohm, S. Ehlert, S. Ehrlich, I. Gerasimov, C. Hölzer
   A. Katbashev, J. Kohn, J. Koopman, C. Lavigne, S. Lehtola, F. März, M. Müller,
   F. Musil, H. Neugebauer, J. Pisarek, C. Plett, P. Pracht, F. Pultar,
   J. Seibert, P. Shushkov, S. Spicher, M. Stahn, M. Steiner, T. Strunk,
   J. Stückrath, T. Rose, and J. Unsleber
   
 * started run on 2026/04/11 at 16:57:59.200     
   ID    Z sym.   atoms
    1    7 N      1, 5
    2    6 C      2, 3, 6, 7
    3    8 O      4, 8, 9
    4    1 H      10-17

           -------------------------------------------------
          |                Calculation Setup                |
           -------------------------------------------------

          program call               : /home/analima/Programs/orca-6.1.0-f.0_linux_x86-64/bin/otool_xtb geo_opt_XTB.xyz --grad -c 0 -u 0 -P 1 --namespace geo_opt --input geo_opt_XTB.input.tmp --alpb WATER --acc 0.200000
          calculation namespace      : geo_opt
          coordinate file            : geo_opt_XTB.xyz
          omp threads                :                     1


           -------------------------------------------------
          |                 G F N 2 - x T B                 |
           -------------------------------------------------

        Reference                      10.1021/acs.jctc.8b01176
      * Hamiltonian:
        H0-scaling (s, p, d)           1.850000    2.230000    2.230000
        zeta-weighting                 0.500000
      * Dispersion:
        s8                             2.700000
        a1                             0.520000
        a2                             5.000000
        s9                             5.000000
      * Repulsion:
        kExp                           1.500000    1.000000
        rExp                           1.000000
      * Coulomb:
        alpha                          2.000000
        third order                    shell-resolved
        anisotropic                    true
        a3                             3.000000
        a5                             4.000000
        cn-shift                       1.200000
        cn-exp                         4.000000
        max-rad                        5.000000

      * Solvation model:               ALPB
        Solvent                        WATER
        Parameter file                 internal GFN2-xTB/ALPB
        Dielectric constant                8.0200E+01
        Reference state                gsolv [1 M gas/solution]
        Free energy shift                  1.0808E-03 Eh       6.7819E-01 kcal/mol
        Temperature                        2.9815E+02 K
        Density                            1.0000E+00 kg/L
        Solvent mass                       1.8000E+01 g/mol
        Interaction kernel             P16
        Born radius scaling (c1)           1.4744E+00
        Born radii integrator          GBOBC
        Born offset                        0.0000E+00 a0       0.0000E+00 AA
        H-bond correction              true
        Ion screening                  false
        Surface tension                    1.0000E-05 Eh       1.5569E+01 dyn/cm
        Grid points                               230 per atom
q/qsh data taken from xtbrestart
CAMM data taken from xtbrestart

          ...................................................
          :                      SETUP                      :
          :.................................................:
          :  # basis functions                  44          :
          :  # atomic orbitals                  44          :
          :  # shells                           26          :
          :  # electrons                        52          :
          :  max. iterations                   250          :
          :  Hamiltonian                  GFN2-xTB          :
          :  restarted?                       true          :
          :  GBSA solvation                   true          :
          :  PC potential                    false          :
          :  electronic temp.          300.0000000     K    :
          :  accuracy                    0.2000000          :
          :  -> integral cutoff          0.3198970E+02      :
          :  -> integral neglect         0.2000000E-08      :
          :  -> SCF convergence          0.2000000E-06 Eh   :
          :  -> wf. convergence          0.2000000E-04 e    :
          :  Broyden damping             0.4000000          :
          :  net charge                          0          :
          :  unpaired electrons                  0          :
          ...................................................

 iter      E             dE          RMSdq      gap      omega  full diag
   1    -31.0076121 -0.310076E+02  0.122E-01    3.80       0.0  T
   2    -31.0076378 -0.257070E-04  0.698E-02    3.80       1.0  T
   3    -31.0076388 -0.943516E-06  0.260E-02    3.81       1.0  T
   4    -31.0076408 -0.205906E-05  0.554E-03    3.81       4.4  T
   5    -31.0076409 -0.583665E-07  0.253E-03    3.81       9.6  T
   6    -31.0076409 -0.409163E-08  0.541E-04    3.81      44.8  T
   7    -31.0076409 -0.675065E-09  0.176E-04    3.81     137.8  T
   8    -31.0076409 -0.382734E-10  0.894E-05    3.81     271.4  T

   *** convergence criteria satisfied after 8 iterations ***

         #    Occupation            Energy/Eh            Energy/eV
      -------------------------------------------------------------
         1        2.0000           -0.7245775             -19.7168
       ...           ...                  ...                  ...
        20        2.0000           -0.4831743             -13.1478
        21        2.0000           -0.4672802             -12.7153
        22        2.0000           -0.4343077             -11.8181
        23        2.0000           -0.4223589             -11.4930
        24        2.0000           -0.4036495             -10.9839
        25        2.0000           -0.3889558             -10.5840
        26        2.0000           -0.3623269              -9.8594 (HOMO)
        27                         -0.2223731              -6.0511 (LUMO)
        28                         -0.1725457              -4.6952
        29                         -0.0484420              -1.3182
        30                          0.0137443               0.3740
        31                          0.0452775               1.2321
       ...                                ...                  ...
        44                          0.6621953              18.0193
      -------------------------------------------------------------
                  HL-Gap            0.1399538 Eh            3.8083 eV
             Fermi-level           -0.2923500 Eh           -7.9552 eV

 SCC (total)                   0 d,  0 h,  0 min,  0.011 sec
 SCC setup                      ...        0 min,  0.000 sec (  2.422%)
 Dispersion                     ...        0 min,  0.000 sec (  0.494%)
 classical contributions        ...        0 min,  0.000 sec (  0.122%)
 integral evaluation            ...        0 min,  0.001 sec (  6.296%)
 iterations                     ...        0 min,  0.007 sec ( 62.799%)
 molecular gradient             ...        0 min,  0.003 sec ( 27.258%)
 printout                       ...        0 min,  0.000 sec (  0.503%)

         :::::::::::::::::::::::::::::::::::::::::::::::::::::
         ::                     SUMMARY                     ::
         :::::::::::::::::::::::::::::::::::::::::::::::::::::
         :: total energy             -30.712568797345 Eh    ::
         :: total w/o Gsasa/hb       -30.701694873502 Eh    ::
         :: gradient norm              0.011580188018 Eh/a0 ::
         :: HOMO-LUMO gap              3.808336366296 eV    ::
         ::.................................................::
         :: SCC energy               -31.007621076088 Eh    ::
         :: -> isotropic ES            0.280306101457 Eh    ::
         :: -> anisotropic ES         -0.019402649999 Eh    ::
         :: -> anisotropic XC          0.006364408698 Eh    ::
         :: -> dispersion             -0.011243028639 Eh    ::
         :: -> Gsolv                  -0.127378987325 Eh    ::
         ::    -> Gelec               -0.116505063483 Eh    ::
         ::    -> Gsasa                0.004479445072 Eh    ::
         ::    -> Ghb                 -0.016434128612 Eh    ::
         ::    -> Gshift               0.001080759698 Eh    ::
         :: repulsion energy           0.295052278743 Eh    ::
         :: add. restraining           0.000000000000 Eh    ::
         :: total charge               0.000000000000 e     ::
         :::::::::::::::::::::::::::::::::::::::::::::::::::::


Property printout bound to 'properties.out'

           -------------------------------------------------
          | TOTAL ENERGY              -30.712568797345 Eh   |
          | GRADIENT NORM               0.011580188018 Eh/α |
          | HOMO-LUMO GAP               3.808336366296 eV   |
           -------------------------------------------------

------------------------------------------------------------------------
 * finished run on 2026/04/11 at 16:57:59.215     
------------------------------------------------------------------------
 total:
 * wall-time:     0 d,  0 h,  0 min,  0.015 sec
 *  cpu-time:     0 d,  0 h,  0 min,  0.012 sec
 * ratio c/w:     0.761 speedup
 SCF:
 * wall-time:     0 d,  0 h,  0 min,  0.011 sec
 *  cpu-time:     0 d,  0 h,  0 min,  0.007 sec
 * ratio c/w:     0.664 speedup


-------------------------   --------------------
FINAL SINGLE POINT ENERGY       -30.712568797340
-------------------------   --------------------


-------------
DIPOLE MOMENT
-------------
                                X             Y             Z
Total Dipole Moment    :      8.33800      -0.27500      -4.51900
                        -----------------------------------------
Magnitude (a.u.)       :      9.48785
Magnitude (Debye)      :     24.11619


------------------
CARTESIAN GRADIENT
------------------

   1   N   :   -0.000626546   -0.001368330    0.000954780
   2   C   :   -0.000649679    0.000499656   -0.002259361
   3   C   :   -0.002141248   -0.000255799    0.003902545
   4   O   :   -0.000166971   -0.000184595   -0.002461002
   5   N   :    0.001239507    0.003370907    0.000816812
   6   C   :    0.001094273    0.000687371    0.000453741
   7   C   :    0.003171704    0.003619932    0.001588364
   8   O   :    0.001507500    0.000203732   -0.001387566
   9   O   :   -0.004368472   -0.005011514   -0.000648357
  10   H   :   -0.000044411    0.000064595    0.000000736
  11   H   :    0.000727011    0.000775726   -0.000305040
  12   H   :    0.000166271    0.000227429   -0.000040852
  13   H   :    0.000440780   -0.000118026   -0.000044679
  14   H   :    0.000021698   -0.000264441    0.000258523
  15   H   :    0.000688367   -0.002285888   -0.000416146
  16   H   :   -0.000737339   -0.000521501   -0.000601352
  17   H   :   -0.000322445    0.000560746    0.000188853

Difference to translation invariance:
           :   -0.0000000000    0.0000000000   -0.0000000000

Difference to rotation invariance:
           :    0.0002158980   -0.0001267100    0.0001627569

Norm of the Cartesian gradient     ...    0.0115801880
RMS gradient                       ...    0.0016215507
MAX gradient                       ...    0.0050115141
------------------------------------------------------------------------------
                         ORCA GEOMETRY RELAXATION STEP
------------------------------------------------------------------------------

Reading the OPT-File                    .... done
Getting information on internals        .... done
Copying old internal coords+grads       .... done
Making the new internal coordinates     .... (2022 redundants) done
Validating the new internal coordinates .... (2022 redundants) done
Calculating the B-matrix                .... done
Calculating the G,G- and P matrices     .... done
Transforming gradient to internals      .... done
Projecting the internal gradient        .... done
Number of atoms                         ....  17
Number of internal coordinates          ....  69
Current Energy                          ....   -30.712568797 Eh
Current gradient norm                   ....     0.011580188 Eh/bohr
Maximum allowed component of the step   ....  0.300
Current trust radius                    ....  0.450
Updating the Hessian (BFGS)             .... done
Forming the augmented Hessian           .... done
Diagonalizing the augmented Hessian     .... done
Last element of RFO vector              ....  0.952798077
Lowest eigenvalues of augmented Hessian:
 -0.000860163  0.006863669  0.013865369  0.014466471  0.020132522
Length of the computed step             ....  0.318645391
The final length of the internal step   ....  0.318645391
Converting the step to Cartesian space:
 Initial RMS(Int)=    0.0383603973
Transforming coordinates:
 Iter   0:  RMS(Cart)=    0.0563035984 RMS(Int)=    0.0378328296
 Iter   5:  RMS(Cart)=    0.0000002700 RMS(Int)=    0.0000002630
done
Storing new coordinates                 .... done
The predicted energy change is          ....    -0.000473750
Previously predicted energy change      ....    -0.000622193
Actually observed energy change         ....    -0.000724394
Ratio of predicted to observed change   ....     1.164259549
New trust radius                        ....     0.675000000

                                .--------------------.
          ----------------------|Geometry convergence|-------------------------
          Item                value                   Tolerance       Converged
          ---------------------------------------------------------------------
          Energy change      -0.0007243936            0.0000050000      NO
          RMS gradient        0.0010516577            0.0001000000      NO
          MAX gradient        0.0065758601            0.0003000000      NO
          RMS step            0.0383603973            0.0020000000      NO
          MAX step            0.1712126298            0.0040000000      NO
          -------------------------------------------------------------------------
          ........................................................
          Max(Bonds)      0.0276      Max(Angles)    0.92
          Max(Dihed)        9.81      Max(Improp)    0.00
          ---------------------------------------------------------------------

The optimization has not yet converged - more geometry cycles are needed


    ---------------------------------------------------------------------------
                         Redundant Internal Coordinates
                            (Angstroem and degrees)

        Definition                    Value    dE/dq     Step     New-Value
    ----------------------------------------------------------------------------
     1. B(C   1,N   0)                1.4751  0.000376 -0.0018    1.4734   
     2. B(C   2,C   1)                1.5428  0.000459  0.0009    1.5437   
     3. B(O   3,C   2)                1.2286 -0.002186  0.0014    1.2300   
     4. B(N   4,C   2)                1.3268 -0.002031  0.0015    1.3282   
     5. B(C   5,N   4)                1.4400 -0.000385  0.0001    1.4401   
     6. B(C   6,C   5)                1.5773 -0.001203  0.0045    1.5818   
     7. B(O   7,C   6)                1.2411 -0.002045 -0.0018    1.2393   
     8. B(O   8,C   6)                1.2375 -0.006576  0.0018    1.2393   
     9. B(H   9,N   0)                1.0238  0.000046 -0.0003    1.0235   
    10. B(H  10,N   0)                1.0518 -0.000744  0.0045    1.0563   
    11. B(H  10,O   3)                1.8227  0.000242 -0.0276    1.7951   
    12. B(H  11,N   0)                1.0236  0.000044 -0.0005    1.0231   
    13. B(H  12,C   1)                1.0890  0.000177 -0.0002    1.0888   
    14. B(H  13,C   1)                1.0882 -0.000312  0.0002    1.0884   
    15. B(H  14,N   4)                1.0082 -0.000767  0.0010    1.0092   
    16. B(H  15,C   5)                1.0916  0.000072 -0.0007    1.0909   
    17. B(H  16,C   5)                1.0883  0.000084 -0.0009    1.0874   
    18. A(H  10,N   0,H  11)          109.81 -0.000030   -0.06    109.75   
    19. A(H   9,N   0,H  11)          109.75 -0.000099    0.27    110.01   
    20. A(C   1,N   0,H  10)          103.09  0.000630   -0.82    102.27   
    21. A(H   9,N   0,H  10)          108.06 -0.000298   -0.03    108.03   
    22. A(C   1,N   0,H   9)          112.45 -0.000295    0.30    112.75   
    23. A(C   1,N   0,H  11)          113.35  0.000113    0.27    113.62   
    24. A(N   0,C   1,H  13)          111.80  0.000029    0.12    111.92   
    25. A(C   2,C   1,H  12)          109.32  0.000496   -0.12    109.21   
    26. A(H  12,C   1,H  13)          109.74  0.000360    0.29    110.03   
    27. A(C   2,C   1,H  13)          108.29 -0.000102   -0.11    108.18   
    28. A(N   0,C   1,C   2)          106.09 -0.000868   -0.16    105.94   
    29. A(N   0,C   1,H  12)          111.46  0.000057   -0.07    111.38   
    30. A(C   1,C   2,N   4)          115.52 -0.001667    0.41    115.92   
    31. A(C   1,C   2,O   3)          118.09  0.000567   -0.48    117.61   
    32. A(O   3,C   2,N   4)          126.15  0.001022   -0.15    126.01   
    33. A(C   5,N   4,H  14)          116.86  0.000617   -0.90    115.96   
    34. A(C   2,N   4,C   5)          120.33 -0.000211   -0.45    119.88   
    35. A(C   2,N   4,H  14)          118.71  0.000046   -0.35    118.35   
    36. A(C   6,C   5,H  16)          107.88 -0.000783    0.92    108.80   
    37. A(N   4,C   5,H  16)          110.61  0.000166    0.25    110.85   
    38. A(C   6,C   5,H  15)          107.54  0.000152   -0.73    106.80   
    39. A(N   4,C   5,C   6)          110.47  0.000263   -0.65    109.81   
    40. A(N   4,C   5,H  15)          110.98 -0.000057   -0.02    110.97   
    41. A(H  15,C   5,H  16)          109.26  0.000238    0.26    109.52   
    42. A(C   5,C   6,O   7)          115.62 -0.000249    0.20    115.82   
    43. A(O   7,C   6,O   8)          128.29  0.000318    0.22    128.51   
    44. A(C   5,C   6,O   8)          116.08 -0.000095   -0.37    115.71   
    45. D(H  12,C   1,N   0,H   9)    128.30 -0.000126    0.45    128.75   
    46. D(H  12,C   1,N   0,H  11)      3.09  0.000159   -0.35      2.74   
    47. D(C   2,C   1,N   0,H  10)      3.35 -0.000151   -0.18      3.17   
    48. D(H  12,C   1,N   0,H  10)   -115.56 -0.000251    0.09   -115.47   
    49. D(C   2,C   1,N   0,H  11)    122.00  0.000259   -0.62    121.38   
    50. D(C   2,C   1,N   0,H   9)   -112.79 -0.000026    0.18   -112.61   
    51. D(O   3,C   2,C   1,N   0)     -3.07 -0.000498    1.35     -1.72   
    52. D(N   4,C   2,C   1,N   0)   -177.80  0.000304    0.43   -177.37   
    53. D(O   3,C   2,C   1,H  13)   -123.23 -0.000001    1.32   -121.91   
    54. D(N   4,C   2,C   1,H  12)    -57.49  0.000140    0.18    -57.31   
    55. D(O   3,C   2,C   1,H  12)    117.24 -0.000662    1.10    118.34   
    56. D(H  14,N   4,C   2,C   1)     -8.77  0.000357   -5.73    -14.50   
    57. D(C   5,N   4,C   2,O   3)     20.48 -0.000096    2.41     22.89   
    58. D(H  14,N   4,C   2,O   3)    176.99  0.001279   -6.36    170.63   
    59. D(C   5,N   4,C   2,C   1)   -165.28 -0.001018    3.04   -162.24   
    60. D(H  16,C   5,N   4,C   2)   -178.84 -0.000408    0.59   -178.25   
    61. D(H  15,C   5,N   4,H  14)    145.67 -0.001258    9.81    155.48   
    62. D(H  15,C   5,N   4,C   2)    -57.40 -0.000032    1.07    -56.33   
    63. D(C   6,C   5,N   4,H  14)    -95.15 -0.000934    8.44    -86.71   
    64. D(C   6,C   5,N   4,C   2)     61.78  0.000292   -0.30     61.49   
    65. D(O   8,C   6,C   5,H  15)    128.49  0.001289   -3.72    124.77   
    66. D(O   8,C   6,C   5,N   4)      7.24  0.001106   -2.82      4.42   
    67. D(O   7,C   6,C   5,H  16)     65.11 -0.000022   -3.36     61.76   
    68. D(O   7,C   6,C   5,H  15)    -52.63  0.000030   -3.79    -56.42   
    69. D(O   7,C   6,C   5,N   4)   -173.88 -0.000153   -2.89   -176.77   
    ----------------------------------------------------------------------------

Geometry step timings:
Preparation and reading OPT file:      0.000 s ( 1.030 %)
Internal coordinates            :      0.000 s ( 1.095 %)
B/P matrices and projection     :      0.001 s (39.150 %)
Hessian update/contruction      :      0.000 s (11.912 %)
Making the step                 :      0.000 s (26.143 %)
Converting the step to Cartesian:      0.000 s ( 3.992 %)
Storing new data                :      0.000 s ( 1.352 %)
Checking convergence            :      0.000 s ( 1.610 %)
Final printing                  :      0.000 s (13.587 %)
Total time                      :      0.002 s

Time for energy+gradient        :      0.019 s
Time for complete geometry iter :      0.021 s

         *************************************************************
         *                GEOMETRY OPTIMIZATION CYCLE   8            *
         *************************************************************
---------------------------------
CARTESIAN COORDINATES (ANGSTROEM)
---------------------------------
  N     2.591383    0.363046    0.075796
  C     1.419157    0.390301   -0.816535
  C     0.291116   -0.341758   -0.058293
  O     0.556022   -0.811317    1.047236
  N    -0.855405   -0.482363   -0.714007
  C    -2.053681   -0.789712    0.023194
  C    -2.367797    0.376421    1.044735
  O    -3.346077    0.196980    1.784032
  O    -1.616382    1.360103    0.984790
  H     2.847280    1.291806    0.421389
  H     2.238248   -0.204298    0.893710
  H     3.408745   -0.094792   -0.335302
  H     1.619659   -0.131253   -1.750990
  H     1.087508    1.406727   -1.020109
  H    -0.990899    0.074730   -1.544541
  H    -1.927015   -1.699128    0.612272
  H    -2.901860   -0.905490   -0.647377

----------------------------
CARTESIAN COORDINATES (A.U.)
----------------------------
  NO LB    ZA    FRAG    MASS        X           Y           Z
   0 N   7.0000    0    14.007    4.897004    0.686057    0.143233
   1 C   6.0000    0    12.011    2.681818    0.737561   -1.543028
   2 C   6.0000    0    12.011    0.550129   -0.645830   -0.110157
   3 O   8.0000    0    15.999    1.050730   -1.533167    1.978989
   4 N   7.0000    0    14.007   -1.616482   -0.911534   -1.349278
   5 C   6.0000    0    12.011   -3.880896   -1.492340    0.043830
   6 C   6.0000    0    12.011   -4.474487    0.711332    1.974262
   7 O   8.0000    0    15.999   -6.323170    0.372237    3.371332
   8 O   8.0000    0    15.999   -3.054520    2.570222    1.860983
   9 H   1.0000    0     1.008    5.380579    2.441159    0.796311
  10 H   1.0000    0     1.008    4.229676   -0.386068    1.688867
  11 H   1.0000    0     1.008    6.441594   -0.179131   -0.633629
  12 H   1.0000    0     1.008    3.060712   -0.248033   -3.308892
  13 H   1.0000    0     1.008    2.055092    2.658328   -1.927727
  14 H   1.0000    0     1.008   -1.872528    0.141218   -2.918759
  15 H   1.0000    0     1.008   -3.641530   -3.210887    1.157027
  16 H   1.0000    0     1.008   -5.483721   -1.711128   -1.223365

      -----------------------------------------------------------      
     |                   =====================                   |     
     |                           x T B                           |     
     |                   =====================                   |     
     |                         S. Grimme                         |     
     |          Mulliken Center for Theoretical Chemistry        |     
     |                    University of Bonn                     |     
      -----------------------------------------------------------      

   * xtb version 6.7.1 (edcfbbe) compiled by 'albert@albert-system' on 2024-07-22

   xtb is free software: you can redistribute it and/or modify it under
   the terms of the GNU Lesser General Public License as published by
   the Free Software Foundation, either version 3 of the License, or
   (at your option) any later version.
   
   xtb is distributed in the hope that it will be useful,
   but WITHOUT ANY WARRANTY; without even the implied warranty of
   MERCHANTABILITY or FITNESS FOR A PARTICULAR PURPOSE.  See the
   GNU Lesser General Public License for more details.
   
   Cite this work as:
   * C. Bannwarth, E. Caldeweyher, S. Ehlert, A. Hansen, P. Pracht,
     J. Seibert, S. Spicher, S. Grimme, WIREs Comput. Mol. Sci., 2020, 11,
     e01493. DOI: 10.1002/wcms.1493
   
   for GFN2-xTB:
   * C. Bannwarth, S. Ehlert and S. Grimme., J. Chem. Theory Comput., 2019,
     15, 1652-1671. DOI: 10.1021/acs.jctc.8b01176
   for GFN1-xTB:
   * S. Grimme, C. Bannwarth, P. Shushkov, J. Chem. Theory Comput., 2017,
     13, 1989-2009. DOI: 10.1021/acs.jctc.7b00118
   for GFN0-xTB:
   * P. Pracht, E. Caldeweyher, S. Ehlert, S. Grimme, ChemRxiv, 2019, preprint.
     DOI: 10.26434/chemrxiv.8326202.v1
   for GFN-FF:
   * S. Spicher and S. Grimme, Angew. Chem. Int. Ed., 2020, 59, 15665-15673.
     DOI: 10.1002/anie.202004239
   
   for ALPB and GBSA implicit solvation:
   * S. Ehlert, M. Stahn, S. Spicher, S. Grimme, J. Chem. Theory Comput.,
     2021, 17, 4250-4261. DOI: 10.1021/acs.jctc.1c00471
   
   for ddCOSMO and CPCM-X implicit solvation:
   * M. Stahn, S. Ehlert, S. Grimme, J. Phys. Chem. A,
     2023, XX, XXXX-XXXX. DOI: 10.1021/acs.jpca.3c04382
   
   for DFT-D4:
   * E. Caldeweyher, C. Bannwarth and S. Grimme, J. Chem. Phys., 2017,
     147, 034112. DOI: 10.1063/1.4993215
   * E. Caldeweyher, S. Ehlert, A. Hansen, H. Neugebauer, S. Spicher,
     C. Bannwarth and S. Grimme, J. Chem. Phys., 2019, 150, 154122.
     DOI: 10.1063/1.5090222
   * E. Caldeweyher, J.-M. Mewes, S. Ehlert and S. Grimme, Phys. Chem. Chem. Phys.
     2020, 22, 8499-8512. DOI: 10.1039/D0CP00502A
   
   for sTDA-xTB:
   * S. Grimme and C. Bannwarth, J. Chem. Phys., 2016, 145, 054103.
     DOI: 10.1063/1.4959605
   
   in the mass-spec context:
   * V. Asgeirsson, C. Bauer and S. Grimme, Chem. Sci., 2017, 8, 4879.
     DOI: 10.1039/c7sc00601b
   * J. Koopman and S. Grimme, ACS Omega 2019, 4, 12, 15120-15133.
     DOI: 10.1021/acsomega.9b02011
   
   for metadynamics refer to:
   * S. Grimme, J. Chem. Theory Comput., 2019, 155, 2847-2862
     DOI: 10.1021/acs.jctc.9b00143
   
   for SPH calculations refer to:
   * S. Spicher and S. Grimme, J. Chem. Theory Comput., 2021, 17, 1701-1714
     DOI: 10.1021/acs.jctc.0c01306
   
   for ONIOM refer to:
   * C. Plett, A. Katbashev, S. Ehlert, S. Grimme, M. Bursch,
     Phys. Chem. Chem. Phys., 2023, 25, 17860-17868. DOI: 10.1039/D3CP02178E
   
   for DIPRO refer to:
   * J. Kohn, N. Gildemeister, S. Grimme, D. Fazzi, A. Hansen,
     J. Chem. Phys., 2023, just accepted.
   
   for PTB refer to:
   * S. Grimme, M. Mueller, A. Hansen, J. Chem. Phys., 2023, 158, 124111.
     DOI: 10.1063/5.0137838
   
   with help from (in alphabetical order)
   P. Atkinson, C. Bannwarth, F. Bohle, G. Brandenburg, E. Caldeweyher
   M. Checinski, S. Dohm, S. Ehlert, S. Ehrlich, I. Gerasimov, C. Hölzer
   A. Katbashev, J. Kohn, J. Koopman, C. Lavigne, S. Lehtola, F. März, M. Müller,
   F. Musil, H. Neugebauer, J. Pisarek, C. Plett, P. Pracht, F. Pultar,
   J. Seibert, P. Shushkov, S. Spicher, M. Stahn, M. Steiner, T. Strunk,
   J. Stückrath, T. Rose, and J. Unsleber
   
 * started run on 2026/04/11 at 16:57:59.221     
   ID    Z sym.   atoms
    1    7 N      1, 5
    2    6 C      2, 3, 6, 7
    3    8 O      4, 8, 9
    4    1 H      10-17

           -------------------------------------------------
          |                Calculation Setup                |
           -------------------------------------------------

          program call               : /home/analima/Programs/orca-6.1.0-f.0_linux_x86-64/bin/otool_xtb geo_opt_XTB.xyz --grad -c 0 -u 0 -P 1 --namespace geo_opt --input geo_opt_XTB.input.tmp --alpb WATER --acc 0.200000
          calculation namespace      : geo_opt
          coordinate file            : geo_opt_XTB.xyz
          omp threads                :                     1


           -------------------------------------------------
          |                 G F N 2 - x T B                 |
           -------------------------------------------------

        Reference                      10.1021/acs.jctc.8b01176
      * Hamiltonian:
        H0-scaling (s, p, d)           1.850000    2.230000    2.230000
        zeta-weighting                 0.500000
      * Dispersion:
        s8                             2.700000
        a1                             0.520000
        a2                             5.000000
        s9                             5.000000
      * Repulsion:
        kExp                           1.500000    1.000000
        rExp                           1.000000
      * Coulomb:
        alpha                          2.000000
        third order                    shell-resolved
        anisotropic                    true
        a3                             3.000000
        a5                             4.000000
        cn-shift                       1.200000
        cn-exp                         4.000000
        max-rad                        5.000000

      * Solvation model:               ALPB
        Solvent                        WATER
        Parameter file                 internal GFN2-xTB/ALPB
        Dielectric constant                8.0200E+01
        Reference state                gsolv [1 M gas/solution]
        Free energy shift                  1.0808E-03 Eh       6.7819E-01 kcal/mol
        Temperature                        2.9815E+02 K
        Density                            1.0000E+00 kg/L
        Solvent mass                       1.8000E+01 g/mol
        Interaction kernel             P16
        Born radius scaling (c1)           1.4744E+00
        Born radii integrator          GBOBC
        Born offset                        0.0000E+00 a0       0.0000E+00 AA
        H-bond correction              true
        Ion screening                  false
        Surface tension                    1.0000E-05 Eh       1.5569E+01 dyn/cm
        Grid points                               230 per atom
q/qsh data taken from xtbrestart
CAMM data taken from xtbrestart

          ...................................................
          :                      SETUP                      :
          :.................................................:
          :  # basis functions                  44          :
          :  # atomic orbitals                  44          :
          :  # shells                           26          :
          :  # electrons                        52          :
          :  max. iterations                   250          :
          :  Hamiltonian                  GFN2-xTB          :
          :  restarted?                       true          :
          :  GBSA solvation                   true          :
          :  PC potential                    false          :
          :  electronic temp.          300.0000000     K    :
          :  accuracy                    0.2000000          :
          :  -> integral cutoff          0.3198970E+02      :
          :  -> integral neglect         0.2000000E-08      :
          :  -> SCF convergence          0.2000000E-06 Eh   :
          :  -> wf. convergence          0.2000000E-04 e    :
          :  Broyden damping             0.4000000          :
          :  net charge                          0          :
          :  unpaired electrons                  0          :
          ...................................................

 iter      E             dE          RMSdq      gap      omega  full diag
   1    -31.0068966 -0.310069E+02  0.177E-01    3.75       0.0  T
   2    -31.0069168 -0.201434E-04  0.999E-02    3.75       1.0  T
   3    -31.0069192 -0.238259E-05  0.186E-02    3.76       1.3  T
   4    -31.0069197 -0.509026E-06  0.634E-03    3.76       3.8  T
   5    -31.0069197 -0.419573E-07  0.276E-03    3.76       8.8  T
   6    -31.0069197 -0.167015E-07  0.660E-04    3.76      36.7  T
   7    -31.0069197 -0.107933E-08  0.257E-04    3.76      94.5  T
   8    -31.0069197 -0.666738E-10  0.102E-04    3.76     237.7  T
   9    -31.0069197 -0.111804E-10  0.252E-05    3.76     963.2  T

   *** convergence criteria satisfied after 9 iterations ***

         #    Occupation            Energy/Eh            Energy/eV
      -------------------------------------------------------------
         1        2.0000           -0.7251164             -19.7314
       ...           ...                  ...                  ...
        20        2.0000           -0.4831199             -13.1464
        21        2.0000           -0.4664869             -12.6938
        22        2.0000           -0.4378094             -11.9134
        23        2.0000           -0.4233113             -11.5189
        24        2.0000           -0.4050690             -11.0225
        25        2.0000           -0.3904649             -10.6251
        26        2.0000           -0.3630010              -9.8778 (HOMO)
        27                         -0.2248211              -6.1177 (LUMO)
        28                         -0.1736794              -4.7261
        29                         -0.0466620              -1.2697
        30                          0.0177987               0.4843
        31                          0.0459933               1.2515
       ...                                ...                  ...
        44                          0.6615178              18.0008
      -------------------------------------------------------------
                  HL-Gap            0.1381799 Eh            3.7601 eV
             Fermi-level           -0.2939110 Eh           -7.9977 eV

 SCC (total)                   0 d,  0 h,  0 min,  0.009 sec
 SCC setup                      ...        0 min,  0.000 sec (  3.670%)
 Dispersion                     ...        0 min,  0.000 sec (  0.866%)
 classical contributions        ...        0 min,  0.000 sec (  0.191%)
 integral evaluation            ...        0 min,  0.001 sec (  9.962%)
 iterations                     ...        0 min,  0.005 sec ( 51.399%)
 molecular gradient             ...        0 min,  0.003 sec ( 33.153%)
 printout                       ...        0 min,  0.000 sec (  0.611%)

         :::::::::::::::::::::::::::::::::::::::::::::::::::::
         ::                     SUMMARY                     ::
         :::::::::::::::::::::::::::::::::::::::::::::::::::::
         :: total energy             -30.713108608298 Eh    ::
         :: total w/o Gsasa/hb       -30.702250185539 Eh    ::
         :: gradient norm              0.010093524497 Eh/a0 ::
         :: HOMO-LUMO gap              3.760066066732 eV    ::
         ::.................................................::
         :: SCC energy               -31.006899172530 Eh    ::
         :: -> isotropic ES            0.275466048188 Eh    ::
         :: -> anisotropic ES         -0.020181723366 Eh    ::
         :: -> anisotropic XC          0.006507879554 Eh    ::
         :: -> dispersion             -0.011324177126 Eh    ::
         :: -> Gsolv                  -0.123905143484 Eh    ::
         ::    -> Gelec               -0.113046720724 Eh    ::
         ::    -> Gsasa                0.004287332907 Eh    ::
         ::    -> Ghb                 -0.016226515365 Eh    ::
         ::    -> Gshift               0.001080759698 Eh    ::
         :: repulsion energy           0.293790564232 Eh    ::
         :: add. restraining           0.000000000000 Eh    ::
         :: total charge               0.000000000000 e     ::
         :::::::::::::::::::::::::::::::::::::::::::::::::::::


Property printout bound to 'properties.out'

           -------------------------------------------------
          | TOTAL ENERGY              -30.713108608298 Eh   |
          | GRADIENT NORM               0.010093524497 Eh/α |
          | HOMO-LUMO GAP               3.760066066732 eV   |
           -------------------------------------------------

------------------------------------------------------------------------
 * finished run on 2026/04/11 at 16:57:59.236     
------------------------------------------------------------------------
 total:
 * wall-time:     0 d,  0 h,  0 min,  0.015 sec
 *  cpu-time:     0 d,  0 h,  0 min,  0.013 sec
 * ratio c/w:     0.889 speedup
 SCF:
 * wall-time:     0 d,  0 h,  0 min,  0.009 sec
 *  cpu-time:     0 d,  0 h,  0 min,  0.008 sec
 * ratio c/w:     0.846 speedup


-------------------------   --------------------
FINAL SINGLE POINT ENERGY       -30.713108608300
-------------------------   --------------------


-------------
DIPOLE MOMENT
-------------
                                X             Y             Z
Total Dipole Moment    :      8.14600      -0.27500      -4.32200
                        -----------------------------------------
Magnitude (a.u.)       :      9.22565
Magnitude (Debye)      :     23.44974


------------------
CARTESIAN GRADIENT
------------------

   1   N   :    0.000191800   -0.000086261   -0.000925713
   2   C   :    0.000032787    0.001533142   -0.001469279
   3   C   :   -0.003443070   -0.002756857    0.000483530
   4   O   :   -0.000047059    0.001219164   -0.000302235
   5   N   :    0.002113911    0.001959844    0.001285900
   6   C   :    0.000871052   -0.000070653   -0.001848533
   7   C   :    0.002162795    0.002234496    0.004062504
   8   O   :    0.002026632    0.000196479   -0.002193646
   9   O   :   -0.003273880   -0.003305216   -0.001174216
  10   H   :   -0.000039645   -0.000041181    0.000184434
  11   H   :   -0.000388599   -0.000251390    0.000046650
  12   H   :   -0.000002998    0.000067651    0.000277184
  13   H   :    0.000669547   -0.000504874    0.000432966
  14   H   :   -0.000025561   -0.000005566    0.000388212
  15   H   :    0.000017503   -0.000661197    0.000458317
  16   H   :   -0.000836096    0.000149712    0.000204672
  17   H   :   -0.000029120    0.000322709    0.000089253

Difference to translation invariance:
           :   -0.0000000000   -0.0000000000   -0.0000000000

Difference to rotation invariance:
           :    0.0001328477   -0.0002315494    0.0002727719

Norm of the Cartesian gradient     ...    0.0100935245
RMS gradient                       ...    0.0014133761
MAX gradient                       ...    0.0040625039
------------------------------------------------------------------------------
                         ORCA GEOMETRY RELAXATION STEP
------------------------------------------------------------------------------

Reading the OPT-File                    .... done
Getting information on internals        .... done
Copying old internal coords+grads       .... done
Making the new internal coordinates     .... (2022 redundants) done
Validating the new internal coordinates .... (2022 redundants) done
Calculating the B-matrix                .... done
Calculating the G,G- and P matrices     .... done
Transforming gradient to internals      .... done
Projecting the internal gradient        .... done
Number of atoms                         ....  17
Number of internal coordinates          ....  69
Current Energy                          ....   -30.713108608 Eh
Current gradient norm                   ....     0.010093524 Eh/bohr
Maximum allowed component of the step   ....  0.300
Current trust radius                    ....  0.675
Updating the Hessian (BFGS)             .... done
Forming the augmented Hessian           .... done
Diagonalizing the augmented Hessian     .... done
Last element of RFO vector              ....  0.976350687
Lowest eigenvalues of augmented Hessian:
 -0.000414046  0.004612633  0.013871598  0.015315759  0.020362110
Length of the computed step             ....  0.221429475
The final length of the internal step   ....  0.221429475
Converting the step to Cartesian space:
 Initial RMS(Int)=    0.0266569762
Transforming coordinates:
 Iter   0:  RMS(Cart)=    0.0439611711 RMS(Int)=    0.0265118976
 Iter   5:  RMS(Cart)=    0.0000000111 RMS(Int)=    0.0000000085
done
Storing new coordinates                 .... done
The predicted energy change is          ....    -0.000217173
Previously predicted energy change      ....    -0.000473750
Actually observed energy change         ....    -0.000539811
Ratio of predicted to observed change   ....     1.139443523
New trust radius                        ....     0.700000000

                                .--------------------.
          ----------------------|Geometry convergence|-------------------------
          Item                value                   Tolerance       Converged
          ---------------------------------------------------------------------
          Energy change      -0.0005398110            0.0000050000      NO
          RMS gradient        0.0009168253            0.0001000000      NO
          MAX gradient        0.0045465846            0.0003000000      NO
          RMS step            0.0266569762            0.0020000000      NO
          MAX step            0.0992515945            0.0040000000      NO
          -------------------------------------------------------------------------
          ........................................................
          Max(Bonds)      0.0058      Max(Angles)    0.91
          Max(Dihed)        5.69      Max(Improp)    0.00
          ---------------------------------------------------------------------

The optimization has not yet converged - more geometry cycles are needed


    ---------------------------------------------------------------------------
                         Redundant Internal Coordinates
                            (Angstroem and degrees)

        Definition                    Value    dE/dq     Step     New-Value
    ----------------------------------------------------------------------------
     1. B(C   1,N   0)                1.4735 -0.000272 -0.0008    1.4727   
     2. B(C   2,C   1)                1.5438  0.001402 -0.0019    1.5419   
     3. B(O   3,C   2)                1.2300 -0.000746  0.0012    1.2312   
     4. B(N   4,C   2)                1.3282 -0.003172  0.0043    1.3326   
     5. B(C   5,N   4)                1.4401 -0.001104  0.0012    1.4412   
     6. B(C   6,C   5)                1.5818 -0.000363  0.0009    1.5827   
     7. B(O   7,C   6)                1.2393 -0.002938  0.0008    1.2401   
     8. B(O   8,C   6)                1.2393 -0.004547  0.0032    1.2425   
     9. B(H   9,N   0)                1.0235  0.000011 -0.0000    1.0235   
    10. B(H  10,N   0)                1.0562  0.000160  0.0017    1.0579   
    11. B(H  10,O   3)                1.7950 -0.000250 -0.0058    1.7892   
    12. B(H  11,N   0)                1.0231 -0.000140  0.0002    1.0233   
    13. B(H  12,C   1)                1.0888 -0.000003  0.0002    1.0890   
    14. B(H  13,C   1)                1.0884 -0.000073  0.0005    1.0888   
    15. B(H  14,N   4)                1.0092 -0.000746  0.0017    1.0109   
    16. B(H  15,C   5)                1.0909 -0.000112 -0.0003    1.0906   
    17. B(H  16,C   5)                1.0874 -0.000068  0.0001    1.0876   
    18. A(H  10,N   0,H  11)          109.75 -0.000070   -0.01    109.74   
    19. A(H   9,N   0,H  11)          110.00 -0.000105    0.10    110.10   
    20. A(C   1,N   0,H  10)          102.29 -0.000320   -0.22    102.07   
    21. A(H   9,N   0,H  10)          108.03  0.000001    0.03    108.06   
    22. A(C   1,N   0,H   9)          112.74  0.000094    0.08    112.82   
    23. A(C   1,N   0,H  11)          113.61  0.000367   -0.02    113.59   
    24. A(N   0,C   1,H  13)          111.90  0.000154   -0.02    111.88   
    25. A(C   2,C   1,H  12)          109.20  0.000319   -0.11    109.10   
    26. A(H  12,C   1,H  13)          110.06  0.000431   -0.10    109.96   
    27. A(C   2,C   1,H  13)          108.18 -0.000129   -0.09    108.10   
    28. A(N   0,C   1,C   2)          105.97 -0.000280    0.16    106.12   
    29. A(N   0,C   1,H  12)          111.37 -0.000506    0.13    111.50   
    30. A(C   1,C   2,N   4)          116.01 -0.000717    0.40    116.41   
    31. A(C   1,C   2,O   3)          117.72  0.000146   -0.15    117.57   
    32. A(O   3,C   2,N   4)          126.10  0.000605   -0.20    125.90   
    33. A(C   5,N   4,H  14)          115.30  0.000543   -0.91    114.39   
    34. A(C   2,N   4,C   5)          119.22 -0.000915   -0.49    118.73   
    35. A(C   2,N   4,H  14)          117.63  0.000372   -0.73    116.89   
    36. A(C   6,C   5,H  16)          108.77  0.000306    0.38    109.15   
    37. A(N   4,C   5,H  16)          110.86  0.000206   -0.04    110.82   
    38. A(C   6,C   5,H  15)          106.79 -0.000380   -0.16    106.63   
    39. A(N   4,C   5,C   6)          109.79 -0.001043   -0.18    109.60   
    40. A(N   4,C   5,H  15)          110.96  0.000681   -0.09    110.87   
    41. A(H  15,C   5,H  16)          109.56  0.000203    0.08    109.64   
    42. A(C   5,C   6,O   7)          115.80 -0.000190    0.17    115.97   
    43. A(O   7,C   6,O   8)          128.49  0.000819   -0.14    128.36   
    44. A(C   5,C   6,O   8)          115.69 -0.000667   -0.10    115.60   
    45. D(H  12,C   1,N   0,H   9)    128.75  0.000219   -0.14    128.62   
    46. D(H  12,C   1,N   0,H  11)      2.74 -0.000023   -0.36      2.38   
    47. D(C   2,C   1,N   0,H  10)      3.17  0.000021   -0.12      3.05   
    48. D(H  12,C   1,N   0,H  10)   -115.47  0.000080   -0.20   -115.67   
    49. D(C   2,C   1,N   0,H  11)    121.38 -0.000081   -0.29    121.09   
    50. D(C   2,C   1,N   0,H   9)   -112.60  0.000160   -0.06   -112.67   
    51. D(O   3,C   2,C   1,N   0)     -1.80  0.000365    0.04     -1.76   
    52. D(N   4,C   2,C   1,N   0)   -177.28 -0.000109    1.44   -175.83   
    53. D(O   3,C   2,C   1,H  13)   -121.96  0.000404    0.02   -121.93   
    54. D(N   4,C   2,C   1,H  12)    -57.21 -0.000699    1.65    -55.56   
    55. D(O   3,C   2,C   1,H  12)    118.27 -0.000224    0.25    118.51   
    56. D(H  14,N   4,C   2,C   1)    -14.43 -0.000029   -2.74    -17.17   
    57. D(C   5,N   4,C   2,O   3)     22.82 -0.000699    2.81     25.63   
    58. D(H  14,N   4,C   2,O   3)    170.54 -0.000518   -1.36    169.18   
    59. D(C   5,N   4,C   2,C   1)   -162.14 -0.000210    1.43   -160.72   
    60. D(H  16,C   5,N   4,C   2)   -178.20 -0.000793    1.67   -176.53   
    61. D(H  15,C   5,N   4,H  14)    155.34 -0.000061    5.69    161.03   
    62. D(H  15,C   5,N   4,C   2)    -56.22  0.000076    1.69    -54.53   
    63. D(C   6,C   5,N   4,H  14)    -86.85 -0.000765    5.35    -81.50   
    64. D(C   6,C   5,N   4,C   2)     61.59 -0.000628    1.35     62.94   
    65. D(O   8,C   6,C   5,H  15)    124.78  0.001467   -4.38    120.41   
    66. D(O   8,C   6,C   5,N   4)      4.41  0.001460   -4.12      0.29   
    67. D(O   7,C   6,C   5,H  16)     61.76 -0.000137   -3.06     58.70   
    68. D(O   7,C   6,C   5,H  15)    -56.40 -0.000329   -3.25    -59.65   
    69. D(O   7,C   6,C   5,N   4)   -176.78 -0.000337   -2.99   -179.77   
    ----------------------------------------------------------------------------

Geometry step timings:
Preparation and reading OPT file:      0.000 s ( 1.193 %)
Internal coordinates            :      0.000 s ( 1.074 %)
B/P matrices and projection     :      0.000 s (37.947 %)
Hessian update/contruction      :      0.000 s (11.337 %)
Making the step                 :      0.000 s (28.878 %)
Converting the step to Cartesian:      0.000 s ( 3.341 %)
Storing new data                :      0.000 s ( 1.193 %)
Checking convergence            :      0.000 s ( 1.432 %)
Final printing                  :      0.000 s (13.604 %)
Total time                      :      0.001 s

Time for energy+gradient        :      0.019 s
Time for complete geometry iter :      0.020 s

         *************************************************************
         *                GEOMETRY OPTIMIZATION CYCLE   9            *
         *************************************************************
---------------------------------
CARTESIAN COORDINATES (ANGSTROEM)
---------------------------------
  N     2.593479    0.357945    0.072055
  C     1.412378    0.405449   -0.806310
  C     0.293169   -0.348303   -0.060210
  O     0.571974   -0.845486    1.031107
  N    -0.855868   -0.502567   -0.717221
  C    -2.047811   -0.805003    0.034422
  C    -2.375482    0.393053    1.015329
  O    -3.381779    0.253668    1.726462
  O    -1.589019    1.353987    0.971271
  H     2.852380    1.277461    0.439391
  H     2.245606   -0.231443    0.878769
  H     3.406278   -0.090574   -0.358332
  H     1.602233   -0.088971   -1.757827
  H     1.075685    1.426432   -0.978847
  H    -1.008347    0.095725   -1.517723
  H    -1.900927   -1.687755    0.657827
  H    -2.893948   -0.963616   -0.630163

----------------------------
CARTESIAN COORDINATES (A.U.)
----------------------------
  NO LB    ZA    FRAG    MASS        X           Y           Z
   0 N   7.0000    0    14.007    4.900964    0.676418    0.136164
   1 C   6.0000    0    12.011    2.669007    0.766188   -1.523706
   2 C   6.0000    0    12.011    0.554009   -0.658198   -0.113780
   3 O   8.0000    0    15.999    1.080874   -1.597737    1.948510
   4 N   7.0000    0    14.007   -1.617357   -0.949715   -1.355352
   5 C   6.0000    0    12.011   -3.869802   -1.521236    0.065048
   6 C   6.0000    0    12.011   -4.489011    0.742762    1.918694
   7 O   8.0000    0    15.999   -6.390636    0.479362    3.262541
   8 O   8.0000    0    15.999   -3.002811    2.558664    1.835435
   9 H   1.0000    0     1.008    5.390218    2.414051    0.830329
  10 H   1.0000    0     1.008    4.243579   -0.437363    1.660633
  11 H   1.0000    0     1.008    6.436933   -0.171159   -0.677149
  12 H   1.0000    0     1.008    3.027782   -0.168130   -3.321812
  13 H   1.0000    0     1.008    2.032749    2.695566   -1.849752
  14 H   1.0000    0     1.008   -1.905500    0.180894   -2.868082
  15 H   1.0000    0     1.008   -3.592231   -3.189396    1.243114
  16 H   1.0000    0     1.008   -5.468769   -1.820970   -1.190836

      -----------------------------------------------------------      
     |                   =====================                   |     
     |                           x T B                           |     
     |                   =====================                   |     
     |                         S. Grimme                         |     
     |          Mulliken Center for Theoretical Chemistry        |     
     |                    University of Bonn                     |     
      -----------------------------------------------------------      

   * xtb version 6.7.1 (edcfbbe) compiled by 'albert@albert-system' on 2024-07-22

   xtb is free software: you can redistribute it and/or modify it under
   the terms of the GNU Lesser General Public License as published by
   the Free Software Foundation, either version 3 of the License, or
   (at your option) any later version.
   
   xtb is distributed in the hope that it will be useful,
   but WITHOUT ANY WARRANTY; without even the implied warranty of
   MERCHANTABILITY or FITNESS FOR A PARTICULAR PURPOSE.  See the
   GNU Lesser General Public License for more details.
   
   Cite this work as:
   * C. Bannwarth, E. Caldeweyher, S. Ehlert, A. Hansen, P. Pracht,
     J. Seibert, S. Spicher, S. Grimme, WIREs Comput. Mol. Sci., 2020, 11,
     e01493. DOI: 10.1002/wcms.1493
   
   for GFN2-xTB:
   * C. Bannwarth, S. Ehlert and S. Grimme., J. Chem. Theory Comput., 2019,
     15, 1652-1671. DOI: 10.1021/acs.jctc.8b01176
   for GFN1-xTB:
   * S. Grimme, C. Bannwarth, P. Shushkov, J. Chem. Theory Comput., 2017,
     13, 1989-2009. DOI: 10.1021/acs.jctc.7b00118
   for GFN0-xTB:
   * P. Pracht, E. Caldeweyher, S. Ehlert, S. Grimme, ChemRxiv, 2019, preprint.
     DOI: 10.26434/chemrxiv.8326202.v1
   for GFN-FF:
   * S. Spicher and S. Grimme, Angew. Chem. Int. Ed., 2020, 59, 15665-15673.
     DOI: 10.1002/anie.202004239
   
   for ALPB and GBSA implicit solvation:
   * S. Ehlert, M. Stahn, S. Spicher, S. Grimme, J. Chem. Theory Comput.,
     2021, 17, 4250-4261. DOI: 10.1021/acs.jctc.1c00471
   
   for ddCOSMO and CPCM-X implicit solvation:
   * M. Stahn, S. Ehlert, S. Grimme, J. Phys. Chem. A,
     2023, XX, XXXX-XXXX. DOI: 10.1021/acs.jpca.3c04382
   
   for DFT-D4:
   * E. Caldeweyher, C. Bannwarth and S. Grimme, J. Chem. Phys., 2017,
     147, 034112. DOI: 10.1063/1.4993215
   * E. Caldeweyher, S. Ehlert, A. Hansen, H. Neugebauer, S. Spicher,
     C. Bannwarth and S. Grimme, J. Chem. Phys., 2019, 150, 154122.
     DOI: 10.1063/1.5090222
   * E. Caldeweyher, J.-M. Mewes, S. Ehlert and S. Grimme, Phys. Chem. Chem. Phys.
     2020, 22, 8499-8512. DOI: 10.1039/D0CP00502A
   
   for sTDA-xTB:
   * S. Grimme and C. Bannwarth, J. Chem. Phys., 2016, 145, 054103.
     DOI: 10.1063/1.4959605
   
   in the mass-spec context:
   * V. Asgeirsson, C. Bauer and S. Grimme, Chem. Sci., 2017, 8, 4879.
     DOI: 10.1039/c7sc00601b
   * J. Koopman and S. Grimme, ACS Omega 2019, 4, 12, 15120-15133.
     DOI: 10.1021/acsomega.9b02011
   
   for metadynamics refer to:
   * S. Grimme, J. Chem. Theory Comput., 2019, 155, 2847-2862
     DOI: 10.1021/acs.jctc.9b00143
   
   for SPH calculations refer to:
   * S. Spicher and S. Grimme, J. Chem. Theory Comput., 2021, 17, 1701-1714
     DOI: 10.1021/acs.jctc.0c01306
   
   for ONIOM refer to:
   * C. Plett, A. Katbashev, S. Ehlert, S. Grimme, M. Bursch,
     Phys. Chem. Chem. Phys., 2023, 25, 17860-17868. DOI: 10.1039/D3CP02178E
   
   for DIPRO refer to:
   * J. Kohn, N. Gildemeister, S. Grimme, D. Fazzi, A. Hansen,
     J. Chem. Phys., 2023, just accepted.
   
   for PTB refer to:
   * S. Grimme, M. Mueller, A. Hansen, J. Chem. Phys., 2023, 158, 124111.
     DOI: 10.1063/5.0137838
   
   with help from (in alphabetical order)
   P. Atkinson, C. Bannwarth, F. Bohle, G. Brandenburg, E. Caldeweyher
   M. Checinski, S. Dohm, S. Ehlert, S. Ehrlich, I. Gerasimov, C. Hölzer
   A. Katbashev, J. Kohn, J. Koopman, C. Lavigne, S. Lehtola, F. März, M. Müller,
   F. Musil, H. Neugebauer, J. Pisarek, C. Plett, P. Pracht, F. Pultar,
   J. Seibert, P. Shushkov, S. Spicher, M. Stahn, M. Steiner, T. Strunk,
   J. Stückrath, T. Rose, and J. Unsleber
   
 * started run on 2026/04/11 at 16:57:59.241     
   ID    Z sym.   atoms
    1    7 N      1, 5
    2    6 C      2, 3, 6, 7
    3    8 O      4, 8, 9
    4    1 H      10-17

           -------------------------------------------------
          |                Calculation Setup                |
           -------------------------------------------------

          program call               : /home/analima/Programs/orca-6.1.0-f.0_linux_x86-64/bin/otool_xtb geo_opt_XTB.xyz --grad -c 0 -u 0 -P 1 --namespace geo_opt --input geo_opt_XTB.input.tmp --alpb WATER --acc 0.200000
          calculation namespace      : geo_opt
          coordinate file            : geo_opt_XTB.xyz
          omp threads                :                     1


           -------------------------------------------------
          |                 G F N 2 - x T B                 |
           -------------------------------------------------

        Reference                      10.1021/acs.jctc.8b01176
      * Hamiltonian:
        H0-scaling (s, p, d)           1.850000    2.230000    2.230000
        zeta-weighting                 0.500000
      * Dispersion:
        s8                             2.700000
        a1                             0.520000
        a2                             5.000000
        s9                             5.000000
      * Repulsion:
        kExp                           1.500000    1.000000
        rExp                           1.000000
      * Coulomb:
        alpha                          2.000000
        third order                    shell-resolved
        anisotropic                    true
        a3                             3.000000
        a5                             4.000000
        cn-shift                       1.200000
        cn-exp                         4.000000
        max-rad                        5.000000

      * Solvation model:               ALPB
        Solvent                        WATER
        Parameter file                 internal GFN2-xTB/ALPB
        Dielectric constant                8.0200E+01
        Reference state                gsolv [1 M gas/solution]
        Free energy shift                  1.0808E-03 Eh       6.7819E-01 kcal/mol
        Temperature                        2.9815E+02 K
        Density                            1.0000E+00 kg/L
        Solvent mass                       1.8000E+01 g/mol
        Interaction kernel             P16
        Born radius scaling (c1)           1.4744E+00
        Born radii integrator          GBOBC
        Born offset                        0.0000E+00 a0       0.0000E+00 AA
        H-bond correction              true
        Ion screening                  false
        Surface tension                    1.0000E-05 Eh       1.5569E+01 dyn/cm
        Grid points                               230 per atom
q/qsh data taken from xtbrestart
CAMM data taken from xtbrestart

          ...................................................
          :                      SETUP                      :
          :.................................................:
          :  # basis functions                  44          :
          :  # atomic orbitals                  44          :
          :  # shells                           26          :
          :  # electrons                        52          :
          :  max. iterations                   250          :
          :  Hamiltonian                  GFN2-xTB          :
          :  restarted?                       true          :
          :  GBSA solvation                   true          :
          :  PC potential                    false          :
          :  electronic temp.          300.0000000     K    :
          :  accuracy                    0.2000000          :
          :  -> integral cutoff          0.3198970E+02      :
          :  -> integral neglect         0.2000000E-08      :
          :  -> SCF convergence          0.2000000E-06 Eh   :
          :  -> wf. convergence          0.2000000E-04 e    :
          :  Broyden damping             0.4000000          :
          :  net charge                          0          :
          :  unpaired electrons                  0          :
          ...................................................

 iter      E             dE          RMSdq      gap      omega  full diag
   1    -31.0046046 -0.310046E+02  0.167E-01    3.73       0.0  T
   2    -31.0046159 -0.113342E-04  0.973E-02    3.73       1.0  T
   3    -31.0046160 -0.744115E-07  0.157E-02    3.73       1.5  T
   4    -31.0046175 -0.148919E-05  0.449E-03    3.73       5.4  T
   5    -31.0046175 -0.501168E-07  0.242E-03    3.73      10.0  T
   6    -31.0046175 -0.432374E-08  0.435E-04    3.73      55.7  T
   7    -31.0046175 -0.302549E-09  0.206E-04    3.73     117.7  T
   8    -31.0046175 -0.719318E-10  0.621E-05    3.73     390.6  T
   9    -31.0046175 -0.105800E-10  0.183E-05    3.73    1325.2  T

   *** convergence criteria satisfied after 9 iterations ***

         #    Occupation            Energy/Eh            Energy/eV
      -------------------------------------------------------------
         1        2.0000           -0.7253114             -19.7367
       ...           ...                  ...                  ...
        20        2.0000           -0.4829949             -13.1430
        21        2.0000           -0.4658450             -12.6763
        22        2.0000           -0.4395023             -11.9595
        23        2.0000           -0.4238344             -11.5331
        24        2.0000           -0.4057425             -11.0408
        25        2.0000           -0.3911437             -10.6436
        26        2.0000           -0.3639487              -9.9035 (HOMO)
        27                         -0.2268597              -6.1732 (LUMO)
        28                         -0.1755046              -4.7757
        29                         -0.0463392              -1.2610
        30                          0.0188372               0.5126
        31                          0.0471285               1.2824
       ...                                ...                  ...
        44                          0.6530463              17.7703
      -------------------------------------------------------------
                  HL-Gap            0.1370890 Eh            3.7304 eV
             Fermi-level           -0.2954042 Eh           -8.0384 eV

 SCC (total)                   0 d,  0 h,  0 min,  0.008 sec
 SCC setup                      ...        0 min,  0.000 sec (  2.541%)
 Dispersion                     ...        0 min,  0.000 sec (  0.533%)
 classical contributions        ...        0 min,  0.000 sec (  0.127%)
 integral evaluation            ...        0 min,  0.001 sec (  8.205%)
 iterations                     ...        0 min,  0.005 sec ( 62.743%)
 molecular gradient             ...        0 min,  0.002 sec ( 25.087%)
 printout                       ...        0 min,  0.000 sec (  0.609%)

         :::::::::::::::::::::::::::::::::::::::::::::::::::::
         ::                     SUMMARY                     ::
         :::::::::::::::::::::::::::::::::::::::::::::::::::::
         :: total energy             -30.713389873931 Eh    ::
         :: total w/o Gsasa/hb       -30.702526475787 Eh    ::
         :: gradient norm              0.005335193462 Eh/a0 ::
         :: HOMO-LUMO gap              3.730381532459 eV    ::
         ::.................................................::
         :: SCC energy               -31.004597491702 Eh    ::
         :: -> isotropic ES            0.273851787109 Eh    ::
         :: -> anisotropic ES         -0.020558959163 Eh    ::
         :: -> anisotropic XC          0.006626785402 Eh    ::
         :: -> dispersion             -0.011329428659 Eh    ::
         :: -> Gsolv                  -0.122737638796 Eh    ::
         ::    -> Gelec               -0.111874240652 Eh    ::
         ::    -> Gsasa                0.004224732951 Eh    ::
         ::    -> Ghb                 -0.016168890793 Eh    ::
         ::    -> Gshift               0.001080759698 Eh    ::
         :: repulsion energy           0.291207617771 Eh    ::
         :: add. restraining           0.000000000000 Eh    ::
         :: total charge               0.000000000000 e     ::
         :::::::::::::::::::::::::::::::::::::::::::::::::::::


Property printout bound to 'properties.out'

           -------------------------------------------------
          | TOTAL ENERGY              -30.713389873931 Eh   |
          | GRADIENT NORM               0.005335193462 Eh/α |
          | HOMO-LUMO GAP               3.730381532459 eV   |
           -------------------------------------------------

------------------------------------------------------------------------
 * finished run on 2026/04/11 at 16:57:59.253     
------------------------------------------------------------------------
 total:
 * wall-time:     0 d,  0 h,  0 min,  0.012 sec
 *  cpu-time:     0 d,  0 h,  0 min,  0.010 sec
 * ratio c/w:     0.861 speedup
 SCF:
 * wall-time:     0 d,  0 h,  0 min,  0.008 sec
 *  cpu-time:     0 d,  0 h,  0 min,  0.006 sec
 * ratio c/w:     0.805 speedup


-------------------------   --------------------
FINAL SINGLE POINT ENERGY       -30.713389873930
-------------------------   --------------------


-------------
DIPOLE MOMENT
-------------
                                X             Y             Z
Total Dipole Moment    :      8.13200      -0.28400      -4.19800
                        -----------------------------------------
Magnitude (a.u.)       :      9.15605
Magnitude (Debye)      :     23.27283


------------------
CARTESIAN GRADIENT
------------------

   1   N   :    0.000468298    0.000740659   -0.001663612
   2   C   :    0.000717561    0.000596834   -0.000366248
   3   C   :   -0.002603914    0.000074210   -0.000407432
   4   O   :    0.000688640    0.000150063    0.000752497
   5   N   :    0.000884508   -0.000311077    0.000112723
   6   C   :    0.001051355   -0.001087505   -0.001368241
   7   C   :   -0.000218040    0.000927451    0.001955604
   8   O   :    0.001117147   -0.000208013   -0.000539078
   9   O   :   -0.000641387   -0.000411427   -0.000568744
  10   H   :   -0.000027723    0.000040897    0.000342529
  11   H   :   -0.000824737   -0.000690466    0.000392806
  12   H   :    0.000131797   -0.000106339    0.000165029
  13   H   :    0.000501366   -0.000545626    0.000343078
  14   H   :   -0.000047559    0.000057338    0.000386500
  15   H   :   -0.000298692    0.000315810    0.000207396
  16   H   :   -0.000932108    0.000204870    0.000339643
  17   H   :    0.000033487    0.000252320   -0.000084451

Difference to translation invariance:
           :   -0.0000000000   -0.0000000000    0.0000000000

Difference to rotation invariance:
           :    0.0002060973   -0.0000639648    0.0002021743

Norm of the Cartesian gradient     ...    0.0053351935
RMS gradient                       ...    0.0007470765
MAX gradient                       ...    0.0026039142
------------------------------------------------------------------------------
                         ORCA GEOMETRY RELAXATION STEP
------------------------------------------------------------------------------

Reading the OPT-File                    .... done
Getting information on internals        .... done
Copying old internal coords+grads       .... done
Making the new internal coordinates     .... (2022 redundants) done
Validating the new internal coordinates .... (2022 redundants) done
Calculating the B-matrix                .... done
Calculating the G,G- and P matrices     .... done
Transforming gradient to internals      .... done
Projecting the internal gradient        .... done
Number of atoms                         ....  17
Number of internal coordinates          ....  69
Current Energy                          ....   -30.713389874 Eh
Current gradient norm                   ....     0.005335193 Eh/bohr
Maximum allowed component of the step   ....  0.300
Current trust radius                    ....  0.700
Updating the Hessian (BFGS)             .... done
Forming the augmented Hessian           .... done
Diagonalizing the augmented Hessian     .... done
Last element of RFO vector              ....  0.983699579
Lowest eigenvalues of augmented Hessian:
 -0.000242144  0.003702067  0.013843676  0.015232058  0.019859706
Length of the computed step             ....  0.182799445
The final length of the internal step   ....  0.182799445
Converting the step to Cartesian space:
 Initial RMS(Int)=    0.0220064671
Transforming coordinates:
 Iter   0:  RMS(Cart)=    0.0394916792 RMS(Int)=    0.7491755221
 Iter   5:  RMS(Cart)=    0.0000000153 RMS(Int)=    0.0000000108
done
Storing new coordinates                 .... done
The predicted energy change is          ....    -0.000125118
Previously predicted energy change      ....    -0.000217173
Actually observed energy change         ....    -0.000281266
Ratio of predicted to observed change   ....     1.295120631
New trust radius                        ....     0.700000000

                                .--------------------.
          ----------------------|Geometry convergence|-------------------------
          Item                value                   Tolerance       Converged
          ---------------------------------------------------------------------
          Energy change      -0.0002812656            0.0000050000      NO
          RMS gradient        0.0004349533            0.0001000000      NO
          MAX gradient        0.0012325509            0.0003000000      NO
          RMS step            0.0220064671            0.0020000000      NO
          MAX step            0.0771177634            0.0040000000      NO
          -------------------------------------------------------------------------
          ........................................................
          Max(Bonds)      0.0080      Max(Angles)    0.50
          Max(Dihed)        4.42      Max(Improp)    0.00
          ---------------------------------------------------------------------

The optimization has not yet converged - more geometry cycles are needed


    ---------------------------------------------------------------------------
                         Redundant Internal Coordinates
                            (Angstroem and degrees)

        Definition                    Value    dE/dq     Step     New-Value
    ----------------------------------------------------------------------------
     1. B(C   1,N   0)                1.4727 -0.000403  0.0001    1.4728   
     2. B(C   2,C   1)                1.5419  0.001233 -0.0031    1.5388   
     3. B(O   3,C   2)                1.2312  0.000764  0.0002    1.2314   
     4. B(N   4,C   2)                1.3326 -0.000854  0.0032    1.3357   
     5. B(C   5,N   4)                1.4412 -0.000412  0.0010    1.4422   
     6. B(C   6,C   5)                1.5827  0.000715 -0.0019    1.5808   
     7. B(O   7,C   6)                1.2401 -0.001194  0.0013    1.2414   
     8. B(O   8,C   6)                1.2425 -0.000699  0.0021    1.2446   
     9. B(H   9,N   0)                1.0235  0.000151 -0.0002    1.0232   
    10. B(H  10,N   0)                1.0579  0.000746 -0.0008    1.0571   
    11. B(H  10,O   3)                1.7892 -0.000371  0.0080    1.7972   
    12. B(H  11,N   0)                1.0233  0.000084 -0.0000    1.0232   
    13. B(H  12,C   1)                1.0890  0.000039  0.0002    1.0892   
    14. B(H  13,C   1)                1.0888  0.000003  0.0004    1.0892   
    15. B(H  14,N   4)                1.0109  0.000065  0.0008    1.0117   
    16. B(H  15,C   5)                1.0906 -0.000097 -0.0000    1.0906   
    17. B(H  16,C   5)                1.0876 -0.000013  0.0003    1.0878   
    18. A(H  10,N   0,H  11)          109.74 -0.000015    0.02    109.75   
    19. A(H   9,N   0,H  11)          110.11 -0.000054   -0.02    110.09   
    20. A(C   1,N   0,H  10)          102.07 -0.000605    0.16    102.23   
    21. A(H   9,N   0,H  10)          108.06  0.000053    0.06    108.12   
    22. A(C   1,N   0,H   9)          112.83  0.000239   -0.06    112.76   
    23. A(C   1,N   0,H  11)          113.60  0.000329   -0.16    113.44   
    24. A(N   0,C   1,H  13)          111.89 -0.000099   -0.02    111.86   
    25. A(C   2,C   1,H  12)          109.11  0.000059   -0.06    109.05   
    26. A(H  12,C   1,H  13)          109.95  0.000474   -0.33    109.62   
    27. A(C   2,C   1,H  13)          108.10 -0.000233   -0.04    108.06   
    28. A(N   0,C   1,C   2)          106.13  0.000396    0.20    106.33   
    29. A(N   0,C   1,H  12)          111.51 -0.000593    0.25    111.77   
    30. A(C   1,C   2,N   4)          116.35  0.000372    0.13    116.48   
    31. A(C   1,C   2,O   3)          117.51 -0.000531    0.06    117.57   
    32. A(O   3,C   2,N   4)          125.84  0.000153   -0.27    125.57   
    33. A(C   5,N   4,H  14)          114.36  0.000164   -0.48    113.88   
    34. A(C   2,N   4,C   5)          118.70 -0.000680   -0.16    118.55   
    35. A(C   2,N   4,H  14)          116.87  0.000299   -0.50    116.37   
    36. A(C   6,C   5,H  16)          109.15  0.000279    0.13    109.28   
    37. A(N   4,C   5,H  16)          110.81  0.000091   -0.11    110.71   
    38. A(C   6,C   5,H  15)          106.64 -0.000498    0.16    106.80   
    39. A(N   4,C   5,C   6)          109.61 -0.000690    0.03    109.64   
    40. A(N   4,C   5,H  15)          110.89  0.000797   -0.21    110.68   
    41. A(H  15,C   5,H  16)          109.64 -0.000007    0.01    109.65   
    42. A(C   5,C   6,O   7)          116.00 -0.000137    0.16    116.16   
    43. A(O   7,C   6,O   8)          128.38  0.000366   -0.17    128.21   
    44. A(C   5,C   6,O   8)          115.62 -0.000229    0.04    115.66   
    45. D(H  12,C   1,N   0,H   9)    128.62  0.000295   -0.60    128.02   
    46. D(H  12,C   1,N   0,H  11)      2.39 -0.000112   -0.43      1.96   
    47. D(C   2,C   1,N   0,H  10)      3.04  0.000106   -0.26      2.78   
    48. D(H  12,C   1,N   0,H  10)   -115.66  0.000118   -0.46   -116.12   
    49. D(C   2,C   1,N   0,H  11)    121.09 -0.000123   -0.23    120.86   
    50. D(C   2,C   1,N   0,H   9)   -112.68  0.000284   -0.40   -113.08   
    51. D(O   3,C   2,C   1,N   0)     -1.73  0.000144    0.26     -1.48   
    52. D(N   4,C   2,C   1,N   0)   -175.87  0.000194    0.41   -175.47   
    53. D(O   3,C   2,C   1,H  13)   -121.91  0.000166    0.19   -121.72   
    54. D(N   4,C   2,C   1,H  12)    -55.60 -0.000252    0.80    -54.80   
    55. D(O   3,C   2,C   1,H  12)    118.54 -0.000302    0.65    119.19   
    56. D(H  14,N   4,C   2,C   1)    -17.19 -0.000503    0.23    -16.97   
    57. D(C   5,N   4,C   2,O   3)     25.65 -0.000122    1.36     27.01   
    58. D(H  14,N   4,C   2,O   3)    169.22 -0.000405    0.44    169.66   
    59. D(C   5,N   4,C   2,C   1)   -160.76 -0.000220    1.15   -159.61   
    60. D(H  16,C   5,N   4,C   2)   -176.53 -0.000564    1.97   -174.56   
    61. D(H  15,C   5,N   4,H  14)    161.03  0.000256    2.60    163.63   
    62. D(H  15,C   5,N   4,C   2)    -54.53  0.000037    1.78    -52.75   
    63. D(C   6,C   5,N   4,H  14)    -81.50 -0.000301    2.69    -78.81   
    64. D(C   6,C   5,N   4,C   2)     62.94 -0.000520    1.86     64.80   
    65. D(O   8,C   6,C   5,H  15)    120.40  0.000768   -4.42    115.98   
    66. D(O   8,C   6,C   5,N   4)      0.30  0.000487   -4.29     -3.99   
    67. D(O   7,C   6,C   5,H  16)     58.70  0.000232   -3.55     55.15   
    68. D(O   7,C   6,C   5,H  15)    -59.66  0.000370   -3.72    -63.38   
    69. D(O   7,C   6,C   5,N   4)   -179.76  0.000089   -3.59   -183.35   
    ----------------------------------------------------------------------------

Geometry step timings:
Preparation and reading OPT file:      0.000 s ( 1.208 %)
Internal coordinates            :      0.000 s ( 1.087 %)
B/P matrices and projection     :      0.000 s (38.164 %)
Hessian update/contruction      :      0.000 s (11.473 %)
Making the step                 :      0.000 s (28.623 %)
Converting the step to Cartesian:      0.000 s ( 3.261 %)
Storing new data                :      0.000 s ( 1.329 %)
Checking convergence            :      0.000 s ( 1.449 %)
Final printing                  :      0.000 s (13.406 %)
Total time                      :      0.001 s

Time for energy+gradient        :      0.015 s
Time for complete geometry iter :      0.016 s

         *************************************************************
         *                GEOMETRY OPTIMIZATION CYCLE  10            *
         *************************************************************
---------------------------------
CARTESIAN COORDINATES (ANGSTROEM)
---------------------------------
  N     2.599954    0.354050    0.065582
  C     1.407695    0.414694   -0.796872
  C     0.300621   -0.358624   -0.059249
  O     0.588948   -0.876542    1.020090
  N    -0.855206   -0.511750   -0.710997
  C    -2.044501   -0.811496    0.047719
  C    -2.391667    0.405756    0.994578
  O    -3.435243    0.301921    1.658809
  O    -1.573875    1.343947    0.987774
  H     2.861901    1.267897    0.444070
  H     2.266494   -0.250213    0.866332
  H     3.407014   -0.084271   -0.385594
  H     1.584617   -0.053631   -1.764163
  H     1.064607    1.438082   -0.943232
  H    -1.013381    0.098655   -1.502150
  H    -1.882350   -1.676035    0.692494
  H    -2.885628   -1.002441   -0.615192

----------------------------
CARTESIAN COORDINATES (A.U.)
----------------------------
  NO LB    ZA    FRAG    MASS        X           Y           Z
   0 N   7.0000    0    14.007    4.913201    0.669058    0.123932
   1 C   6.0000    0    12.011    2.660159    0.783657   -1.505869
   2 C   6.0000    0    12.011    0.568091   -0.677701   -0.111964
   3 O   8.0000    0    15.999    1.112951   -1.656425    1.927692
   4 N   7.0000    0    14.007   -1.616105   -0.967068   -1.343590
   5 C   6.0000    0    12.011   -3.863546   -1.533506    0.090175
   6 C   6.0000    0    12.011   -4.519595    0.766769    1.879480
   7 O   8.0000    0    15.999   -6.491669    0.570549    3.134694
   8 O   8.0000    0    15.999   -2.974193    2.539693    1.866623
   9 H   1.0000    0     1.008    5.408209    2.395978    0.839171
  10 H   1.0000    0     1.008    4.283053   -0.472834    1.637131
  11 H   1.0000    0     1.008    6.438323   -0.159249   -0.728668
  12 H   1.0000    0     1.008    2.994492   -0.101347   -3.333784
  13 H   1.0000    0     1.008    2.011816    2.717580   -1.782450
  14 H   1.0000    0     1.008   -1.915013    0.186432   -2.838651
  15 H   1.0000    0     1.008   -3.557126   -3.167247    1.308624
  16 H   1.0000    0     1.008   -5.453047   -1.894339   -1.162545

      -----------------------------------------------------------      
     |                   =====================                   |     
     |                           x T B                           |     
     |                   =====================                   |     
     |                         S. Grimme                         |     
     |          Mulliken Center for Theoretical Chemistry        |     
     |                    University of Bonn                     |     
      -----------------------------------------------------------      

   * xtb version 6.7.1 (edcfbbe) compiled by 'albert@albert-system' on 2024-07-22

   xtb is free software: you can redistribute it and/or modify it under
   the terms of the GNU Lesser General Public License as published by
   the Free Software Foundation, either version 3 of the License, or
   (at your option) any later version.
   
   xtb is distributed in the hope that it will be useful,
   but WITHOUT ANY WARRANTY; without even the implied warranty of
   MERCHANTABILITY or FITNESS FOR A PARTICULAR PURPOSE.  See the
   GNU Lesser General Public License for more details.
   
   Cite this work as:
   * C. Bannwarth, E. Caldeweyher, S. Ehlert, A. Hansen, P. Pracht,
     J. Seibert, S. Spicher, S. Grimme, WIREs Comput. Mol. Sci., 2020, 11,
     e01493. DOI: 10.1002/wcms.1493
   
   for GFN2-xTB:
   * C. Bannwarth, S. Ehlert and S. Grimme., J. Chem. Theory Comput., 2019,
     15, 1652-1671. DOI: 10.1021/acs.jctc.8b01176
   for GFN1-xTB:
   * S. Grimme, C. Bannwarth, P. Shushkov, J. Chem. Theory Comput., 2017,
     13, 1989-2009. DOI: 10.1021/acs.jctc.7b00118
   for GFN0-xTB:
   * P. Pracht, E. Caldeweyher, S. Ehlert, S. Grimme, ChemRxiv, 2019, preprint.
     DOI: 10.26434/chemrxiv.8326202.v1
   for GFN-FF:
   * S. Spicher and S. Grimme, Angew. Chem. Int. Ed., 2020, 59, 15665-15673.
     DOI: 10.1002/anie.202004239
   
   for ALPB and GBSA implicit solvation:
   * S. Ehlert, M. Stahn, S. Spicher, S. Grimme, J. Chem. Theory Comput.,
     2021, 17, 4250-4261. DOI: 10.1021/acs.jctc.1c00471
   
   for ddCOSMO and CPCM-X implicit solvation:
   * M. Stahn, S. Ehlert, S. Grimme, J. Phys. Chem. A,
     2023, XX, XXXX-XXXX. DOI: 10.1021/acs.jpca.3c04382
   
   for DFT-D4:
   * E. Caldeweyher, C. Bannwarth and S. Grimme, J. Chem. Phys., 2017,
     147, 034112. DOI: 10.1063/1.4993215
   * E. Caldeweyher, S. Ehlert, A. Hansen, H. Neugebauer, S. Spicher,
     C. Bannwarth and S. Grimme, J. Chem. Phys., 2019, 150, 154122.
     DOI: 10.1063/1.5090222
   * E. Caldeweyher, J.-M. Mewes, S. Ehlert and S. Grimme, Phys. Chem. Chem. Phys.
     2020, 22, 8499-8512. DOI: 10.1039/D0CP00502A
   
   for sTDA-xTB:
   * S. Grimme and C. Bannwarth, J. Chem. Phys., 2016, 145, 054103.
     DOI: 10.1063/1.4959605
   
   in the mass-spec context:
   * V. Asgeirsson, C. Bauer and S. Grimme, Chem. Sci., 2017, 8, 4879.
     DOI: 10.1039/c7sc00601b
   * J. Koopman and S. Grimme, ACS Omega 2019, 4, 12, 15120-15133.
     DOI: 10.1021/acsomega.9b02011
   
   for metadynamics refer to:
   * S. Grimme, J. Chem. Theory Comput., 2019, 155, 2847-2862
     DOI: 10.1021/acs.jctc.9b00143
   
   for SPH calculations refer to:
   * S. Spicher and S. Grimme, J. Chem. Theory Comput., 2021, 17, 1701-1714
     DOI: 10.1021/acs.jctc.0c01306
   
   for ONIOM refer to:
   * C. Plett, A. Katbashev, S. Ehlert, S. Grimme, M. Bursch,
     Phys. Chem. Chem. Phys., 2023, 25, 17860-17868. DOI: 10.1039/D3CP02178E
   
   for DIPRO refer to:
   * J. Kohn, N. Gildemeister, S. Grimme, D. Fazzi, A. Hansen,
     J. Chem. Phys., 2023, just accepted.
   
   for PTB refer to:
   * S. Grimme, M. Mueller, A. Hansen, J. Chem. Phys., 2023, 158, 124111.
     DOI: 10.1063/5.0137838
   
   with help from (in alphabetical order)
   P. Atkinson, C. Bannwarth, F. Bohle, G. Brandenburg, E. Caldeweyher
   M. Checinski, S. Dohm, S. Ehlert, S. Ehrlich, I. Gerasimov, C. Hölzer
   A. Katbashev, J. Kohn, J. Koopman, C. Lavigne, S. Lehtola, F. März, M. Müller,
   F. Musil, H. Neugebauer, J. Pisarek, C. Plett, P. Pracht, F. Pultar,
   J. Seibert, P. Shushkov, S. Spicher, M. Stahn, M. Steiner, T. Strunk,
   J. Stückrath, T. Rose, and J. Unsleber
   
 * started run on 2026/04/11 at 16:57:59.257     
   ID    Z sym.   atoms
    1    7 N      1, 5
    2    6 C      2, 3, 6, 7
    3    8 O      4, 8, 9
    4    1 H      10-17

           -------------------------------------------------
          |                Calculation Setup                |
           -------------------------------------------------

          program call               : /home/analima/Programs/orca-6.1.0-f.0_linux_x86-64/bin/otool_xtb geo_opt_XTB.xyz --grad -c 0 -u 0 -P 1 --namespace geo_opt --input geo_opt_XTB.input.tmp --alpb WATER --acc 0.200000
          calculation namespace      : geo_opt
          coordinate file            : geo_opt_XTB.xyz
          omp threads                :                     1


           -------------------------------------------------
          |                 G F N 2 - x T B                 |
           -------------------------------------------------

        Reference                      10.1021/acs.jctc.8b01176
      * Hamiltonian:
        H0-scaling (s, p, d)           1.850000    2.230000    2.230000
        zeta-weighting                 0.500000
      * Dispersion:
        s8                             2.700000
        a1                             0.520000
        a2                             5.000000
        s9                             5.000000
      * Repulsion:
        kExp                           1.500000    1.000000
        rExp                           1.000000
      * Coulomb:
        alpha                          2.000000
        third order                    shell-resolved
        anisotropic                    true
        a3                             3.000000
        a5                             4.000000
        cn-shift                       1.200000
        cn-exp                         4.000000
        max-rad                        5.000000

      * Solvation model:               ALPB
        Solvent                        WATER
        Parameter file                 internal GFN2-xTB/ALPB
        Dielectric constant                8.0200E+01
        Reference state                gsolv [1 M gas/solution]
        Free energy shift                  1.0808E-03 Eh       6.7819E-01 kcal/mol
        Temperature                        2.9815E+02 K
        Density                            1.0000E+00 kg/L
        Solvent mass                       1.8000E+01 g/mol
        Interaction kernel             P16
        Born radius scaling (c1)           1.4744E+00
        Born radii integrator          GBOBC
        Born offset                        0.0000E+00 a0       0.0000E+00 AA
        H-bond correction              true
        Ion screening                  false
        Surface tension                    1.0000E-05 Eh       1.5569E+01 dyn/cm
        Grid points                               230 per atom
q/qsh data taken from xtbrestart
CAMM data taken from xtbrestart

          ...................................................
          :                      SETUP                      :
          :.................................................:
          :  # basis functions                  44          :
          :  # atomic orbitals                  44          :
          :  # shells                           26          :
          :  # electrons                        52          :
          :  max. iterations                   250          :
          :  Hamiltonian                  GFN2-xTB          :
          :  restarted?                       true          :
          :  GBSA solvation                   true          :
          :  PC potential                    false          :
          :  electronic temp.          300.0000000     K    :
          :  accuracy                    0.2000000          :
          :  -> integral cutoff          0.3198970E+02      :
          :  -> integral neglect         0.2000000E-08      :
          :  -> SCF convergence          0.2000000E-06 Eh   :
          :  -> wf. convergence          0.2000000E-04 e    :
          :  Broyden damping             0.4000000          :
          :  net charge                          0          :
          :  unpaired electrons                  0          :
          ...................................................

 iter      E             dE          RMSdq      gap      omega  full diag
   1    -31.0035469 -0.310035E+02  0.173E-01    3.73       0.0  T
   2    -31.0035524 -0.551278E-05  0.101E-01    3.72       1.0  T
   3    -31.0035526 -0.211534E-06  0.105E-02    3.73       2.3  T
   4    -31.0035536 -0.106174E-05  0.373E-03    3.73       6.5  T
   5    -31.0035537 -0.226099E-07  0.205E-03    3.73      11.8  T
   6    -31.0035537 -0.454988E-08  0.333E-04    3.73      72.9  T
   7    -31.0035537 -0.221100E-09  0.138E-04    3.73     175.7  T
   8    -31.0035537 -0.388525E-10  0.607E-05    3.73     399.7  T

   *** convergence criteria satisfied after 8 iterations ***

         #    Occupation            Energy/Eh            Energy/eV
      -------------------------------------------------------------
         1        2.0000           -0.7251935             -19.7335
       ...           ...                  ...                  ...
        20        2.0000           -0.4828495             -13.1390
        21        2.0000           -0.4653296             -12.6623
        22        2.0000           -0.4399343             -11.9712
        23        2.0000           -0.4237312             -11.5303
        24        2.0000           -0.4057742             -11.0417
        25        2.0000           -0.3911029             -10.6425
        26        2.0000           -0.3644324              -9.9167 (HOMO)
        27                         -0.2275336              -6.1915 (LUMO)
        28                         -0.1767015              -4.8083
        29                         -0.0465368              -1.2663
        30                          0.0192960               0.5251
        31                          0.0482619               1.3133
       ...                                ...                  ...
        44                          0.6460867              17.5809
      -------------------------------------------------------------
                  HL-Gap            0.1368988 Eh            3.7252 eV
             Fermi-level           -0.2959830 Eh           -8.0541 eV

 SCC (total)                   0 d,  0 h,  0 min,  0.010 sec
 SCC setup                      ...        0 min,  0.000 sec (  3.492%)
 Dispersion                     ...        0 min,  0.000 sec (  0.915%)
 classical contributions        ...        0 min,  0.000 sec (  0.211%)
 integral evaluation            ...        0 min,  0.001 sec ( 12.207%)
 iterations                     ...        0 min,  0.005 sec ( 51.178%)
 molecular gradient             ...        0 min,  0.003 sec ( 31.161%)
 printout                       ...        0 min,  0.000 sec (  0.694%)

         :::::::::::::::::::::::::::::::::::::::::::::::::::::
         ::                     SUMMARY                     ::
         :::::::::::::::::::::::::::::::::::::::::::::::::::::
         :: total energy             -30.713557435950 Eh    ::
         :: total w/o Gsasa/hb       -30.702679577371 Eh    ::
         :: gradient norm              0.004589219513 Eh/a0 ::
         :: HOMO-LUMO gap              3.725206010441 eV    ::
         ::.................................................::
         :: SCC energy               -31.003534497692 Eh    ::
         :: -> isotropic ES            0.274011170645 Eh    ::
         :: -> anisotropic ES         -0.020584823092 Eh    ::
         :: -> anisotropic XC          0.006648378104 Eh    ::
         :: -> dispersion             -0.011313544803 Eh    ::
         :: -> Gsolv                  -0.122765820538 Eh    ::
         ::    -> Gelec               -0.111887961959 Eh    ::
         ::    -> Gsasa                0.004213334157 Eh    ::
         ::    -> Ghb                 -0.016171952434 Eh    ::
         ::    -> Gshift               0.001080759698 Eh    ::
         :: repulsion energy           0.289977061742 Eh    ::
         :: add. restraining           0.000000000000 Eh    ::
         :: total charge               0.000000000000 e     ::
         :::::::::::::::::::::::::::::::::::::::::::::::::::::


Property printout bound to 'properties.out'

           -------------------------------------------------
          | TOTAL ENERGY              -30.713557435950 Eh   |
          | GRADIENT NORM               0.004589219513 Eh/α |
          | HOMO-LUMO GAP               3.725206010441 eV   |
           -------------------------------------------------

------------------------------------------------------------------------
 * finished run on 2026/04/11 at 16:57:59.273     
------------------------------------------------------------------------
 total:
 * wall-time:     0 d,  0 h,  0 min,  0.015 sec
 *  cpu-time:     0 d,  0 h,  0 min,  0.013 sec
 * ratio c/w:     0.873 speedup
 SCF:
 * wall-time:     0 d,  0 h,  0 min,  0.010 sec
 *  cpu-time:     0 d,  0 h,  0 min,  0.008 sec
 * ratio c/w:     0.816 speedup


-------------------------   --------------------
FINAL SINGLE POINT ENERGY       -30.713557435950
-------------------------   --------------------


-------------
DIPOLE MOMENT
-------------
                                X             Y             Z
Total Dipole Moment    :      8.18400      -0.29800      -4.13100
                        -----------------------------------------
Magnitude (a.u.)       :      9.17234
Magnitude (Debye)      :     23.31424


------------------
CARTESIAN GRADIENT
------------------

   1   N   :    0.000562845    0.001025100   -0.001263820
   2   C   :    0.000705096   -0.000158303    0.000696765
   3   C   :   -0.000220400    0.001431496   -0.001050230
   4   O   :    0.000658696   -0.000334621    0.000940630
   5   N   :   -0.000559038   -0.001240750   -0.000631648
   6   C   :    0.000877550   -0.001187382    0.000017969
   7   C   :   -0.001347268   -0.000228496   -0.000538679
   8   O   :   -0.000025935   -0.000263137    0.000817844
   9   O   :    0.001032965    0.001220599    0.000200404
  10   H   :   -0.000054241   -0.000105493    0.000250442
  11   H   :   -0.000635621   -0.000652106    0.000431289
  12   H   :    0.000043809   -0.000056497    0.000058087
  13   H   :    0.000006847   -0.000374547    0.000158844
  14   H   :   -0.000012525    0.000060970    0.000109655
  15   H   :   -0.000287023    0.000566293   -0.000117504
  16   H   :   -0.000825511    0.000040338    0.000153680
  17   H   :    0.000079753    0.000256536   -0.000233728

Difference to translation invariance:
           :   -0.0000000000   -0.0000000000   -0.0000000000

Difference to rotation invariance:
           :    0.0002865642    0.0001706341    0.0001096978

Norm of the Cartesian gradient     ...    0.0045892195
RMS gradient                       ...    0.0006426193
MAX gradient                       ...    0.0014314960
------------------------------------------------------------------------------
                         ORCA GEOMETRY RELAXATION STEP
------------------------------------------------------------------------------

Reading the OPT-File                    .... done
Getting information on internals        .... done
Copying old internal coords+grads       .... done
Making the new internal coordinates     .... (2022 redundants) done
Validating the new internal coordinates .... (2022 redundants) done
Calculating the B-matrix                .... done
Calculating the G,G- and P matrices     .... done
Transforming gradient to internals      .... done
Projecting the internal gradient        .... done
Number of atoms                         ....  17
Number of internal coordinates          ....  69
Current Energy                          ....   -30.713557436 Eh
Current gradient norm                   ....     0.004589220 Eh/bohr
Maximum allowed component of the step   ....  0.300
Current trust radius                    ....  0.700
Updating the Hessian (BFGS)             .... done
Forming the augmented Hessian           .... done
Diagonalizing the augmented Hessian     .... done
Last element of RFO vector              ....  0.985708841
Lowest eigenvalues of augmented Hessian:
 -0.000140687  0.002723844  0.011970559  0.013901232  0.018697761
Length of the computed step             ....  0.170900310
The final length of the internal step   ....  0.170900310
Converting the step to Cartesian space:
 Initial RMS(Int)=    0.0205739797
Transforming coordinates:
 Iter   0:  RMS(Cart)=    0.0364583151 RMS(Int)=    0.0205585404
 Iter   5:  RMS(Cart)=    0.0000000070 RMS(Int)=    0.0000000054
done
Storing new coordinates                 .... done
The predicted energy change is          ....    -0.000072398
Previously predicted energy change      ....    -0.000125118
Actually observed energy change         ....    -0.000167562
Ratio of predicted to observed change   ....     1.339235703
New trust radius                        ....     0.700000000

                                .--------------------.
          ----------------------|Geometry convergence|-------------------------
          Item                value                   Tolerance       Converged
          ---------------------------------------------------------------------
          Energy change      -0.0001675620            0.0000050000      NO
          RMS gradient        0.0004205319            0.0001000000      NO
          MAX gradient        0.0016013476            0.0003000000      NO
          RMS step            0.0205739797            0.0020000000      NO
          MAX step            0.0688571472            0.0040000000      NO
          -------------------------------------------------------------------------
          ........................................................
          Max(Bonds)      0.0085      Max(Angles)    0.36
          Max(Dihed)        3.95      Max(Improp)    0.00
          ---------------------------------------------------------------------

The optimization has not yet converged - more geometry cycles are needed


    ---------------------------------------------------------------------------
                         Redundant Internal Coordinates
                            (Angstroem and degrees)

        Definition                    Value    dE/dq     Step     New-Value
    ----------------------------------------------------------------------------
     1. B(C   1,N   0)                1.4727 -0.000221  0.0004    1.4732   
     2. B(C   2,C   1)                1.5387  0.000296 -0.0019    1.5368   
     3. B(O   3,C   2)                1.2314  0.001123 -0.0006    1.2308   
     4. B(N   4,C   2)                1.3357  0.001178  0.0005    1.3362   
     5. B(C   5,N   4)                1.4422  0.000418 -0.0000    1.4422   
     6. B(C   6,C   5)                1.5808  0.000927 -0.0021    1.5786   
     7. B(O   7,C   6)                1.2414  0.000479  0.0006    1.2419   
     8. B(O   8,C   6)                1.2446  0.001601  0.0000    1.2446   
     9. B(H   9,N   0)                1.0232 -0.000014 -0.0000    1.0232   
    10. B(H  10,N   0)                1.0571  0.000774 -0.0017    1.0554   
    11. B(H  10,O   3)                1.7972 -0.000228  0.0085    1.8058   
    12. B(H  11,N   0)                1.0232  0.000032  0.0000    1.0233   
    13. B(H  12,C   1)                1.0892  0.000024  0.0000    1.0892   
    14. B(H  13,C   1)                1.0892  0.000042  0.0002    1.0894   
    15. B(H  14,N   4)                1.0117  0.000474 -0.0002    1.0115   
    16. B(H  15,C   5)                1.0906 -0.000063  0.0002    1.0908   
    17. B(H  16,C   5)                1.0878  0.000035  0.0000    1.0879   
    18. A(H  10,N   0,H  11)          109.75  0.000023    0.01    109.77   
    19. A(H   9,N   0,H  11)          110.11 -0.000009   -0.05    110.06   
    20. A(C   1,N   0,H  10)          102.23 -0.000461    0.22    102.45   
    21. A(H   9,N   0,H  10)          108.12  0.000035    0.04    108.17   
    22. A(C   1,N   0,H   9)          112.77  0.000239   -0.09    112.68   
    23. A(C   1,N   0,H  11)          113.45  0.000137   -0.12    113.33   
    24. A(N   0,C   1,H  13)          111.86 -0.000187   -0.02    111.85   
    25. A(C   2,C   1,H  12)          109.06 -0.000275    0.05    109.10   
    26. A(H  12,C   1,H  13)          109.62  0.000160   -0.24    109.38   
    27. A(C   2,C   1,H  13)          108.06 -0.000098   -0.04    108.02   
    28. A(N   0,C   1,C   2)          106.32  0.000682    0.06    106.38   
    29. A(N   0,C   1,H  12)          111.77 -0.000272    0.20    111.97   
    30. A(C   1,C   2,N   4)          116.51  0.000938   -0.08    116.42   
    31. A(C   1,C   2,O   3)          117.59 -0.000710    0.19    117.78   
    32. A(O   3,C   2,N   4)          125.60 -0.000238   -0.11    125.49   
    33. A(C   5,N   4,H  14)          114.07 -0.000144   -0.12    113.95   
    34. A(C   2,N   4,C   5)          118.73  0.000010    0.03    118.77   
    35. A(C   2,N   4,H  14)          116.60 -0.000006   -0.10    116.49   
    36. A(C   6,C   5,H  16)          109.29  0.000015    0.17    109.46   
    37. A(N   4,C   5,H  16)          110.70 -0.000201    0.06    110.76   
    38. A(C   6,C   5,H  15)          106.79 -0.000413    0.16    106.95   
    39. A(N   4,C   5,C   6)          109.64  0.000061   -0.03    109.61   
    40. A(N   4,C   5,H  15)          110.68  0.000627   -0.36    110.32   
    41. A(H  15,C   5,H  16)          109.64 -0.000098    0.05    109.69   
    42. A(C   5,C   6,O   7)          116.15  0.000027    0.06    116.21   
    43. A(O   7,C   6,O   8)          128.20 -0.000198   -0.05    128.14   
    44. A(C   5,C   6,O   8)          115.65  0.000163   -0.04    115.61   
    45. D(H  12,C   1,N   0,H   9)    128.02  0.000268   -0.79    127.22   
    46. D(H  12,C   1,N   0,H  11)      1.97 -0.000036   -0.57      1.40   
    47. D(C   2,C   1,N   0,H  10)      2.78  0.000089   -0.45      2.32   
    48. D(H  12,C   1,N   0,H  10)   -116.12  0.000151   -0.66   -116.78   
    49. D(C   2,C   1,N   0,H  11)    120.87 -0.000098   -0.36    120.50   
    50. D(C   2,C   1,N   0,H   9)   -113.08  0.000206   -0.59   -113.67   
    51. D(O   3,C   2,C   1,N   0)     -1.49  0.000003    0.33     -1.16   
    52. D(N   4,C   2,C   1,N   0)   -175.45  0.000112    0.18   -175.27   
    53. D(O   3,C   2,C   1,H  13)   -121.73 -0.000098    0.34   -121.38   
    54. D(N   4,C   2,C   1,H  12)    -54.78  0.000031    0.49    -54.30   
    55. D(O   3,C   2,C   1,H  12)    119.17 -0.000078    0.63    119.81   
    56. D(H  14,N   4,C   2,C   1)    -16.96 -0.000364    0.91    -16.05   
    57. D(C   5,N   4,C   2,O   3)     27.01  0.000047    0.88     27.89   
    58. D(H  14,N   4,C   2,O   3)    169.63 -0.000222    0.74    170.37   
    59. D(C   5,N   4,C   2,C   1)   -159.58 -0.000095    1.05   -158.54   
    60. D(H  16,C   5,N   4,C   2)   -174.58 -0.000293    2.01   -172.57   
    61. D(H  15,C   5,N   4,H  14)    163.68  0.000086    1.98    165.67   
    62. D(H  15,C   5,N   4,C   2)    -52.80 -0.000129    1.87    -50.92   
    63. D(C   6,C   5,N   4,H  14)    -78.76 -0.000007    1.91    -76.85   
    64. D(C   6,C   5,N   4,C   2)     64.76 -0.000222    1.80     66.56   
    65. D(O   8,C   6,C   5,H  15)    115.98  0.000136   -3.92    112.05   
    66. D(O   8,C   6,C   5,N   4)     -3.99 -0.000406   -3.54     -7.52   
    67. D(O   7,C   6,C   5,H  16)     55.14  0.000441   -3.71     51.44   
    68. D(O   7,C   6,C   5,H  15)    -63.38  0.000781   -3.95    -67.33   
    69. D(O   7,C   6,C   5,N   4)    176.65  0.000239   -3.56    173.10   
    ----------------------------------------------------------------------------

Geometry step timings:
Preparation and reading OPT file:      0.000 s ( 1.206 %)
Internal coordinates            :      0.000 s ( 1.086 %)
B/P matrices and projection     :      0.000 s (37.515 %)
Hessian update/contruction      :      0.000 s (10.736 %)
Making the step                 :      0.000 s (29.554 %)
Converting the step to Cartesian:      0.000 s ( 3.619 %)
Storing new data                :      0.000 s ( 1.206 %)
Checking convergence            :      0.000 s ( 1.448 %)
Final printing                  :      0.000 s (13.631 %)
Total time                      :      0.001 s

Time for energy+gradient        :      0.018 s
Time for complete geometry iter :      0.020 s

         *************************************************************
         *                GEOMETRY OPTIMIZATION CYCLE  11            *
         *************************************************************
---------------------------------
CARTESIAN COORDINATES (ANGSTROEM)
---------------------------------
  N     2.604149    0.349651    0.059136
  C     1.401496    0.422758   -0.788494
  C     0.307068   -0.370304   -0.057026
  O     0.603343   -0.906164    1.010664
  N    -0.853419   -0.516949   -0.702925
  C    -2.040319   -0.815432    0.059951
  C    -2.403645    0.416450    0.977865
  O    -3.481380    0.345043    1.590889
  O    -1.563554    1.334390    1.004072
  H     2.870490    1.258855    0.445578
  H     2.284388   -0.265282    0.855061
  H     3.405188   -0.080559   -0.410256
  H     1.566958   -0.019908   -1.769831
  H     1.051852    1.447543   -0.908473
  H    -1.013996    0.098825   -1.489138
  H    -1.861401   -1.663476    0.722249
  H    -2.877219   -1.035441   -0.599323

----------------------------
CARTESIAN COORDINATES (A.U.)
----------------------------
  NO LB    ZA    FRAG    MASS        X           Y           Z
   0 N   7.0000    0    14.007    4.921128    0.660745    0.111751
   1 C   6.0000    0    12.011    2.648443    0.798897   -1.490038
   2 C   6.0000    0    12.011    0.580275   -0.699774   -0.107763
   3 O   8.0000    0    15.999    1.140153   -1.712402    1.909878
   4 N   7.0000    0    14.007   -1.612728   -0.976891   -1.328335
   5 C   6.0000    0    12.011   -3.855645   -1.540944    0.113291
   6 C   6.0000    0    12.011   -4.542232    0.786977    1.847897
   7 O   8.0000    0    15.999   -6.578854    0.652037    3.006345
   8 O   8.0000    0    15.999   -2.954688    2.521631    1.897421
   9 H   1.0000    0     1.008    5.424439    2.378890    0.842020
  10 H   1.0000    0     1.008    4.316869   -0.501310    1.615831
  11 H   1.0000    0     1.008    6.434873   -0.152234   -0.775272
  12 H   1.0000    0     1.008    2.961122   -0.037621   -3.344496
  13 H   1.0000    0     1.008    1.987712    2.735460   -1.716766
  14 H   1.0000    0     1.008   -1.916175    0.186752   -2.814062
  15 H   1.0000    0     1.008   -3.517538   -3.143515    1.364853
  16 H   1.0000    0     1.008   -5.437155   -1.956701   -1.132556

      -----------------------------------------------------------      
     |                   =====================                   |     
     |                           x T B                           |     
     |                   =====================                   |     
     |                         S. Grimme                         |     
     |          Mulliken Center for Theoretical Chemistry        |     
     |                    University of Bonn                     |     
      -----------------------------------------------------------      

   * xtb version 6.7.1 (edcfbbe) compiled by 'albert@albert-system' on 2024-07-22

   xtb is free software: you can redistribute it and/or modify it under
   the terms of the GNU Lesser General Public License as published by
   the Free Software Foundation, either version 3 of the License, or
   (at your option) any later version.
   
   xtb is distributed in the hope that it will be useful,
   but WITHOUT ANY WARRANTY; without even the implied warranty of
   MERCHANTABILITY or FITNESS FOR A PARTICULAR PURPOSE.  See the
   GNU Lesser General Public License for more details.
   
   Cite this work as:
   * C. Bannwarth, E. Caldeweyher, S. Ehlert, A. Hansen, P. Pracht,
     J. Seibert, S. Spicher, S. Grimme, WIREs Comput. Mol. Sci., 2020, 11,
     e01493. DOI: 10.1002/wcms.1493
   
   for GFN2-xTB:
   * C. Bannwarth, S. Ehlert and S. Grimme., J. Chem. Theory Comput., 2019,
     15, 1652-1671. DOI: 10.1021/acs.jctc.8b01176
   for GFN1-xTB:
   * S. Grimme, C. Bannwarth, P. Shushkov, J. Chem. Theory Comput., 2017,
     13, 1989-2009. DOI: 10.1021/acs.jctc.7b00118
   for GFN0-xTB:
   * P. Pracht, E. Caldeweyher, S. Ehlert, S. Grimme, ChemRxiv, 2019, preprint.
     DOI: 10.26434/chemrxiv.8326202.v1
   for GFN-FF:
   * S. Spicher and S. Grimme, Angew. Chem. Int. Ed., 2020, 59, 15665-15673.
     DOI: 10.1002/anie.202004239
   
   for ALPB and GBSA implicit solvation:
   * S. Ehlert, M. Stahn, S. Spicher, S. Grimme, J. Chem. Theory Comput.,
     2021, 17, 4250-4261. DOI: 10.1021/acs.jctc.1c00471
   
   for ddCOSMO and CPCM-X implicit solvation:
   * M. Stahn, S. Ehlert, S. Grimme, J. Phys. Chem. A,
     2023, XX, XXXX-XXXX. DOI: 10.1021/acs.jpca.3c04382
   
   for DFT-D4:
   * E. Caldeweyher, C. Bannwarth and S. Grimme, J. Chem. Phys., 2017,
     147, 034112. DOI: 10.1063/1.4993215
   * E. Caldeweyher, S. Ehlert, A. Hansen, H. Neugebauer, S. Spicher,
     C. Bannwarth and S. Grimme, J. Chem. Phys., 2019, 150, 154122.
     DOI: 10.1063/1.5090222
   * E. Caldeweyher, J.-M. Mewes, S. Ehlert and S. Grimme, Phys. Chem. Chem. Phys.
     2020, 22, 8499-8512. DOI: 10.1039/D0CP00502A
   
   for sTDA-xTB:
   * S. Grimme and C. Bannwarth, J. Chem. Phys., 2016, 145, 054103.
     DOI: 10.1063/1.4959605
   
   in the mass-spec context:
   * V. Asgeirsson, C. Bauer and S. Grimme, Chem. Sci., 2017, 8, 4879.
     DOI: 10.1039/c7sc00601b
   * J. Koopman and S. Grimme, ACS Omega 2019, 4, 12, 15120-15133.
     DOI: 10.1021/acsomega.9b02011
   
   for metadynamics refer to:
   * S. Grimme, J. Chem. Theory Comput., 2019, 155, 2847-2862
     DOI: 10.1021/acs.jctc.9b00143
   
   for SPH calculations refer to:
   * S. Spicher and S. Grimme, J. Chem. Theory Comput., 2021, 17, 1701-1714
     DOI: 10.1021/acs.jctc.0c01306
   
   for ONIOM refer to:
   * C. Plett, A. Katbashev, S. Ehlert, S. Grimme, M. Bursch,
     Phys. Chem. Chem. Phys., 2023, 25, 17860-17868. DOI: 10.1039/D3CP02178E
   
   for DIPRO refer to:
   * J. Kohn, N. Gildemeister, S. Grimme, D. Fazzi, A. Hansen,
     J. Chem. Phys., 2023, just accepted.
   
   for PTB refer to:
   * S. Grimme, M. Mueller, A. Hansen, J. Chem. Phys., 2023, 158, 124111.
     DOI: 10.1063/5.0137838
   
   with help from (in alphabetical order)
   P. Atkinson, C. Bannwarth, F. Bohle, G. Brandenburg, E. Caldeweyher
   M. Checinski, S. Dohm, S. Ehlert, S. Ehrlich, I. Gerasimov, C. Hölzer
   A. Katbashev, J. Kohn, J. Koopman, C. Lavigne, S. Lehtola, F. März, M. Müller,
   F. Musil, H. Neugebauer, J. Pisarek, C. Plett, P. Pracht, F. Pultar,
   J. Seibert, P. Shushkov, S. Spicher, M. Stahn, M. Steiner, T. Strunk,
   J. Stückrath, T. Rose, and J. Unsleber
   
 * started run on 2026/04/11 at 16:57:59.277     
   ID    Z sym.   atoms
    1    7 N      1, 5
    2    6 C      2, 3, 6, 7
    3    8 O      4, 8, 9
    4    1 H      10-17

           -------------------------------------------------
          |                Calculation Setup                |
           -------------------------------------------------

          program call               : /home/analima/Programs/orca-6.1.0-f.0_linux_x86-64/bin/otool_xtb geo_opt_XTB.xyz --grad -c 0 -u 0 -P 1 --namespace geo_opt --input geo_opt_XTB.input.tmp --alpb WATER --acc 0.200000
          calculation namespace      : geo_opt
          coordinate file            : geo_opt_XTB.xyz
          omp threads                :                     1


           -------------------------------------------------
          |                 G F N 2 - x T B                 |
           -------------------------------------------------

        Reference                      10.1021/acs.jctc.8b01176
      * Hamiltonian:
        H0-scaling (s, p, d)           1.850000    2.230000    2.230000
        zeta-weighting                 0.500000
      * Dispersion:
        s8                             2.700000
        a1                             0.520000
        a2                             5.000000
        s9                             5.000000
      * Repulsion:
        kExp                           1.500000    1.000000
        rExp                           1.000000
      * Coulomb:
        alpha                          2.000000
        third order                    shell-resolved
        anisotropic                    true
        a3                             3.000000
        a5                             4.000000
        cn-shift                       1.200000
        cn-exp                         4.000000
        max-rad                        5.000000

      * Solvation model:               ALPB
        Solvent                        WATER
        Parameter file                 internal GFN2-xTB/ALPB
        Dielectric constant                8.0200E+01
        Reference state                gsolv [1 M gas/solution]
        Free energy shift                  1.0808E-03 Eh       6.7819E-01 kcal/mol
        Temperature                        2.9815E+02 K
        Density                            1.0000E+00 kg/L
        Solvent mass                       1.8000E+01 g/mol
        Interaction kernel             P16
        Born radius scaling (c1)           1.4744E+00
        Born radii integrator          GBOBC
        Born offset                        0.0000E+00 a0       0.0000E+00 AA
        H-bond correction              true
        Ion screening                  false
        Surface tension                    1.0000E-05 Eh       1.5569E+01 dyn/cm
        Grid points                               230 per atom
q/qsh data taken from xtbrestart
CAMM data taken from xtbrestart

          ...................................................
          :                      SETUP                      :
          :.................................................:
          :  # basis functions                  44          :
          :  # atomic orbitals                  44          :
          :  # shells                           26          :
          :  # electrons                        52          :
          :  max. iterations                   250          :
          :  Hamiltonian                  GFN2-xTB          :
          :  restarted?                       true          :
          :  GBSA solvation                   true          :
          :  PC potential                    false          :
          :  electronic temp.          300.0000000     K    :
          :  accuracy                    0.2000000          :
          :  -> integral cutoff          0.3198970E+02      :
          :  -> integral neglect         0.2000000E-08      :
          :  -> SCF convergence          0.2000000E-06 Eh   :
          :  -> wf. convergence          0.2000000E-04 e    :
          :  Broyden damping             0.4000000          :
          :  net charge                          0          :
          :  unpaired electrons                  0          :
          ...................................................

 iter      E             dE          RMSdq      gap      omega  full diag
   1    -31.0040261 -0.310040E+02  0.158E-01    3.73       0.0  T
   2    -31.0040281 -0.200768E-05  0.923E-02    3.73       1.0  T
   3    -31.0040288 -0.674702E-06  0.588E-03    3.73       4.1  T
   4    -31.0040290 -0.226535E-06  0.322E-03    3.73       7.5  T
   5    -31.0040290 -0.136324E-07  0.132E-03    3.73      18.4  T
   6    -31.0040290 -0.285513E-08  0.256E-04    3.73      94.7  T
   7    -31.0040290 -0.143014E-09  0.118E-04    3.73     205.2  T
   8    -31.0040290 -0.177458E-10  0.437E-05    3.73     555.4  T

   *** convergence criteria satisfied after 8 iterations ***

         #    Occupation            Energy/Eh            Energy/eV
      -------------------------------------------------------------
         1        2.0000           -0.7251642             -19.7327
       ...           ...                  ...                  ...
        20        2.0000           -0.4827890             -13.1374
        21        2.0000           -0.4649508             -12.6520
        22        2.0000           -0.4401707             -11.9777
        23        2.0000           -0.4235277             -11.5248
        24        2.0000           -0.4058539             -11.0438
        25        2.0000           -0.3911109             -10.6427
        26        2.0000           -0.3645426              -9.9197 (HOMO)
        27                         -0.2274099              -6.1881 (LUMO)
        28                         -0.1770802              -4.8186
        29                         -0.0467124              -1.2711
        30                          0.0204580               0.5567
        31                          0.0487658               1.3270
       ...                                ...                  ...
        44                          0.6449188              17.5491
      -------------------------------------------------------------
                  HL-Gap            0.1371328 Eh            3.7316 eV
             Fermi-level           -0.2959763 Eh           -8.0539 eV

 SCC (total)                   0 d,  0 h,  0 min,  0.007 sec
 SCC setup                      ...        0 min,  0.000 sec (  4.177%)
 Dispersion                     ...        0 min,  0.000 sec (  0.948%)
 classical contributions        ...        0 min,  0.000 sec (  0.239%)
 integral evaluation            ...        0 min,  0.001 sec ( 16.569%)
 iterations                     ...        0 min,  0.004 sec ( 54.090%)
 molecular gradient             ...        0 min,  0.002 sec ( 23.370%)
 printout                       ...        0 min,  0.000 sec (  0.469%)

         :::::::::::::::::::::::::::::::::::::::::::::::::::::
         ::                     SUMMARY                     ::
         :::::::::::::::::::::::::::::::::::::::::::::::::::::
         :: total energy             -30.713651241524 Eh    ::
         :: total w/o Gsasa/hb       -30.702774444438 Eh    ::
         :: gradient norm              0.003936576307 Eh/a0 ::
         :: HOMO-LUMO gap              3.731572355445 eV    ::
         ::.................................................::
         :: SCC energy               -31.004010603603 Eh    ::
         :: -> isotropic ES            0.273962387391 Eh    ::
         :: -> anisotropic ES         -0.020510935743 Eh    ::
         :: -> anisotropic XC          0.006616640223 Eh    ::
         :: -> dispersion             -0.011305022306 Eh    ::
         :: -> Gsolv                  -0.122682892601 Eh    ::
         ::    -> Gelec               -0.111806095516 Eh    ::
         ::    -> Gsasa                0.004206428784 Eh    ::
         ::    -> Ghb                 -0.016163985567 Eh    ::
         ::    -> Gshift               0.001080759698 Eh    ::
         :: repulsion energy           0.290359362079 Eh    ::
         :: add. restraining           0.000000000000 Eh    ::
         :: total charge               0.000000000000 e     ::
         :::::::::::::::::::::::::::::::::::::::::::::::::::::


Property printout bound to 'properties.out'

           -------------------------------------------------
          | TOTAL ENERGY              -30.713651241524 Eh   |
          | GRADIENT NORM               0.003936576307 Eh/α |
          | HOMO-LUMO GAP               3.731572355445 eV   |
           -------------------------------------------------

------------------------------------------------------------------------
 * finished run on 2026/04/11 at 16:57:59.290     
------------------------------------------------------------------------
 total:
 * wall-time:     0 d,  0 h,  0 min,  0.013 sec
 *  cpu-time:     0 d,  0 h,  0 min,  0.011 sec
 * ratio c/w:     0.853 speedup
 SCF:
 * wall-time:     0 d,  0 h,  0 min,  0.008 sec
 *  cpu-time:     0 d,  0 h,  0 min,  0.006 sec
 * ratio c/w:     0.777 speedup


-------------------------   --------------------
FINAL SINGLE POINT ENERGY       -30.713651241520
-------------------------   --------------------


-------------
DIPOLE MOMENT
-------------
                                X             Y             Z
Total Dipole Moment    :      8.23200      -0.31000      -4.06500
                        -----------------------------------------
Magnitude (a.u.)       :      9.18619
Magnitude (Debye)      :     23.34945


------------------
CARTESIAN GRADIENT
------------------

   1   N   :    0.000321028    0.000592775   -0.000490287
   2   C   :    0.000274493   -0.000373967    0.000911994
   3   C   :    0.000845135    0.001489151   -0.000925966
   4   O   :    0.000202394   -0.000420295    0.000353008
   5   N   :   -0.000632541   -0.001225310   -0.000536518
   6   C   :    0.000517346   -0.000440734    0.000741169
   7   C   :   -0.000746939   -0.000445433   -0.001244605
   8   O   :   -0.000571972   -0.000144577    0.000901173
   9   O   :    0.000959817    0.001003256    0.000366287
  10   H   :   -0.000089195   -0.000143962    0.000179678
  11   H   :   -0.000303355   -0.000271180    0.000155892
  12   H   :   -0.000051667    0.000015843    0.000000599
  13   H   :   -0.000323853   -0.000177955    0.000009052
  14   H   :    0.000054295    0.000025959   -0.000140373
  15   H   :   -0.000152032    0.000324109    0.000017954
  16   H   :   -0.000456272   -0.000021783   -0.000026123
  17   H   :    0.000153316    0.000214103   -0.000272934

Difference to translation invariance:
           :    0.0000000000   -0.0000000000    0.0000000000

Difference to rotation invariance:
           :    0.0002678266    0.0001802870   -0.0000244370

Norm of the Cartesian gradient     ...    0.0039365763
RMS gradient                       ...    0.0005512309
MAX gradient                       ...    0.0014891514
------------------------------------------------------------------------------
                         ORCA GEOMETRY RELAXATION STEP
------------------------------------------------------------------------------

Reading the OPT-File                    .... done
Getting information on internals        .... done
Copying old internal coords+grads       .... done
Making the new internal coordinates     .... (2022 redundants) done
Validating the new internal coordinates .... (2022 redundants) done
Calculating the B-matrix                .... done
Calculating the G,G- and P matrices     .... done
Transforming gradient to internals      .... done
Projecting the internal gradient        .... done
Number of atoms                         ....  17
Number of internal coordinates          ....  69
Current Energy                          ....   -30.713651242 Eh
Current gradient norm                   ....     0.003936576 Eh/bohr
Maximum allowed component of the step   ....  0.300
Current trust radius                    ....  0.700
Updating the Hessian (BFGS)             .... done
Forming the augmented Hessian           .... done
Diagonalizing the augmented Hessian     .... done
Last element of RFO vector              ....  0.996153106
Lowest eigenvalues of augmented Hessian:
 -0.000054467  0.002522545  0.009643864  0.013940977  0.018249289
Length of the computed step             ....  0.087968244
The final length of the internal step   ....  0.087968244
Converting the step to Cartesian space:
 Initial RMS(Int)=    0.0105901321
Transforming coordinates:
 Iter   0:  RMS(Cart)=    0.0174801656 RMS(Int)=    0.0105879913
done
Storing new coordinates                 .... done
The predicted energy change is          ....    -0.000027444
Previously predicted energy change      ....    -0.000072398
Actually observed energy change         ....    -0.000093806
Ratio of predicted to observed change   ....     1.295689163
New trust radius                        ....     0.700000000

                                .--------------------.
          ----------------------|Geometry convergence|-------------------------
          Item                value                   Tolerance       Converged
          ---------------------------------------------------------------------
          Energy change      -0.0000938056            0.0000050000      NO
          RMS gradient        0.0003296209            0.0001000000      NO
          MAX gradient        0.0013970528            0.0003000000      NO
          RMS step            0.0105901321            0.0020000000      NO
          MAX step            0.0368491120            0.0040000000      NO
          -------------------------------------------------------------------------
          ........................................................
          Max(Bonds)      0.0068      Max(Angles)    0.30
          Max(Dihed)        2.11      Max(Improp)    0.00
          ---------------------------------------------------------------------

The optimization has not yet converged - more geometry cycles are needed


    ---------------------------------------------------------------------------
                         Redundant Internal Coordinates
                            (Angstroem and degrees)

        Definition                    Value    dE/dq     Step     New-Value
    ----------------------------------------------------------------------------
     1. B(C   1,N   0)                1.4732 -0.000108  0.0006    1.4737   
     2. B(C   2,C   1)                1.5368 -0.000445  0.0001    1.5369   
     3. B(O   3,C   2)                1.2308  0.000541 -0.0006    1.2302   
     4. B(N   4,C   2)                1.3362  0.000923 -0.0006    1.3356   
     5. B(C   5,N   4)                1.4422  0.000325 -0.0002    1.4419   
     6. B(C   6,C   5)                1.5786  0.000418 -0.0010    1.5776   
     7. B(O   7,C   6)                1.2419  0.000948 -0.0002    1.2417   
     8. B(O   8,C   6)                1.2446  0.001397 -0.0008    1.2438   
     9. B(H   9,N   0)                1.0232 -0.000080  0.0001    1.0233   
    10. B(H  10,N   0)                1.0554  0.000298 -0.0012    1.0542   
    11. B(H  10,O   3)                1.8058 -0.000127  0.0068    1.8126   
    12. B(H  11,N   0)                1.0233 -0.000050  0.0001    1.0234   
    13. B(H  12,C   1)                1.0892  0.000017 -0.0001    1.0891   
    14. B(H  13,C   1)                1.0894  0.000019 -0.0000    1.0894   
    15. B(H  14,N   4)                1.0115  0.000203 -0.0003    1.0112   
    16. B(H  15,C   5)                1.0908 -0.000072  0.0003    1.0911   
    17. B(H  16,C   5)                1.0879  0.000003 -0.0000    1.0878   
    18. A(H  10,N   0,H  11)          109.76  0.000048   -0.00    109.76   
    19. A(H   9,N   0,H  11)          110.06  0.000037   -0.07    110.00   
    20. A(C   1,N   0,H  10)          102.44 -0.000232    0.19    102.63   
    21. A(H   9,N   0,H  10)          108.17 -0.000025    0.03    108.20   
    22. A(C   1,N   0,H   9)          112.69  0.000150   -0.07    112.62   
    23. A(C   1,N   0,H  11)          113.33  0.000002   -0.06    113.27   
    24. A(N   0,C   1,H  13)          111.84 -0.000136   -0.02    111.82   
    25. A(C   2,C   1,H  12)          109.10 -0.000342    0.11    109.22   
    26. A(H  12,C   1,H  13)          109.38 -0.000125   -0.06    109.32   
    27. A(C   2,C   1,H  13)          108.02  0.000126   -0.06    107.96   
    28. A(N   0,C   1,C   2)          106.37  0.000373   -0.00    106.37   
    29. A(N   0,C   1,H  12)          111.98  0.000109    0.03    112.01   
    30. A(C   1,C   2,N   4)          116.43  0.000695   -0.17    116.26   
    31. A(C   1,C   2,O   3)          117.78 -0.000206    0.14    117.92   
    32. A(O   3,C   2,N   4)          125.49 -0.000495    0.05    125.55   
    33. A(C   5,N   4,H  14)          113.99 -0.000265    0.11    114.10   
    34. A(C   2,N   4,C   5)          118.80  0.000262    0.07    118.88   
    35. A(C   2,N   4,H  14)          116.54 -0.000101    0.09    116.63   
    36. A(C   6,C   5,H  16)          109.46 -0.000043    0.09    109.54   
    37. A(N   4,C   5,H  16)          110.76 -0.000384    0.18    110.94   
    38. A(C   6,C   5,H  15)          106.94 -0.000166    0.07    107.01   
    39. A(N   4,C   5,C   6)          109.60  0.000314   -0.04    109.56   
    40. A(N   4,C   5,H  15)          110.31  0.000321   -0.30    110.01   
    41. A(H  15,C   5,H  16)          109.69 -0.000034    0.03    109.72   
    42. A(C   5,C   6,O   7)          116.22  0.000070   -0.00    116.22   
    43. A(O   7,C   6,O   8)          128.15 -0.000259    0.03    128.18   
    44. A(C   5,C   6,O   8)          115.62  0.000182   -0.03    115.60   
    45. D(H  12,C   1,N   0,H   9)    127.22  0.000230   -0.66    126.56   
    46. D(H  12,C   1,N   0,H  11)      1.40  0.000052   -0.46      0.94   
    47. D(C   2,C   1,N   0,H  10)      2.32  0.000014   -0.39      1.93   
    48. D(H  12,C   1,N   0,H  10)   -116.78  0.000135   -0.54   -117.32   
    49. D(C   2,C   1,N   0,H  11)    120.51 -0.000069   -0.31    120.20   
    50. D(C   2,C   1,N   0,H   9)   -113.67  0.000109   -0.50   -114.18   
    51. D(O   3,C   2,C   1,N   0)     -1.16 -0.000101    0.36     -0.81   
    52. D(N   4,C   2,C   1,N   0)   -175.26 -0.000009    0.05   -175.21   
    53. D(O   3,C   2,C   1,H  13)   -121.39 -0.000211    0.42   -120.97   
    54. D(N   4,C   2,C   1,H  12)    -54.29  0.000149    0.15    -54.14   
    55. D(O   3,C   2,C   1,H  12)    119.80  0.000058    0.46    120.26   
    56. D(H  14,N   4,C   2,C   1)    -16.05 -0.000134    0.96    -15.09   
    57. D(C   5,N   4,C   2,O   3)     27.89  0.000200   -0.32     27.57   
    58. D(H  14,N   4,C   2,O   3)    170.37 -0.000062    0.62    170.99   
    59. D(C   5,N   4,C   2,C   1)   -158.53  0.000128    0.02   -158.51   
    60. D(H  16,C   5,N   4,C   2)   -172.57 -0.000114    1.26   -171.31   
    61. D(H  15,C   5,N   4,H  14)    165.67  0.000005    0.29    165.96   
    62. D(H  15,C   5,N   4,C   2)    -50.94 -0.000198    1.23    -49.71   
    63. D(C   6,C   5,N   4,H  14)    -76.84  0.000183    0.14    -76.69   
    64. D(C   6,C   5,N   4,C   2)     66.55 -0.000020    1.09     67.64   
    65. D(O   8,C   6,C   5,H  15)    112.06 -0.000052   -1.80    110.26   
    66. D(O   8,C   6,C   5,N   4)     -7.52 -0.000513   -1.44     -8.96   
    67. D(O   7,C   6,C   5,H  16)     51.44  0.000384   -1.98     49.45   
    68. D(O   7,C   6,C   5,H  15)    -67.33  0.000542   -2.11    -69.44   
    69. D(O   7,C   6,C   5,N   4)    173.09  0.000081   -1.75    171.34   
    ----------------------------------------------------------------------------

Geometry step timings:
Preparation and reading OPT file:      0.000 s ( 1.095 %)
Internal coordinates            :      0.000 s ( 1.095 %)
B/P matrices and projection     :      0.000 s (37.956 %)
Hessian update/contruction      :      0.000 s (10.462 %)
Making the step                 :      0.000 s (30.170 %)
Converting the step to Cartesian:      0.000 s ( 2.920 %)
Storing new data                :      0.000 s ( 1.217 %)
Checking convergence            :      0.000 s ( 1.460 %)
Final printing                  :      0.000 s (13.625 %)
Total time                      :      0.001 s

Time for energy+gradient        :      0.016 s
Time for complete geometry iter :      0.017 s

         *************************************************************
         *                GEOMETRY OPTIMIZATION CYCLE  12            *
         *************************************************************
---------------------------------
CARTESIAN COORDINATES (ANGSTROEM)
---------------------------------
  N     2.608497    0.345400    0.054214
  C     1.399894    0.426185   -0.785200
  C     0.309916   -0.372866   -0.053344
  O     0.608221   -0.913139    1.010890
  N    -0.852529   -0.512408   -0.696005
  C    -2.039013   -0.815764    0.065152
  C    -2.413862    0.418765    0.973028
  O    -3.507947    0.358096    1.557160
  O    -1.568429    1.330072    1.016716
  H     2.881473    1.253260    0.439475
  H     2.295124   -0.269610    0.850965
  H     3.404337   -0.085732   -0.423337
  H     1.558991   -0.005496   -1.772357
  H     1.049269    1.452010   -0.892662
  H    -1.011936    0.098835   -1.485613
  H    -1.848847   -1.657070    0.733352
  H    -2.873160   -1.050538   -0.592435

----------------------------
CARTESIAN COORDINATES (A.U.)
----------------------------
  NO LB    ZA    FRAG    MASS        X           Y           Z
   0 N   7.0000    0    14.007    4.929346    0.652712    0.102449
   1 C   6.0000    0    12.011    2.645416    0.805374   -1.483813
   2 C   6.0000    0    12.011    0.585656   -0.704616   -0.100806
   3 O   8.0000    0    15.999    1.149371   -1.725583    1.910305
   4 N   7.0000    0    14.007   -1.611046   -0.968311   -1.315258
   5 C   6.0000    0    12.011   -3.853176   -1.541571    0.123120
   6 C   6.0000    0    12.011   -4.561538    0.791351    1.838757
   7 O   8.0000    0    15.999   -6.629058    0.676702    2.942606
   8 O   8.0000    0    15.999   -2.963901    2.513472    1.921315
   9 H   1.0000    0     1.008    5.445194    2.368318    0.830488
  10 H   1.0000    0     1.008    4.337155   -0.509490    1.608091
  11 H   1.0000    0     1.008    6.433265   -0.162010   -0.799990
  12 H   1.0000    0     1.008    2.946065   -0.010386   -3.349270
  13 H   1.0000    0     1.008    1.982832    2.743900   -1.686887
  14 H   1.0000    0     1.008   -1.912281    0.186772   -2.807402
  15 H   1.0000    0     1.008   -3.493815   -3.131408    1.385834
  16 H   1.0000    0     1.008   -5.429486   -1.985228   -1.119539

      -----------------------------------------------------------      
     |                   =====================                   |     
     |                           x T B                           |     
     |                   =====================                   |     
     |                         S. Grimme                         |     
     |          Mulliken Center for Theoretical Chemistry        |     
     |                    University of Bonn                     |     
      -----------------------------------------------------------      

   * xtb version 6.7.1 (edcfbbe) compiled by 'albert@albert-system' on 2024-07-22

   xtb is free software: you can redistribute it and/or modify it under
   the terms of the GNU Lesser General Public License as published by
   the Free Software Foundation, either version 3 of the License, or
   (at your option) any later version.
   
   xtb is distributed in the hope that it will be useful,
   but WITHOUT ANY WARRANTY; without even the implied warranty of
   MERCHANTABILITY or FITNESS FOR A PARTICULAR PURPOSE.  See the
   GNU Lesser General Public License for more details.
   
   Cite this work as:
   * C. Bannwarth, E. Caldeweyher, S. Ehlert, A. Hansen, P. Pracht,
     J. Seibert, S. Spicher, S. Grimme, WIREs Comput. Mol. Sci., 2020, 11,
     e01493. DOI: 10.1002/wcms.1493
   
   for GFN2-xTB:
   * C. Bannwarth, S. Ehlert and S. Grimme., J. Chem. Theory Comput., 2019,
     15, 1652-1671. DOI: 10.1021/acs.jctc.8b01176
   for GFN1-xTB:
   * S. Grimme, C. Bannwarth, P. Shushkov, J. Chem. Theory Comput., 2017,
     13, 1989-2009. DOI: 10.1021/acs.jctc.7b00118
   for GFN0-xTB:
   * P. Pracht, E. Caldeweyher, S. Ehlert, S. Grimme, ChemRxiv, 2019, preprint.
     DOI: 10.26434/chemrxiv.8326202.v1
   for GFN-FF:
   * S. Spicher and S. Grimme, Angew. Chem. Int. Ed., 2020, 59, 15665-15673.
     DOI: 10.1002/anie.202004239
   
   for ALPB and GBSA implicit solvation:
   * S. Ehlert, M. Stahn, S. Spicher, S. Grimme, J. Chem. Theory Comput.,
     2021, 17, 4250-4261. DOI: 10.1021/acs.jctc.1c00471
   
   for ddCOSMO and CPCM-X implicit solvation:
   * M. Stahn, S. Ehlert, S. Grimme, J. Phys. Chem. A,
     2023, XX, XXXX-XXXX. DOI: 10.1021/acs.jpca.3c04382
   
   for DFT-D4:
   * E. Caldeweyher, C. Bannwarth and S. Grimme, J. Chem. Phys., 2017,
     147, 034112. DOI: 10.1063/1.4993215
   * E. Caldeweyher, S. Ehlert, A. Hansen, H. Neugebauer, S. Spicher,
     C. Bannwarth and S. Grimme, J. Chem. Phys., 2019, 150, 154122.
     DOI: 10.1063/1.5090222
   * E. Caldeweyher, J.-M. Mewes, S. Ehlert and S. Grimme, Phys. Chem. Chem. Phys.
     2020, 22, 8499-8512. DOI: 10.1039/D0CP00502A
   
   for sTDA-xTB:
   * S. Grimme and C. Bannwarth, J. Chem. Phys., 2016, 145, 054103.
     DOI: 10.1063/1.4959605
   
   in the mass-spec context:
   * V. Asgeirsson, C. Bauer and S. Grimme, Chem. Sci., 2017, 8, 4879.
     DOI: 10.1039/c7sc00601b
   * J. Koopman and S. Grimme, ACS Omega 2019, 4, 12, 15120-15133.
     DOI: 10.1021/acsomega.9b02011
   
   for metadynamics refer to:
   * S. Grimme, J. Chem. Theory Comput., 2019, 155, 2847-2862
     DOI: 10.1021/acs.jctc.9b00143
   
   for SPH calculations refer to:
   * S. Spicher and S. Grimme, J. Chem. Theory Comput., 2021, 17, 1701-1714
     DOI: 10.1021/acs.jctc.0c01306
   
   for ONIOM refer to:
   * C. Plett, A. Katbashev, S. Ehlert, S. Grimme, M. Bursch,
     Phys. Chem. Chem. Phys., 2023, 25, 17860-17868. DOI: 10.1039/D3CP02178E
   
   for DIPRO refer to:
   * J. Kohn, N. Gildemeister, S. Grimme, D. Fazzi, A. Hansen,
     J. Chem. Phys., 2023, just accepted.
   
   for PTB refer to:
   * S. Grimme, M. Mueller, A. Hansen, J. Chem. Phys., 2023, 158, 124111.
     DOI: 10.1063/5.0137838
   
   with help from (in alphabetical order)
   P. Atkinson, C. Bannwarth, F. Bohle, G. Brandenburg, E. Caldeweyher
   M. Checinski, S. Dohm, S. Ehlert, S. Ehrlich, I. Gerasimov, C. Hölzer
   A. Katbashev, J. Kohn, J. Koopman, C. Lavigne, S. Lehtola, F. März, M. Müller,
   F. Musil, H. Neugebauer, J. Pisarek, C. Plett, P. Pracht, F. Pultar,
   J. Seibert, P. Shushkov, S. Spicher, M. Stahn, M. Steiner, T. Strunk,
   J. Stückrath, T. Rose, and J. Unsleber
   
 * started run on 2026/04/11 at 16:57:59.294     
   ID    Z sym.   atoms
    1    7 N      1, 5
    2    6 C      2, 3, 6, 7
    3    8 O      4, 8, 9
    4    1 H      10-17

           -------------------------------------------------
          |                Calculation Setup                |
           -------------------------------------------------

          program call               : /home/analima/Programs/orca-6.1.0-f.0_linux_x86-64/bin/otool_xtb geo_opt_XTB.xyz --grad -c 0 -u 0 -P 1 --namespace geo_opt --input geo_opt_XTB.input.tmp --alpb WATER --acc 0.200000
          calculation namespace      : geo_opt
          coordinate file            : geo_opt_XTB.xyz
          omp threads                :                     1


           -------------------------------------------------
          |                 G F N 2 - x T B                 |
           -------------------------------------------------

        Reference                      10.1021/acs.jctc.8b01176
      * Hamiltonian:
        H0-scaling (s, p, d)           1.850000    2.230000    2.230000
        zeta-weighting                 0.500000
      * Dispersion:
        s8                             2.700000
        a1                             0.520000
        a2                             5.000000
        s9                             5.000000
      * Repulsion:
        kExp                           1.500000    1.000000
        rExp                           1.000000
      * Coulomb:
        alpha                          2.000000
        third order                    shell-resolved
        anisotropic                    true
        a3                             3.000000
        a5                             4.000000
        cn-shift                       1.200000
        cn-exp                         4.000000
        max-rad                        5.000000

      * Solvation model:               ALPB
        Solvent                        WATER
        Parameter file                 internal GFN2-xTB/ALPB
        Dielectric constant                8.0200E+01
        Reference state                gsolv [1 M gas/solution]
        Free energy shift                  1.0808E-03 Eh       6.7819E-01 kcal/mol
        Temperature                        2.9815E+02 K
        Density                            1.0000E+00 kg/L
        Solvent mass                       1.8000E+01 g/mol
        Interaction kernel             P16
        Born radius scaling (c1)           1.4744E+00
        Born radii integrator          GBOBC
        Born offset                        0.0000E+00 a0       0.0000E+00 AA
        H-bond correction              true
        Ion screening                  false
        Surface tension                    1.0000E-05 Eh       1.5569E+01 dyn/cm
        Grid points                               230 per atom
q/qsh data taken from xtbrestart
CAMM data taken from xtbrestart

          ...................................................
          :                      SETUP                      :
          :.................................................:
          :  # basis functions                  44          :
          :  # atomic orbitals                  44          :
          :  # shells                           26          :
          :  # electrons                        52          :
          :  max. iterations                   250          :
          :  Hamiltonian                  GFN2-xTB          :
          :  restarted?                       true          :
          :  GBSA solvation                   true          :
          :  PC potential                    false          :
          :  electronic temp.          300.0000000     K    :
          :  accuracy                    0.2000000          :
          :  -> integral cutoff          0.3198970E+02      :
          :  -> integral neglect         0.2000000E-08      :
          :  -> SCF convergence          0.2000000E-06 Eh   :
          :  -> wf. convergence          0.2000000E-04 e    :
          :  Broyden damping             0.4000000          :
          :  net charge                          0          :
          :  unpaired electrons                  0          :
          ...................................................

 iter      E             dE          RMSdq      gap      omega  full diag
   1    -31.0047133 -0.310047E+02  0.716E-02    3.74       0.0  T
   2    -31.0047139 -0.685088E-06  0.415E-02    3.74       1.0  T
   3    -31.0047141 -0.170871E-06  0.299E-03    3.74       8.1  T
   4    -31.0047142 -0.421047E-07  0.150E-03    3.74      16.1  T
   5    -31.0047142 -0.340425E-08  0.730E-04    3.74      33.2  T
   6    -31.0047142 -0.830589E-09  0.156E-04    3.74     155.2  T
   7    -31.0047142 -0.389235E-10  0.628E-05    3.74     386.0  T

   *** convergence criteria satisfied after 7 iterations ***

         #    Occupation            Energy/Eh            Energy/eV
      -------------------------------------------------------------
         1        2.0000           -0.7250357             -19.7292
       ...           ...                  ...                  ...
        20        2.0000           -0.4827836             -13.1372
        21        2.0000           -0.4647678             -12.6470
        22        2.0000           -0.4399838             -11.9726
        23        2.0000           -0.4232915             -11.5183
        24        2.0000           -0.4057782             -11.0418
        25        2.0000           -0.3909752             -10.6390
        26        2.0000           -0.3643255              -9.9138 (HOMO)
        27                         -0.2268417              -6.1727 (LUMO)
        28                         -0.1767767              -4.8103
        29                         -0.0470589              -1.2805
        30                          0.0204639               0.5569
        31                          0.0485567               1.3213
       ...                                ...                  ...
        44                          0.6469226              17.6037
      -------------------------------------------------------------
                  HL-Gap            0.1374838 Eh            3.7411 eV
             Fermi-level           -0.2955836 Eh           -8.0432 eV

 SCC (total)                   0 d,  0 h,  0 min,  0.008 sec
 SCC setup                      ...        0 min,  0.000 sec (  2.445%)
 Dispersion                     ...        0 min,  0.000 sec (  0.512%)
 classical contributions        ...        0 min,  0.000 sec (  0.125%)
 integral evaluation            ...        0 min,  0.001 sec (  8.170%)
 iterations                     ...        0 min,  0.004 sec ( 50.674%)
 molecular gradient             ...        0 min,  0.003 sec ( 37.149%)
 printout                       ...        0 min,  0.000 sec (  0.824%)

         :::::::::::::::::::::::::::::::::::::::::::::::::::::
         ::                     SUMMARY                     ::
         :::::::::::::::::::::::::::::::::::::::::::::::::::::
         :: total energy             -30.713686069924 Eh    ::
         :: total w/o Gsasa/hb       -30.702814458918 Eh    ::
         :: gradient norm              0.002173383607 Eh/a0 ::
         :: HOMO-LUMO gap              3.741124937381 eV    ::
         ::.................................................::
         :: SCC energy               -31.004696355921 Eh    ::
         :: -> isotropic ES            0.274265575992 Eh    ::
         :: -> anisotropic ES         -0.020386822649 Eh    ::
         :: -> anisotropic XC          0.006585467129 Eh    ::
         :: -> dispersion             -0.011294457242 Eh    ::
         :: -> Gsolv                  -0.122914043486 Eh    ::
         ::    -> Gelec               -0.112042432481 Eh    ::
         ::    -> Gsasa                0.004220297393 Eh    ::
         ::    -> Ghb                 -0.016172668097 Eh    ::
         ::    -> Gshift               0.001080759698 Eh    ::
         :: repulsion energy           0.291010285997 Eh    ::
         :: add. restraining           0.000000000000 Eh    ::
         :: total charge               0.000000000000 e     ::
         :::::::::::::::::::::::::::::::::::::::::::::::::::::


Property printout bound to 'properties.out'

           -------------------------------------------------
          | TOTAL ENERGY              -30.713686069924 Eh   |
          | GRADIENT NORM               0.002173383607 Eh/α |
          | HOMO-LUMO GAP               3.741124937381 eV   |
           -------------------------------------------------

------------------------------------------------------------------------
 * finished run on 2026/04/11 at 16:57:59.307     
------------------------------------------------------------------------
 total:
 * wall-time:     0 d,  0 h,  0 min,  0.013 sec
 *  cpu-time:     0 d,  0 h,  0 min,  0.012 sec
 * ratio c/w:     0.886 speedup
 SCF:
 * wall-time:     0 d,  0 h,  0 min,  0.008 sec
 *  cpu-time:     0 d,  0 h,  0 min,  0.007 sec
 * ratio c/w:     0.822 speedup


-------------------------   --------------------
FINAL SINGLE POINT ENERGY       -30.713686069920
-------------------------   --------------------


-------------
DIPOLE MOMENT
-------------
                                X             Y             Z
Total Dipole Moment    :      8.27800      -0.32200      -4.04800
                        -----------------------------------------
Magnitude (a.u.)       :      9.22037
Magnitude (Debye)      :     23.43632


------------------
CARTESIAN GRADIENT
------------------

   1   N   :    0.000146518    0.000092852    0.000014221
   2   C   :   -0.000041304   -0.000155027    0.000537305
   3   C   :    0.001095433    0.000781095   -0.000327775
   4   O   :   -0.000133115   -0.000245804   -0.000047367
   5   N   :   -0.000436223   -0.000566216   -0.000146284
   6   C   :   -0.000018023    0.000113631    0.000734454
   7   C   :   -0.000076780   -0.000297700   -0.000696949
   8   O   :   -0.000314069   -0.000027544    0.000336839
   9   O   :    0.000309312    0.000259420    0.000144403
  10   H   :   -0.000088020   -0.000087847    0.000127027
  11   H   :   -0.000031124   -0.000005151   -0.000022985
  12   H   :   -0.000025872    0.000070118   -0.000041041
  13   H   :   -0.000349530   -0.000058482   -0.000033376
  14   H   :    0.000072099    0.000000102   -0.000218869
  15   H   :   -0.000059017    0.000064988   -0.000056135
  16   H   :   -0.000121596   -0.000062289   -0.000113772
  17   H   :    0.000071311    0.000123853   -0.000189693

Difference to translation invariance:
           :    0.0000000000   -0.0000000000    0.0000000000

Difference to rotation invariance:
           :    0.0002739905    0.0001765168   -0.0000480241

Norm of the Cartesian gradient     ...    0.0021733836
RMS gradient                       ...    0.0003043346
MAX gradient                       ...    0.0010954327
------------------------------------------------------------------------------
                         ORCA GEOMETRY RELAXATION STEP
------------------------------------------------------------------------------

Reading the OPT-File                    .... done
Getting information on internals        .... done
Copying old internal coords+grads       .... done
Making the new internal coordinates     .... (2022 redundants) done
Validating the new internal coordinates .... (2022 redundants) done
Calculating the B-matrix                .... done
Calculating the G,G- and P matrices     .... done
Transforming gradient to internals      .... done
Projecting the internal gradient        .... done
Number of atoms                         ....  17
Number of internal coordinates          ....  69
Current Energy                          ....   -30.713686070 Eh
Current gradient norm                   ....     0.002173384 Eh/bohr
Maximum allowed component of the step   ....  0.300
Current trust radius                    ....  0.700
Updating the Hessian (BFGS)             .... done
Forming the augmented Hessian           .... done
Diagonalizing the augmented Hessian     .... done
Last element of RFO vector              ....  0.999321959
Lowest eigenvalues of augmented Hessian:
 -0.000016490  0.002423388  0.009350190  0.013956793  0.017682597
Length of the computed step             ....  0.036843747
The final length of the internal step   ....  0.036843747
Converting the step to Cartesian space:
 Initial RMS(Int)=    0.0044354660
Transforming coordinates:
 Iter   0:  RMS(Cart)=    0.0073580830 RMS(Int)=    0.0044356805
done
Storing new coordinates                 .... done
The predicted energy change is          ....    -0.000008256
Previously predicted energy change      ....    -0.000027444
Actually observed energy change         ....    -0.000034828
Ratio of predicted to observed change   ....     1.269050963
New trust radius                        ....     0.700000000

                                .--------------------.
          ----------------------|Geometry convergence|-------------------------
          Item                value                   Tolerance       Converged
          ---------------------------------------------------------------------
          Energy change      -0.0000348284            0.0000050000      NO
          RMS gradient        0.0001712030            0.0001000000      NO
          MAX gradient        0.0006046807            0.0003000000      NO
          RMS step            0.0044354660            0.0020000000      NO
          MAX step            0.0129513456            0.0040000000      NO
          -------------------------------------------------------------------------
          ........................................................
          Max(Bonds)      0.0009      Max(Angles)    0.16
          Max(Dihed)        0.74      Max(Improp)    0.00
          ---------------------------------------------------------------------

The optimization has not yet converged - more geometry cycles are needed


    ---------------------------------------------------------------------------
                         Redundant Internal Coordinates
                            (Angstroem and degrees)

        Definition                    Value    dE/dq     Step     New-Value
    ----------------------------------------------------------------------------
     1. B(C   1,N   0)                1.4737  0.000042  0.0002    1.4739   
     2. B(C   2,C   1)                1.5369 -0.000477  0.0009    1.5378   
     3. B(O   3,C   2)                1.2302  0.000037 -0.0002    1.2300   
     4. B(N   4,C   2)                1.3356  0.000605 -0.0009    1.3347   
     5. B(C   5,N   4)                1.4419  0.000208 -0.0003    1.4416   
     6. B(C   6,C   5)                1.5776 -0.000157  0.0004    1.5780   
     7. B(O   7,C   6)                1.2417  0.000435 -0.0003    1.2414   
     8. B(O   8,C   6)                1.2438  0.000407 -0.0005    1.2433   
     9. B(H   9,N   0)                1.0233 -0.000050  0.0001    1.0234   
    10. B(H  10,N   0)                1.0542 -0.000003 -0.0003    1.0539   
    11. B(H  10,O   3)                1.8126  0.000003  0.0009    1.8134   
    12. B(H  11,N   0)                1.0234 -0.000033  0.0000    1.0234   
    13. B(H  12,C   1)                1.0891  0.000004 -0.0001    1.0890   
    14. B(H  13,C   1)                1.0894 -0.000005 -0.0001    1.0893   
    15. B(H  14,N   4)                1.0112  0.000088 -0.0003    1.0109   
    16. B(H  15,C   5)                1.0911 -0.000040  0.0002    1.0913   
    17. B(H  16,C   5)                1.0878  0.000032 -0.0002    1.0876   
    18. A(H  10,N   0,H  11)          109.76  0.000055   -0.02    109.74   
    19. A(H   9,N   0,H  11)          110.00  0.000034   -0.04    109.96   
    20. A(C   1,N   0,H  10)          102.63 -0.000072    0.06    102.69   
    21. A(H   9,N   0,H  10)          108.20 -0.000046    0.02    108.22   
    22. A(C   1,N   0,H   9)          112.62  0.000046   -0.02    112.60   
    23. A(C   1,N   0,H  11)          113.27 -0.000023   -0.00    113.27   
    24. A(N   0,C   1,H  13)          111.82 -0.000039   -0.02    111.81   
    25. A(C   2,C   1,H  12)          109.22 -0.000227    0.10    109.32   
    26. A(H  12,C   1,H  13)          109.32 -0.000226    0.07    109.39   
    27. A(C   2,C   1,H  13)          107.96  0.000216   -0.07    107.88   
    28. A(N   0,C   1,C   2)          106.37  0.000059   -0.03    106.34   
    29. A(N   0,C   1,H  12)          112.01  0.000221   -0.06    111.95   
    30. A(C   1,C   2,N   4)          116.26  0.000239   -0.11    116.15   
    31. A(C   1,C   2,O   3)          117.92  0.000129    0.02    117.94   
    32. A(O   3,C   2,N   4)          125.55 -0.000368    0.10    125.65   
    33. A(C   5,N   4,H  14)          114.18 -0.000224    0.10    114.28   
    34. A(C   2,N   4,C   5)          118.96  0.000317    0.01    118.96   
    35. A(C   2,N   4,H  14)          116.73 -0.000100    0.10    116.83   
    36. A(C   6,C   5,H  16)          109.55 -0.000004    0.06    109.61   
    37. A(N   4,C   5,H  16)          110.93 -0.000243    0.16    111.09   
    38. A(C   6,C   5,H  15)          107.00  0.000061   -0.05    106.95   
    39. A(N   4,C   5,C   6)          109.55  0.000074   -0.03    109.53   
    40. A(N   4,C   5,H  15)          110.00  0.000101   -0.16    109.84   
    41. A(H  15,C   5,H  16)          109.72  0.000023    0.02    109.74   
    42. A(C   5,C   6,O   7)          116.22  0.000067   -0.02    116.20   
    43. A(O   7,C   6,O   8)          128.18 -0.000080    0.05    128.23   
    44. A(C   5,C   6,O   8)          115.60  0.000012   -0.02    115.57   
    45. D(H  12,C   1,N   0,H   9)    126.56  0.000172   -0.46    126.10   
    46. D(H  12,C   1,N   0,H  11)      0.94  0.000107   -0.40      0.54   
    47. D(C   2,C   1,N   0,H  10)      1.93 -0.000018   -0.34      1.60   
    48. D(H  12,C   1,N   0,H  10)   -117.33  0.000097   -0.41   -117.74   
    49. D(C   2,C   1,N   0,H  11)    120.20 -0.000008   -0.32    119.87   
    50. D(C   2,C   1,N   0,H   9)   -114.18  0.000057   -0.39   -114.57   
    51. D(O   3,C   2,C   1,N   0)     -0.80 -0.000075    0.22     -0.58   
    52. D(N   4,C   2,C   1,N   0)   -175.21 -0.000055    0.07   -175.14   
    53. D(O   3,C   2,C   1,H  13)   -120.97 -0.000176    0.30   -120.67   
    54. D(N   4,C   2,C   1,H  12)    -54.14  0.000118    0.05    -54.10   
    55. D(O   3,C   2,C   1,H  12)    120.26  0.000098    0.20    120.46   
    56. D(H  14,N   4,C   2,C   1)    -15.10  0.000052    0.15    -14.94   
    57. D(C   5,N   4,C   2,O   3)     27.58  0.000131   -0.43     27.15   
    58. D(H  14,N   4,C   2,O   3)    170.98  0.000038   -0.01    170.98   
    59. D(C   5,N   4,C   2,C   1)   -158.50  0.000145   -0.27   -158.77   
    60. D(H  16,C   5,N   4,C   2)   -171.31 -0.000067    0.65   -170.67   
    61. D(H  15,C   5,N   4,H  14)    165.98 -0.000077    0.25    166.22   
    62. D(H  15,C   5,N   4,C   2)    -49.73 -0.000131    0.67    -49.06   
    63. D(C   6,C   5,N   4,H  14)    -76.67  0.000100    0.07    -76.60   
    64. D(C   6,C   5,N   4,C   2)     67.62  0.000046    0.49     68.11   
    65. D(O   8,C   6,C   5,H  15)    110.26 -0.000030   -0.57    109.69   
    66. D(O   8,C   6,C   5,N   4)     -8.96 -0.000226   -0.33     -9.29   
    67. D(O   7,C   6,C   5,H  16)     49.45  0.000194   -0.72     48.73   
    68. D(O   7,C   6,C   5,H  15)    -69.43  0.000134   -0.74    -70.18   
    69. D(O   7,C   6,C   5,N   4)    171.35 -0.000063   -0.50    170.84   
    ----------------------------------------------------------------------------

Geometry step timings:
Preparation and reading OPT file:      0.000 s ( 1.300 %)
Internal coordinates            :      0.000 s ( 1.100 %)
B/P matrices and projection     :      0.000 s (39.200 %)
Hessian update/contruction      :      0.000 s (10.500 %)
Making the step                 :      0.000 s (28.500 %)
Converting the step to Cartesian:      0.000 s ( 2.600 %)
Storing new data                :      0.000 s ( 1.200 %)
Checking convergence            :      0.000 s ( 1.400 %)
Final printing                  :      0.000 s (14.200 %)
Total time                      :      0.001 s

Time for energy+gradient        :      0.017 s
Time for complete geometry iter :      0.018 s

         *************************************************************
         *                GEOMETRY OPTIMIZATION CYCLE  13            *
         *************************************************************
---------------------------------
CARTESIAN COORDINATES (ANGSTROEM)
---------------------------------
  N     2.610351    0.342296    0.051913
  C     1.400065    0.427608   -0.784971
  C     0.309922   -0.371647   -0.051715
  O     0.608442   -0.911355    1.012459
  N    -0.852210   -0.507586   -0.693816
  C    -2.037932   -0.815867    0.066013
  C    -2.419265    0.418379    0.972252
  O    -3.517754    0.357420    1.547325
  O    -1.575190    1.330002    1.020411
  H     2.889379    1.249924    0.433577
  H     2.296580   -0.268869    0.851074
  H     3.402806   -0.094099   -0.426566
  H     1.557621   -0.001022   -1.773588
  H     1.050412    1.454220   -0.887331
  H    -1.011490    0.102886   -1.483722
  H    -1.840721   -1.653933    0.736526
  H    -2.871015   -1.058357   -0.589840

----------------------------
CARTESIAN COORDINATES (A.U.)
----------------------------
  NO LB    ZA    FRAG    MASS        X           Y           Z
   0 N   7.0000    0    14.007    4.932848    0.646846    0.098101
   1 C   6.0000    0    12.011    2.645740    0.808062   -1.483381
   2 C   6.0000    0    12.011    0.585669   -0.702310   -0.097728
   3 O   8.0000    0    15.999    1.149788   -1.722211    1.913270
   4 N   7.0000    0    14.007   -1.610444   -0.959199   -1.311122
   5 C   6.0000    0    12.011   -3.851133   -1.541766    0.124747
   6 C   6.0000    0    12.011   -4.571749    0.790622    1.837290
   7 O   8.0000    0    15.999   -6.647592    0.675426    2.924021
   8 O   8.0000    0    15.999   -2.976677    2.513340    1.928297
   9 H   1.0000    0     1.008    5.460135    2.362014    0.819342
  10 H   1.0000    0     1.008    4.339908   -0.508089    1.608296
  11 H   1.0000    0     1.008    6.430371   -0.177822   -0.806093
  12 H   1.0000    0     1.008    2.943476   -0.001931   -3.351596
  13 H   1.0000    0     1.008    1.984990    2.748077   -1.676812
  14 H   1.0000    0     1.008   -1.911439    0.194427   -2.803828
  15 H   1.0000    0     1.008   -3.478458   -3.125480    1.391832
  16 H   1.0000    0     1.008   -5.425433   -2.000006   -1.114636

      -----------------------------------------------------------      
     |                   =====================                   |     
     |                           x T B                           |     
     |                   =====================                   |     
     |                         S. Grimme                         |     
     |          Mulliken Center for Theoretical Chemistry        |     
     |                    University of Bonn                     |     
      -----------------------------------------------------------      

   * xtb version 6.7.1 (edcfbbe) compiled by 'albert@albert-system' on 2024-07-22

   xtb is free software: you can redistribute it and/or modify it under
   the terms of the GNU Lesser General Public License as published by
   the Free Software Foundation, either version 3 of the License, or
   (at your option) any later version.
   
   xtb is distributed in the hope that it will be useful,
   but WITHOUT ANY WARRANTY; without even the implied warranty of
   MERCHANTABILITY or FITNESS FOR A PARTICULAR PURPOSE.  See the
   GNU Lesser General Public License for more details.
   
   Cite this work as:
   * C. Bannwarth, E. Caldeweyher, S. Ehlert, A. Hansen, P. Pracht,
     J. Seibert, S. Spicher, S. Grimme, WIREs Comput. Mol. Sci., 2020, 11,
     e01493. DOI: 10.1002/wcms.1493
   
   for GFN2-xTB:
   * C. Bannwarth, S. Ehlert and S. Grimme., J. Chem. Theory Comput., 2019,
     15, 1652-1671. DOI: 10.1021/acs.jctc.8b01176
   for GFN1-xTB:
   * S. Grimme, C. Bannwarth, P. Shushkov, J. Chem. Theory Comput., 2017,
     13, 1989-2009. DOI: 10.1021/acs.jctc.7b00118
   for GFN0-xTB:
   * P. Pracht, E. Caldeweyher, S. Ehlert, S. Grimme, ChemRxiv, 2019, preprint.
     DOI: 10.26434/chemrxiv.8326202.v1
   for GFN-FF:
   * S. Spicher and S. Grimme, Angew. Chem. Int. Ed., 2020, 59, 15665-15673.
     DOI: 10.1002/anie.202004239
   
   for ALPB and GBSA implicit solvation:
   * S. Ehlert, M. Stahn, S. Spicher, S. Grimme, J. Chem. Theory Comput.,
     2021, 17, 4250-4261. DOI: 10.1021/acs.jctc.1c00471
   
   for ddCOSMO and CPCM-X implicit solvation:
   * M. Stahn, S. Ehlert, S. Grimme, J. Phys. Chem. A,
     2023, XX, XXXX-XXXX. DOI: 10.1021/acs.jpca.3c04382
   
   for DFT-D4:
   * E. Caldeweyher, C. Bannwarth and S. Grimme, J. Chem. Phys., 2017,
     147, 034112. DOI: 10.1063/1.4993215
   * E. Caldeweyher, S. Ehlert, A. Hansen, H. Neugebauer, S. Spicher,
     C. Bannwarth and S. Grimme, J. Chem. Phys., 2019, 150, 154122.
     DOI: 10.1063/1.5090222
   * E. Caldeweyher, J.-M. Mewes, S. Ehlert and S. Grimme, Phys. Chem. Chem. Phys.
     2020, 22, 8499-8512. DOI: 10.1039/D0CP00502A
   
   for sTDA-xTB:
   * S. Grimme and C. Bannwarth, J. Chem. Phys., 2016, 145, 054103.
     DOI: 10.1063/1.4959605
   
   in the mass-spec context:
   * V. Asgeirsson, C. Bauer and S. Grimme, Chem. Sci., 2017, 8, 4879.
     DOI: 10.1039/c7sc00601b
   * J. Koopman and S. Grimme, ACS Omega 2019, 4, 12, 15120-15133.
     DOI: 10.1021/acsomega.9b02011
   
   for metadynamics refer to:
   * S. Grimme, J. Chem. Theory Comput., 2019, 155, 2847-2862
     DOI: 10.1021/acs.jctc.9b00143
   
   for SPH calculations refer to:
   * S. Spicher and S. Grimme, J. Chem. Theory Comput., 2021, 17, 1701-1714
     DOI: 10.1021/acs.jctc.0c01306
   
   for ONIOM refer to:
   * C. Plett, A. Katbashev, S. Ehlert, S. Grimme, M. Bursch,
     Phys. Chem. Chem. Phys., 2023, 25, 17860-17868. DOI: 10.1039/D3CP02178E
   
   for DIPRO refer to:
   * J. Kohn, N. Gildemeister, S. Grimme, D. Fazzi, A. Hansen,
     J. Chem. Phys., 2023, just accepted.
   
   for PTB refer to:
   * S. Grimme, M. Mueller, A. Hansen, J. Chem. Phys., 2023, 158, 124111.
     DOI: 10.1063/5.0137838
   
   with help from (in alphabetical order)
   P. Atkinson, C. Bannwarth, F. Bohle, G. Brandenburg, E. Caldeweyher
   M. Checinski, S. Dohm, S. Ehlert, S. Ehrlich, I. Gerasimov, C. Hölzer
   A. Katbashev, J. Kohn, J. Koopman, C. Lavigne, S. Lehtola, F. März, M. Müller,
   F. Musil, H. Neugebauer, J. Pisarek, C. Plett, P. Pracht, F. Pultar,
   J. Seibert, P. Shushkov, S. Spicher, M. Stahn, M. Steiner, T. Strunk,
   J. Stückrath, T. Rose, and J. Unsleber
   
 * started run on 2026/04/11 at 16:57:59.312     
   ID    Z sym.   atoms
    1    7 N      1, 5
    2    6 C      2, 3, 6, 7
    3    8 O      4, 8, 9
    4    1 H      10-17

           -------------------------------------------------
          |                Calculation Setup                |
           -------------------------------------------------

          program call               : /home/analima/Programs/orca-6.1.0-f.0_linux_x86-64/bin/otool_xtb geo_opt_XTB.xyz --grad -c 0 -u 0 -P 1 --namespace geo_opt --input geo_opt_XTB.input.tmp --alpb WATER --acc 0.200000
          calculation namespace      : geo_opt
          coordinate file            : geo_opt_XTB.xyz
          omp threads                :                     1


           -------------------------------------------------
          |                 G F N 2 - x T B                 |
           -------------------------------------------------

        Reference                      10.1021/acs.jctc.8b01176
      * Hamiltonian:
        H0-scaling (s, p, d)           1.850000    2.230000    2.230000
        zeta-weighting                 0.500000
      * Dispersion:
        s8                             2.700000
        a1                             0.520000
        a2                             5.000000
        s9                             5.000000
      * Repulsion:
        kExp                           1.500000    1.000000
        rExp                           1.000000
      * Coulomb:
        alpha                          2.000000
        third order                    shell-resolved
        anisotropic                    true
        a3                             3.000000
        a5                             4.000000
        cn-shift                       1.200000
        cn-exp                         4.000000
        max-rad                        5.000000

      * Solvation model:               ALPB
        Solvent                        WATER
        Parameter file                 internal GFN2-xTB/ALPB
        Dielectric constant                8.0200E+01
        Reference state                gsolv [1 M gas/solution]
        Free energy shift                  1.0808E-03 Eh       6.7819E-01 kcal/mol
        Temperature                        2.9815E+02 K
        Density                            1.0000E+00 kg/L
        Solvent mass                       1.8000E+01 g/mol
        Interaction kernel             P16
        Born radius scaling (c1)           1.4744E+00
        Born radii integrator          GBOBC
        Born offset                        0.0000E+00 a0       0.0000E+00 AA
        H-bond correction              true
        Ion screening                  false
        Surface tension                    1.0000E-05 Eh       1.5569E+01 dyn/cm
        Grid points                               230 per atom
q/qsh data taken from xtbrestart
CAMM data taken from xtbrestart

          ...................................................
          :                      SETUP                      :
          :.................................................:
          :  # basis functions                  44          :
          :  # atomic orbitals                  44          :
          :  # shells                           26          :
          :  # electrons                        52          :
          :  max. iterations                   250          :
          :  Hamiltonian                  GFN2-xTB          :
          :  restarted?                       true          :
          :  GBSA solvation                   true          :
          :  PC potential                    false          :
          :  electronic temp.          300.0000000     K    :
          :  accuracy                    0.2000000          :
          :  -> integral cutoff          0.3198970E+02      :
          :  -> integral neglect         0.2000000E-08      :
          :  -> SCF convergence          0.2000000E-06 Eh   :
          :  -> wf. convergence          0.2000000E-04 e    :
          :  Broyden damping             0.4000000          :
          :  net charge                          0          :
          :  unpaired electrons                  0          :
          ...................................................

 iter      E             dE          RMSdq      gap      omega  full diag
   1    -31.0051380 -0.310051E+02  0.215E-02    3.75       0.0  T
   2    -31.0051383 -0.344779E-06  0.123E-02    3.75       2.0  T
   3    -31.0051383 -0.282233E-08  0.294E-03    3.75       8.2  T
   4    -31.0051384 -0.238295E-07  0.546E-04    3.75      44.5  T
   5    -31.0051384 -0.146068E-08  0.285E-04    3.75      85.0  T
   6    -31.0051384 -0.504130E-10  0.505E-05    3.75     480.1  T
   7    -31.0051384 -0.559552E-11  0.237E-05    3.75    1023.7  T

   *** convergence criteria satisfied after 7 iterations ***

         #    Occupation            Energy/Eh            Energy/eV
      -------------------------------------------------------------
         1        2.0000           -0.7250215             -19.7288
       ...           ...                  ...                  ...
        20        2.0000           -0.4828287             -13.1384
        21        2.0000           -0.4646885             -12.6448
        22        2.0000           -0.4400065             -11.9732
        23        2.0000           -0.4232493             -11.5172
        24        2.0000           -0.4057844             -11.0420
        25        2.0000           -0.3909682             -10.6388
        26        2.0000           -0.3641739              -9.9097 (HOMO)
        27                         -0.2265168              -6.1638 (LUMO)
        28                         -0.1765234              -4.8034
        29                         -0.0471222              -1.2823
        30                          0.0204311               0.5560
        31                          0.0482176               1.3121
       ...                                ...                  ...
        44                          0.6486694              17.6512
      -------------------------------------------------------------
                  HL-Gap            0.1376571 Eh            3.7458 eV
             Fermi-level           -0.2953453 Eh           -8.0368 eV

 SCC (total)                   0 d,  0 h,  0 min,  0.008 sec
 SCC setup                      ...        0 min,  0.000 sec (  3.720%)
 Dispersion                     ...        0 min,  0.000 sec (  0.907%)
 classical contributions        ...        0 min,  0.000 sec (  0.208%)
 integral evaluation            ...        0 min,  0.001 sec ( 15.205%)
 iterations                     ...        0 min,  0.005 sec ( 58.287%)
 molecular gradient             ...        0 min,  0.002 sec ( 21.167%)
 printout                       ...        0 min,  0.000 sec (  0.387%)

         :::::::::::::::::::::::::::::::::::::::::::::::::::::
         ::                     SUMMARY                     ::
         :::::::::::::::::::::::::::::::::::::::::::::::::::::
         :: total energy             -30.713697042966 Eh    ::
         :: total w/o Gsasa/hb       -30.702833546044 Eh    ::
         :: gradient norm              0.000928114254 Eh/a0 ::
         :: HOMO-LUMO gap              3.745841405013 eV    ::
         ::.................................................::
         :: SCC energy               -31.005120840362 Eh    ::
         :: -> isotropic ES            0.274268809399 Eh    ::
         :: -> anisotropic ES         -0.020327251709 Eh    ::
         :: -> anisotropic XC          0.006578613375 Eh    ::
         :: -> dispersion             -0.011289478682 Eh    ::
         :: -> Gsolv                  -0.122968278553 Eh    ::
         ::    -> Gelec               -0.112104781631 Eh    ::
         ::    -> Gsasa                0.004227161558 Eh    ::
         ::    -> Ghb                 -0.016171418178 Eh    ::
         ::    -> Gshift               0.001080759698 Eh    ::
         :: repulsion energy           0.291423797396 Eh    ::
         :: add. restraining           0.000000000000 Eh    ::
         :: total charge               0.000000000000 e     ::
         :::::::::::::::::::::::::::::::::::::::::::::::::::::


Property printout bound to 'properties.out'

           -------------------------------------------------
          | TOTAL ENERGY              -30.713697042966 Eh   |
          | GRADIENT NORM               0.000928114254 Eh/α |
          | HOMO-LUMO GAP               3.745841405013 eV   |
           -------------------------------------------------

------------------------------------------------------------------------
 * finished run on 2026/04/11 at 16:57:59.326     
------------------------------------------------------------------------
 total:
 * wall-time:     0 d,  0 h,  0 min,  0.013 sec
 *  cpu-time:     0 d,  0 h,  0 min,  0.010 sec
 * ratio c/w:     0.781 speedup
 SCF:
 * wall-time:     0 d,  0 h,  0 min,  0.008 sec
 *  cpu-time:     0 d,  0 h,  0 min,  0.006 sec
 * ratio c/w:     0.674 speedup


-------------------------   --------------------
FINAL SINGLE POINT ENERGY       -30.713697042970
-------------------------   --------------------


-------------
DIPOLE MOMENT
-------------
                                X             Y             Z
Total Dipole Moment    :      8.29800      -0.32800      -4.04500
                        -----------------------------------------
Magnitude (a.u.)       :      9.23723
Magnitude (Debye)      :     23.47917


------------------
CARTESIAN GRADIENT
------------------

   1   N   :    0.000040031   -0.000200173    0.000077654
   2   C   :   -0.000121159    0.000105136    0.000111411
   3   C   :    0.000486123    0.000185978    0.000088137
   4   O   :   -0.000184665   -0.000070067   -0.000203754
   5   N   :    0.000030504   -0.000130328    0.000030535
   6   C   :   -0.000217325    0.000223616    0.000302077
   7   C   :    0.000172941    0.000010452   -0.000049455
   8   O   :   -0.000009827    0.000006242   -0.000044518
   9   O   :   -0.000086477   -0.000156715   -0.000026869
  10   H   :   -0.000086013   -0.000036673    0.000112180
  11   H   :    0.000047762    0.000095253   -0.000059585
  12   H   :    0.000008280    0.000097188   -0.000043009
  13   H   :   -0.000196664   -0.000065201   -0.000013848
  14   H   :    0.000050553   -0.000009074   -0.000138414
  15   H   :   -0.000031737   -0.000048112    0.000033607
  16   H   :    0.000057563   -0.000045515   -0.000107606
  17   H   :    0.000040111    0.000037992   -0.000068541

Difference to translation invariance:
           :    0.0000000000   -0.0000000000    0.0000000000

Difference to rotation invariance:
           :    0.0002860716    0.0002079711   -0.0000498977

Norm of the Cartesian gradient     ...    0.0009281143
RMS gradient                       ...    0.0001299620
MAX gradient                       ...    0.0004861227
------------------------------------------------------------------------------
                         ORCA GEOMETRY RELAXATION STEP
------------------------------------------------------------------------------

Reading the OPT-File                    .... done
Getting information on internals        .... done
Copying old internal coords+grads       .... done
Making the new internal coordinates     .... (2022 redundants) done
Validating the new internal coordinates .... (2022 redundants) done
Calculating the B-matrix                .... done
Calculating the G,G- and P matrices     .... done
Transforming gradient to internals      .... done
Projecting the internal gradient        .... done
Number of atoms                         ....  17
Number of internal coordinates          ....  69
Current Energy                          ....   -30.713697043 Eh
Current gradient norm                   ....     0.000928114 Eh/bohr
Maximum allowed component of the step   ....  0.300
Current trust radius                    ....  0.700
Updating the Hessian (BFGS)             .... done
Forming the augmented Hessian           .... done
Diagonalizing the augmented Hessian     .... done
Last element of RFO vector              ....  0.999710062
Lowest eigenvalues of augmented Hessian:
 -0.000007034  0.002472763  0.008179582  0.013718751  0.014774131
Length of the computed step             ....  0.024085853
The final length of the internal step   ....  0.024085853
Converting the step to Cartesian space:
 Initial RMS(Int)=    0.0028995960
Transforming coordinates:
 Iter   0:  RMS(Cart)=    0.0064611354 RMS(Int)=    0.0028982529
done
Storing new coordinates                 .... done
The predicted energy change is          ....    -0.000003519
Previously predicted energy change      ....    -0.000008256
Actually observed energy change         ....    -0.000010973
Ratio of predicted to observed change   ....     1.329032358
New trust radius                        ....     0.700000000

                                .--------------------.
          ----------------------|Geometry convergence|-------------------------
          Item                value                   Tolerance       Converged
          ---------------------------------------------------------------------
          Energy change      -0.0000109730            0.0000050000      NO
          RMS gradient        0.0000870108            0.0001000000      YES
          MAX gradient        0.0002408126            0.0003000000      YES
          RMS step            0.0028995960            0.0020000000      NO
          MAX step            0.0081768405            0.0040000000      NO
          -------------------------------------------------------------------------
          ........................................................
          Max(Bonds)      0.0008      Max(Angles)    0.10
          Max(Dihed)        0.47      Max(Improp)    0.00
          ---------------------------------------------------------------------

The optimization has not yet converged - more geometry cycles are needed


    ---------------------------------------------------------------------------
                         Redundant Internal Coordinates
                            (Angstroem and degrees)

        Definition                    Value    dE/dq     Step     New-Value
    ----------------------------------------------------------------------------
     1. B(C   1,N   0)                1.4739  0.000044  0.0000    1.4740   
     2. B(C   2,C   1)                1.5378 -0.000241  0.0008    1.5386   
     3. B(O   3,C   2)                1.2300 -0.000188  0.0000    1.2300   
     4. B(N   4,C   2)                1.3347  0.000026 -0.0005    1.3342   
     5. B(C   5,N   4)                1.4416  0.000015 -0.0001    1.4415   
     6. B(C   6,C   5)                1.5780 -0.000199  0.0005    1.5785   
     7. B(O   7,C   6)                1.2414 -0.000014 -0.0001    1.2413   
     8. B(O   8,C   6)                1.2433 -0.000173 -0.0001    1.2432   
     9. B(H   9,N   0)                1.0234 -0.000011  0.0000    1.0234   
    10. B(H  10,N   0)                1.0539 -0.000098  0.0000    1.0539   
    11. B(H  10,O   3)                1.8135  0.000029 -0.0005    1.8129   
    12. B(H  11,N   0)                1.0234 -0.000018  0.0000    1.0234   
    13. B(H  12,C   1)                1.0890  0.000012 -0.0001    1.0889   
    14. B(H  13,C   1)                1.0893 -0.000016 -0.0000    1.0893   
    15. B(H  14,N   4)                1.0109 -0.000055 -0.0000    1.0109   
    16. B(H  15,C   5)                1.0913 -0.000018  0.0001    1.0914   
    17. B(H  16,C   5)                1.0876  0.000001 -0.0001    1.0876   
    18. A(H  10,N   0,H  11)          109.74  0.000053   -0.03    109.71   
    19. A(H   9,N   0,H  11)          109.96  0.000020   -0.02    109.94   
    20. A(C   1,N   0,H  10)          102.69  0.000001    0.02    102.71   
    21. A(H   9,N   0,H  10)          108.22 -0.000065    0.04    108.26   
    22. A(C   1,N   0,H   9)          112.60 -0.000022    0.01    112.61   
    23. A(C   1,N   0,H  11)          113.27  0.000009   -0.01    113.26   
    24. A(N   0,C   1,H  13)          111.81  0.000013   -0.02    111.79   
    25. A(C   2,C   1,H  12)          109.32 -0.000089    0.08    109.41   
    26. A(H  12,C   1,H  13)          109.39 -0.000141    0.08    109.47   
    27. A(C   2,C   1,H  13)          107.88  0.000161   -0.07    107.81   
    28. A(N   0,C   1,C   2)          106.34 -0.000096   -0.01    106.32   
    29. A(N   0,C   1,H  12)          111.95  0.000153   -0.06    111.89   
    30. A(C   1,C   2,N   4)          116.15 -0.000079   -0.03    116.12   
    31. A(C   1,C   2,O   3)          117.94  0.000221   -0.03    117.91   
    32. A(O   3,C   2,N   4)          125.65 -0.000141    0.07    125.73   
    33. A(C   5,N   4,H  14)          114.29 -0.000121    0.08    114.37   
    34. A(C   2,N   4,C   5)          118.97  0.000135   -0.01    118.96   
    35. A(C   2,N   4,H  14)          116.85 -0.000022    0.06    116.91   
    36. A(C   6,C   5,H  16)          109.61  0.000057    0.01    109.62   
    37. A(N   4,C   5,H  16)          111.09 -0.000080    0.10    111.19   
    38. A(C   6,C   5,H  15)          106.95  0.000125   -0.07    106.88   
    39. A(N   4,C   5,C   6)          109.52 -0.000094    0.01    109.53   
    40. A(N   4,C   5,H  15)          109.84 -0.000028   -0.06    109.79   
    41. A(H  15,C   5,H  16)          109.74  0.000028   -0.00    109.73   
    42. A(C   5,C   6,O   7)          116.20  0.000019   -0.02    116.18   
    43. A(O   7,C   6,O   8)          128.23  0.000048    0.02    128.24   
    44. A(C   5,C   6,O   8)          115.57 -0.000067    0.00    115.57   
    45. D(H  12,C   1,N   0,H   9)    126.10  0.000134   -0.43    125.67   
    46. D(H  12,C   1,N   0,H  11)      0.54  0.000117   -0.40      0.14   
    47. D(C   2,C   1,N   0,H  10)      1.60 -0.000034   -0.31      1.29   
    48. D(H  12,C   1,N   0,H  10)   -117.74  0.000049   -0.37   -118.11   
    49. D(C   2,C   1,N   0,H  11)    119.87  0.000035   -0.34    119.53   
    50. D(C   2,C   1,N   0,H   9)   -114.57  0.000051   -0.37   -114.94   
    51. D(O   3,C   2,C   1,N   0)     -0.58 -0.000039    0.19     -0.39   
    52. D(N   4,C   2,C   1,N   0)   -175.14 -0.000039    0.08   -175.05   
    53. D(O   3,C   2,C   1,H  13)   -120.67 -0.000087    0.26   -120.41   
    54. D(N   4,C   2,C   1,H  12)    -54.10  0.000038    0.05    -54.05   
    55. D(O   3,C   2,C   1,H  12)    120.46  0.000039    0.16    120.62   
    56. D(H  14,N   4,C   2,C   1)    -14.94  0.000043    0.02    -14.93   
    57. D(C   5,N   4,C   2,O   3)     27.15  0.000076   -0.47     26.68   
    58. D(H  14,N   4,C   2,O   3)    170.98  0.000019   -0.09    170.89   
    59. D(C   5,N   4,C   2,C   1)   -158.77  0.000099   -0.36   -159.13   
    60. D(H  16,C   5,N   4,C   2)   -170.67 -0.000037    0.41   -170.26   
    61. D(H  15,C   5,N   4,H  14)    166.23 -0.000049    0.05    166.27   
    62. D(H  15,C   5,N   4,C   2)    -49.07 -0.000073    0.43    -48.64   
    63. D(C   6,C   5,N   4,H  14)    -76.60  0.000031   -0.06    -76.65   
    64. D(C   6,C   5,N   4,C   2)     68.11  0.000007    0.33     68.44   
    65. D(O   8,C   6,C   5,H  15)    109.69 -0.000004   -0.06    109.63   
    66. D(O   8,C   6,C   5,N   4)     -9.29  0.000009    0.03     -9.25   
    67. D(O   7,C   6,C   5,H  16)     48.73  0.000049   -0.13     48.60   
    68. D(O   7,C   6,C   5,H  15)    -70.17 -0.000087   -0.10    -70.27   
    69. D(O   7,C   6,C   5,N   4)    170.84 -0.000074   -0.00    170.84   
    ----------------------------------------------------------------------------

Geometry step timings:
Preparation and reading OPT file:      0.000 s ( 1.092 %)
Internal coordinates            :      0.000 s ( 1.214 %)
B/P matrices and projection     :      0.000 s (38.228 %)
Hessian update/contruction      :      0.000 s (11.772 %)
Making the step                 :      0.000 s (28.519 %)
Converting the step to Cartesian:      0.000 s ( 3.034 %)
Storing new data                :      0.000 s ( 1.214 %)
Checking convergence            :      0.000 s ( 1.456 %)
Final printing                  :      0.000 s (13.350 %)
Total time                      :      0.001 s

Time for energy+gradient        :      0.017 s
Time for complete geometry iter :      0.018 s

         *************************************************************
         *                GEOMETRY OPTIMIZATION CYCLE  14            *
         *************************************************************
---------------------------------
CARTESIAN COORDINATES (ANGSTROEM)
---------------------------------
  N     2.612370    0.339564    0.050346
  C     1.401537    0.428416   -0.785418
  C     0.309682   -0.368670   -0.050770
  O     0.607772   -0.906191    1.014643
  N    -0.852267   -0.502558   -0.692697
  C    -2.037344   -0.815700    0.065878
  C    -2.424639    0.416931    0.972630
  O    -3.523362    0.350948    1.546395
  O    -1.584662    1.332138    1.021516
  H     2.897756    1.247272    0.427206
  H     2.296361   -0.266519    0.852560
  H     3.401532   -0.103822   -0.427225
  H     1.558418    0.000447   -1.774334
  H     1.053804    1.455902   -0.885383
  H    -1.011552    0.106893   -1.483358
  H    -1.835899   -1.652180    0.737287
  H    -2.869506   -1.062869   -0.589278

----------------------------
CARTESIAN COORDINATES (A.U.)
----------------------------
  NO LB    ZA    FRAG    MASS        X           Y           Z
   0 N   7.0000    0    14.007    4.936664    0.641682    0.095141
   1 C   6.0000    0    12.011    2.648521    0.809588   -1.484225
   2 C   6.0000    0    12.011    0.585214   -0.696685   -0.095941
   3 O   8.0000    0    15.999    1.148522   -1.712453    1.917398
   4 N   7.0000    0    14.007   -1.610552   -0.949697   -1.309007
   5 C   6.0000    0    12.011   -3.850023   -1.541449    0.124492
   6 C   6.0000    0    12.011   -4.581904    0.787886    1.838004
   7 O   8.0000    0    15.999   -6.658190    0.663196    2.922264
   8 O   8.0000    0    15.999   -2.994577    2.517376    1.930386
   9 H   1.0000    0     1.008    5.475965    2.357003    0.807303
  10 H   1.0000    0     1.008    4.339494   -0.503649    1.611105
  11 H   1.0000    0     1.008    6.427964   -0.196195   -0.807338
  12 H   1.0000    0     1.008    2.944984    0.000844   -3.353006
  13 H   1.0000    0     1.008    1.991400    2.751255   -1.673130
  14 H   1.0000    0     1.008   -1.911557    0.201998   -2.803141
  15 H   1.0000    0     1.008   -3.469347   -3.122168    1.393271
  16 H   1.0000    0     1.008   -5.422580   -2.008532   -1.113575

      -----------------------------------------------------------      
     |                   =====================                   |     
     |                           x T B                           |     
     |                   =====================                   |     
     |                         S. Grimme                         |     
     |          Mulliken Center for Theoretical Chemistry        |     
     |                    University of Bonn                     |     
      -----------------------------------------------------------      

   * xtb version 6.7.1 (edcfbbe) compiled by 'albert@albert-system' on 2024-07-22

   xtb is free software: you can redistribute it and/or modify it under
   the terms of the GNU Lesser General Public License as published by
   the Free Software Foundation, either version 3 of the License, or
   (at your option) any later version.
   
   xtb is distributed in the hope that it will be useful,
   but WITHOUT ANY WARRANTY; without even the implied warranty of
   MERCHANTABILITY or FITNESS FOR A PARTICULAR PURPOSE.  See the
   GNU Lesser General Public License for more details.
   
   Cite this work as:
   * C. Bannwarth, E. Caldeweyher, S. Ehlert, A. Hansen, P. Pracht,
     J. Seibert, S. Spicher, S. Grimme, WIREs Comput. Mol. Sci., 2020, 11,
     e01493. DOI: 10.1002/wcms.1493
   
   for GFN2-xTB:
   * C. Bannwarth, S. Ehlert and S. Grimme., J. Chem. Theory Comput., 2019,
     15, 1652-1671. DOI: 10.1021/acs.jctc.8b01176
   for GFN1-xTB:
   * S. Grimme, C. Bannwarth, P. Shushkov, J. Chem. Theory Comput., 2017,
     13, 1989-2009. DOI: 10.1021/acs.jctc.7b00118
   for GFN0-xTB:
   * P. Pracht, E. Caldeweyher, S. Ehlert, S. Grimme, ChemRxiv, 2019, preprint.
     DOI: 10.26434/chemrxiv.8326202.v1
   for GFN-FF:
   * S. Spicher and S. Grimme, Angew. Chem. Int. Ed., 2020, 59, 15665-15673.
     DOI: 10.1002/anie.202004239
   
   for ALPB and GBSA implicit solvation:
   * S. Ehlert, M. Stahn, S. Spicher, S. Grimme, J. Chem. Theory Comput.,
     2021, 17, 4250-4261. DOI: 10.1021/acs.jctc.1c00471
   
   for ddCOSMO and CPCM-X implicit solvation:
   * M. Stahn, S. Ehlert, S. Grimme, J. Phys. Chem. A,
     2023, XX, XXXX-XXXX. DOI: 10.1021/acs.jpca.3c04382
   
   for DFT-D4:
   * E. Caldeweyher, C. Bannwarth and S. Grimme, J. Chem. Phys., 2017,
     147, 034112. DOI: 10.1063/1.4993215
   * E. Caldeweyher, S. Ehlert, A. Hansen, H. Neugebauer, S. Spicher,
     C. Bannwarth and S. Grimme, J. Chem. Phys., 2019, 150, 154122.
     DOI: 10.1063/1.5090222
   * E. Caldeweyher, J.-M. Mewes, S. Ehlert and S. Grimme, Phys. Chem. Chem. Phys.
     2020, 22, 8499-8512. DOI: 10.1039/D0CP00502A
   
   for sTDA-xTB:
   * S. Grimme and C. Bannwarth, J. Chem. Phys., 2016, 145, 054103.
     DOI: 10.1063/1.4959605
   
   in the mass-spec context:
   * V. Asgeirsson, C. Bauer and S. Grimme, Chem. Sci., 2017, 8, 4879.
     DOI: 10.1039/c7sc00601b
   * J. Koopman and S. Grimme, ACS Omega 2019, 4, 12, 15120-15133.
     DOI: 10.1021/acsomega.9b02011
   
   for metadynamics refer to:
   * S. Grimme, J. Chem. Theory Comput., 2019, 155, 2847-2862
     DOI: 10.1021/acs.jctc.9b00143
   
   for SPH calculations refer to:
   * S. Spicher and S. Grimme, J. Chem. Theory Comput., 2021, 17, 1701-1714
     DOI: 10.1021/acs.jctc.0c01306
   
   for ONIOM refer to:
   * C. Plett, A. Katbashev, S. Ehlert, S. Grimme, M. Bursch,
     Phys. Chem. Chem. Phys., 2023, 25, 17860-17868. DOI: 10.1039/D3CP02178E
   
   for DIPRO refer to:
   * J. Kohn, N. Gildemeister, S. Grimme, D. Fazzi, A. Hansen,
     J. Chem. Phys., 2023, just accepted.
   
   for PTB refer to:
   * S. Grimme, M. Mueller, A. Hansen, J. Chem. Phys., 2023, 158, 124111.
     DOI: 10.1063/5.0137838
   
   with help from (in alphabetical order)
   P. Atkinson, C. Bannwarth, F. Bohle, G. Brandenburg, E. Caldeweyher
   M. Checinski, S. Dohm, S. Ehlert, S. Ehrlich, I. Gerasimov, C. Hölzer
   A. Katbashev, J. Kohn, J. Koopman, C. Lavigne, S. Lehtola, F. März, M. Müller,
   F. Musil, H. Neugebauer, J. Pisarek, C. Plett, P. Pracht, F. Pultar,
   J. Seibert, P. Shushkov, S. Spicher, M. Stahn, M. Steiner, T. Strunk,
   J. Stückrath, T. Rose, and J. Unsleber
   
 * started run on 2026/04/11 at 16:57:59.330     
   ID    Z sym.   atoms
    1    7 N      1, 5
    2    6 C      2, 3, 6, 7
    3    8 O      4, 8, 9
    4    1 H      10-17

           -------------------------------------------------
          |                Calculation Setup                |
           -------------------------------------------------

          program call               : /home/analima/Programs/orca-6.1.0-f.0_linux_x86-64/bin/otool_xtb geo_opt_XTB.xyz --grad -c 0 -u 0 -P 1 --namespace geo_opt --input geo_opt_XTB.input.tmp --alpb WATER --acc 0.200000
          calculation namespace      : geo_opt
          coordinate file            : geo_opt_XTB.xyz
          omp threads                :                     1


           -------------------------------------------------
          |                 G F N 2 - x T B                 |
           -------------------------------------------------

        Reference                      10.1021/acs.jctc.8b01176
      * Hamiltonian:
        H0-scaling (s, p, d)           1.850000    2.230000    2.230000
        zeta-weighting                 0.500000
      * Dispersion:
        s8                             2.700000
        a1                             0.520000
        a2                             5.000000
        s9                             5.000000
      * Repulsion:
        kExp                           1.500000    1.000000
        rExp                           1.000000
      * Coulomb:
        alpha                          2.000000
        third order                    shell-resolved
        anisotropic                    true
        a3                             3.000000
        a5                             4.000000
        cn-shift                       1.200000
        cn-exp                         4.000000
        max-rad                        5.000000

      * Solvation model:               ALPB
        Solvent                        WATER
        Parameter file                 internal GFN2-xTB/ALPB
        Dielectric constant                8.0200E+01
        Reference state                gsolv [1 M gas/solution]
        Free energy shift                  1.0808E-03 Eh       6.7819E-01 kcal/mol
        Temperature                        2.9815E+02 K
        Density                            1.0000E+00 kg/L
        Solvent mass                       1.8000E+01 g/mol
        Interaction kernel             P16
        Born radius scaling (c1)           1.4744E+00
        Born radii integrator          GBOBC
        Born offset                        0.0000E+00 a0       0.0000E+00 AA
        H-bond correction              true
        Ion screening                  false
        Surface tension                    1.0000E-05 Eh       1.5569E+01 dyn/cm
        Grid points                               230 per atom
q/qsh data taken from xtbrestart
CAMM data taken from xtbrestart

          ...................................................
          :                      SETUP                      :
          :.................................................:
          :  # basis functions                  44          :
          :  # atomic orbitals                  44          :
          :  # shells                           26          :
          :  # electrons                        52          :
          :  max. iterations                   250          :
          :  Hamiltonian                  GFN2-xTB          :
          :  restarted?                       true          :
          :  GBSA solvation                   true          :
          :  PC potential                    false          :
          :  electronic temp.          300.0000000     K    :
          :  accuracy                    0.2000000          :
          :  -> integral cutoff          0.3198970E+02      :
          :  -> integral neglect         0.2000000E-08      :
          :  -> SCF convergence          0.2000000E-06 Eh   :
          :  -> wf. convergence          0.2000000E-04 e    :
          :  Broyden damping             0.4000000          :
          :  net charge                          0          :
          :  unpaired electrons                  0          :
          ...................................................

 iter      E             dE          RMSdq      gap      omega  full diag
   1    -31.0051939 -0.310052E+02  0.149E-02    3.75       0.0  T
   2    -31.0051941 -0.216034E-06  0.852E-03    3.75       2.8  T
   3    -31.0051941  0.684008E-09  0.249E-03    3.75       9.8  T
   4    -31.0051941 -0.179503E-07  0.502E-04    3.75      48.3  T
   5    -31.0051941 -0.143147E-08  0.237E-04    3.75     102.5  T
   6    -31.0051941 -0.228191E-10  0.386E-05    3.75     628.2  T
   7    -31.0051941 -0.276046E-11  0.177E-05    3.75    1369.8  T

   *** convergence criteria satisfied after 7 iterations ***

         #    Occupation            Energy/Eh            Energy/eV
      -------------------------------------------------------------
         1        2.0000           -0.7250197             -19.7288
       ...           ...                  ...                  ...
        20        2.0000           -0.4828724             -13.1396
        21        2.0000           -0.4646403             -12.6435
        22        2.0000           -0.4400143             -11.9734
        23        2.0000           -0.4232690             -11.5177
        24        2.0000           -0.4057408             -11.0408
        25        2.0000           -0.3909198             -10.6375
        26        2.0000           -0.3640742              -9.9070 (HOMO)
        27                         -0.2263899              -6.1604 (LUMO)
        28                         -0.1763940              -4.7999
        29                         -0.0471421              -1.2828
        30                          0.0200847               0.5465
        31                          0.0479713               1.3054
       ...                                ...                  ...
        44                          0.6492270              17.6664
      -------------------------------------------------------------
                  HL-Gap            0.1376844 Eh            3.7466 eV
             Fermi-level           -0.2952320 Eh           -8.0337 eV

 SCC (total)                   0 d,  0 h,  0 min,  0.007 sec
 SCC setup                      ...        0 min,  0.000 sec (  4.570%)
 Dispersion                     ...        0 min,  0.000 sec (  1.025%)
 classical contributions        ...        0 min,  0.000 sec (  0.244%)
 integral evaluation            ...        0 min,  0.001 sec ( 18.089%)
 iterations                     ...        0 min,  0.003 sec ( 50.339%)
 molecular gradient             ...        0 min,  0.002 sec ( 25.142%)
 printout                       ...        0 min,  0.000 sec (  0.447%)

         :::::::::::::::::::::::::::::::::::::::::::::::::::::
         ::                     SUMMARY                     ::
         :::::::::::::::::::::::::::::::::::::::::::::::::::::
         :: total energy             -30.713701914436 Eh    ::
         :: total w/o Gsasa/hb       -30.702842377281 Eh    ::
         :: gradient norm              0.000816316191 Eh/a0 ::
         :: HOMO-LUMO gap              3.746582689006 eV    ::
         ::.................................................::
         :: SCC energy               -31.005176773862 Eh    ::
         :: -> isotropic ES            0.274397367770 Eh    ::
         :: -> anisotropic ES         -0.020285066010 Eh    ::
         :: -> anisotropic XC          0.006584433147 Eh    ::
         :: -> dispersion             -0.011282474746 Eh    ::
         :: -> Gsolv                  -0.123103633618 Eh    ::
         ::    -> Gelec               -0.112244096463 Eh    ::
         ::    -> Gsasa                0.004235489788 Eh    ::
         ::    -> Ghb                 -0.016175786641 Eh    ::
         ::    -> Gshift               0.001080759698 Eh    ::
         :: repulsion energy           0.291474859426 Eh    ::
         :: add. restraining           0.000000000000 Eh    ::
         :: total charge              -0.000000000000 e     ::
         :::::::::::::::::::::::::::::::::::::::::::::::::::::


Property printout bound to 'properties.out'

           -------------------------------------------------
          | TOTAL ENERGY              -30.713701914436 Eh   |
          | GRADIENT NORM               0.000816316191 Eh/α |
          | HOMO-LUMO GAP               3.746582689006 eV   |
           -------------------------------------------------

------------------------------------------------------------------------
 * finished run on 2026/04/11 at 16:57:59.343     
------------------------------------------------------------------------
 total:
 * wall-time:     0 d,  0 h,  0 min,  0.012 sec
 *  cpu-time:     0 d,  0 h,  0 min,  0.011 sec
 * ratio c/w:     0.861 speedup
 SCF:
 * wall-time:     0 d,  0 h,  0 min,  0.007 sec
 *  cpu-time:     0 d,  0 h,  0 min,  0.006 sec
 * ratio c/w:     0.805 speedup


-------------------------   --------------------
FINAL SINGLE POINT ENERGY       -30.713701914440
-------------------------   --------------------


-------------
DIPOLE MOMENT
-------------
                                X             Y             Z
Total Dipole Moment    :      8.31700      -0.33300      -4.05000
                        -----------------------------------------
Magnitude (a.u.)       :      9.25667
Magnitude (Debye)      :     23.52858


------------------
CARTESIAN GRADIENT
------------------

   1   N   :   -0.000026643   -0.000308581    0.000014380
   2   C   :   -0.000050102    0.000236091   -0.000132466
   3   C   :    0.000074989   -0.000109328    0.000295253
   4   O   :   -0.000078742    0.000015441   -0.000143268
   5   N   :    0.000126326    0.000108789    0.000034117
   6   C   :   -0.000243212    0.000116175   -0.000011323
   7   C   :    0.000131936    0.000112774    0.000226500
   8   O   :    0.000119867    0.000016325   -0.000157149
   9   O   :   -0.000137357   -0.000201203   -0.000060500
  10   H   :   -0.000076771    0.000007025    0.000093105
  11   H   :    0.000065265    0.000094596   -0.000027181
  12   H   :    0.000036367    0.000106872   -0.000050863
  13   H   :   -0.000037919   -0.000094239    0.000019522
  14   H   :    0.000023666    0.000000825   -0.000035553
  15   H   :   -0.000029354   -0.000040247   -0.000014371
  16   H   :    0.000105704   -0.000041322   -0.000067298
  17   H   :   -0.000004018   -0.000019992    0.000017095

Difference to translation invariance:
           :    0.0000000000   -0.0000000000   -0.0000000000

Difference to rotation invariance:
           :    0.0003039429    0.0002544089   -0.0000347195

Norm of the Cartesian gradient     ...    0.0008163162
RMS gradient                       ...    0.0001143071
MAX gradient                       ...    0.0003085814
------------------------------------------------------------------------------
                         ORCA GEOMETRY RELAXATION STEP
------------------------------------------------------------------------------

Reading the OPT-File                    .... done
Getting information on internals        .... done
Copying old internal coords+grads       .... done
Making the new internal coordinates     .... (2022 redundants) done
Validating the new internal coordinates .... (2022 redundants) done
Calculating the B-matrix                .... done
Calculating the G,G- and P matrices     .... done
Transforming gradient to internals      .... done
Projecting the internal gradient        .... done
Number of atoms                         ....  17
Number of internal coordinates          ....  69
Current Energy                          ....   -30.713701914 Eh
Current gradient norm                   ....     0.000816316 Eh/bohr
Maximum allowed component of the step   ....  0.300
Current trust radius                    ....  0.700
Updating the Hessian (BFGS)             .... done
Forming the augmented Hessian           .... done
Diagonalizing the augmented Hessian     .... done
Last element of RFO vector              ....  0.999649445
Lowest eigenvalues of augmented Hessian:
 -0.000004704  0.002362534  0.005907751  0.010994906  0.014284973
Length of the computed step             ....  0.026485462
The final length of the internal step   ....  0.026485462
Converting the step to Cartesian space:
 Initial RMS(Int)=    0.0031884749
Transforming coordinates:
 Iter   0:  RMS(Cart)=    0.0069656499 RMS(Int)=    0.0031884614
done
Storing new coordinates                 .... done
The predicted energy change is          ....    -0.000002354
Previously predicted energy change      ....    -0.000003519
Actually observed energy change         ....    -0.000004871
Ratio of predicted to observed change   ....     1.384231771
New trust radius                        ....     0.700000000

                                .--------------------.
          ----------------------|Geometry convergence|-------------------------
          Item                value                   Tolerance       Converged
          ---------------------------------------------------------------------
          Energy change      -0.0000048715            0.0000050000      YES
          RMS gradient        0.0000687016            0.0001000000      YES
          MAX gradient        0.0002419719            0.0003000000      YES
          RMS step            0.0031884749            0.0020000000      NO
          MAX step            0.0091699244            0.0040000000      NO
          -------------------------------------------------------------------------
          ........................................................
          Max(Bonds)      0.0013      Max(Angles)    0.07
          Max(Dihed)        0.53      Max(Improp)    0.00
          ---------------------------------------------------------------------

The optimization has not yet converged - more geometry cycles are needed


    ---------------------------------------------------------------------------
                         Redundant Internal Coordinates
                            (Angstroem and degrees)

        Definition                    Value    dE/dq     Step     New-Value
    ----------------------------------------------------------------------------
     1. B(C   1,N   0)                1.4739  0.000005 -0.0000    1.4739   
     2. B(C   2,C   1)                1.5386 -0.000001  0.0005    1.5390   
     3. B(O   3,C   2)                1.2300 -0.000147  0.0001    1.2301   
     4. B(N   4,C   2)                1.3342 -0.000038 -0.0003    1.3339   
     5. B(C   5,N   4)                1.4415 -0.000010 -0.0001    1.4414   
     6. B(C   6,C   5)                1.5785 -0.000081  0.0004    1.5788   
     7. B(O   7,C   6)                1.2413 -0.000181  0.0000    1.2413   
     8. B(O   8,C   6)                1.2432 -0.000242  0.0001    1.2433   
     9. B(H   9,N   0)                1.0234  0.000023 -0.0000    1.0234   
    10. B(H  10,N   0)                1.0539 -0.000077  0.0002    1.0541   
    11. B(H  10,O   3)                1.8129  0.000031 -0.0013    1.8117   
    12. B(H  11,N   0)                1.0234  0.000002  0.0000    1.0235   
    13. B(H  12,C   1)                1.0889  0.000016 -0.0001    1.0888   
    14. B(H  13,C   1)                1.0893 -0.000008  0.0000    1.0893   
    15. B(H  14,N   4)                1.0109 -0.000014 -0.0000    1.0109   
    16. B(H  15,C   5)                1.0914  0.000012  0.0000    1.0914   
    17. B(H  16,C   5)                1.0876 -0.000004 -0.0000    1.0875   
    18. A(H  10,N   0,H  11)          109.71  0.000047   -0.05    109.66   
    19. A(H   9,N   0,H  11)          109.94  0.000011   -0.01    109.93   
    20. A(C   1,N   0,H  10)          102.71  0.000053   -0.01    102.70   
    21. A(H   9,N   0,H  10)          108.26 -0.000066    0.06    108.32   
    22. A(C   1,N   0,H   9)          112.61 -0.000067    0.03    112.64   
    23. A(C   1,N   0,H  11)          113.26  0.000024   -0.01    113.25   
    24. A(N   0,C   1,H  13)          111.79  0.000018   -0.02    111.76   
    25. A(C   2,C   1,H  12)          109.41  0.000000    0.07    109.48   
    26. A(H  12,C   1,H  13)          109.47 -0.000032    0.06    109.53   
    27. A(C   2,C   1,H  13)          107.81  0.000075   -0.07    107.75   
    28. A(N   0,C   1,C   2)          106.32 -0.000096   -0.00    106.32   
    29. A(N   0,C   1,H  12)          111.90  0.000035   -0.04    111.86   
    30. A(C   1,C   2,N   4)          116.12 -0.000159    0.01    116.13   
    31. A(C   1,C   2,O   3)          117.91  0.000108   -0.04    117.86   
    32. A(O   3,C   2,N   4)          125.73  0.000051    0.04    125.77   
    33. A(C   5,N   4,H  14)          114.39 -0.000017    0.06    114.46   
    34. A(C   2,N   4,C   5)          118.99 -0.000022    0.01    118.99   
    35. A(C   2,N   4,H  14)          116.94  0.000037    0.05    116.98   
    36. A(C   6,C   5,H  16)          109.62  0.000068   -0.01    109.61   
    37. A(N   4,C   5,H  16)          111.19  0.000050    0.05    111.24   
    38. A(C   6,C   5,H  15)          106.88  0.000107   -0.07    106.82   
    39. A(N   4,C   5,C   6)          109.53 -0.000165    0.03    109.57   
    40. A(N   4,C   5,H  15)          109.79 -0.000061   -0.01    109.77   
    41. A(H  15,C   5,H  16)          109.73  0.000003   -0.01    109.73   
    42. A(C   5,C   6,O   7)          116.18  0.000003   -0.01    116.17   
    43. A(O   7,C   6,O   8)          128.24  0.000071    0.00    128.25   
    44. A(C   5,C   6,O   8)          115.57 -0.000074    0.01    115.58   
    45. D(H  12,C   1,N   0,H   9)    125.67  0.000091   -0.53    125.14   
    46. D(H  12,C   1,N   0,H  11)      0.14  0.000112   -0.52     -0.38   
    47. D(C   2,C   1,N   0,H  10)      1.29 -0.000027   -0.38      0.91   
    48. D(H  12,C   1,N   0,H  10)   -118.11  0.000013   -0.44   -118.55   
    49. D(C   2,C   1,N   0,H  11)    119.53  0.000073   -0.45    119.08   
    50. D(C   2,C   1,N   0,H   9)   -114.94  0.000052   -0.46   -115.40   
    51. D(O   3,C   2,C   1,N   0)     -0.39 -0.000007    0.23     -0.16   
    52. D(N   4,C   2,C   1,N   0)   -175.05 -0.000016    0.16   -174.89   
    53. D(O   3,C   2,C   1,H  13)   -120.41 -0.000015    0.29   -120.12   
    54. D(N   4,C   2,C   1,H  12)    -54.05 -0.000029    0.15    -53.89   
    55. D(O   3,C   2,C   1,H  12)    120.61 -0.000021    0.22    120.84   
    56. D(H  14,N   4,C   2,C   1)    -14.93  0.000013   -0.07    -14.99   
    57. D(C   5,N   4,C   2,O   3)     26.68  0.000012   -0.33     26.35   
    58. D(H  14,N   4,C   2,O   3)    170.89  0.000002   -0.14    170.75   
    59. D(C   5,N   4,C   2,C   1)   -159.13  0.000023   -0.26   -159.39   
    60. D(H  16,C   5,N   4,C   2)   -170.26 -0.000018    0.39   -169.88   
    61. D(H  15,C   5,N   4,H  14)    166.28 -0.000031    0.21    166.50   
    62. D(H  15,C   5,N   4,C   2)    -48.64 -0.000023    0.40    -48.24   
    63. D(C   6,C   5,N   4,H  14)    -76.65 -0.000034    0.15    -76.49   
    64. D(C   6,C   5,N   4,C   2)     68.43 -0.000025    0.34     68.77   
    65. D(O   8,C   6,C   5,H  15)    109.63 -0.000016    0.00    109.63   
    66. D(O   8,C   6,C   5,N   4)     -9.25  0.000085    0.03     -9.22   
    67. D(O   7,C   6,C   5,H  16)     48.60 -0.000030   -0.01     48.59   
    68. D(O   7,C   6,C   5,H  15)    -70.27 -0.000132    0.04    -70.23   
    69. D(O   7,C   6,C   5,N   4)    170.84 -0.000030    0.07    170.91   
    ----------------------------------------------------------------------------

Geometry step timings:
Preparation and reading OPT file:      0.000 s ( 1.091 %)
Internal coordinates            :      0.000 s ( 1.091 %)
B/P matrices and projection     :      0.000 s (36.970 %)
Hessian update/contruction      :      0.000 s (10.909 %)
Making the step                 :      0.000 s (30.303 %)
Converting the step to Cartesian:      0.000 s ( 2.909 %)
Storing new data                :      0.000 s ( 1.333 %)
Checking convergence            :      0.000 s ( 1.697 %)
Final printing                  :      0.000 s (13.697 %)
Total time                      :      0.001 s

Time for energy+gradient        :      0.016 s
Time for complete geometry iter :      0.017 s

         *************************************************************
         *                GEOMETRY OPTIMIZATION CYCLE  15            *
         *************************************************************
---------------------------------
CARTESIAN COORDINATES (ANGSTROEM)
---------------------------------
  N     2.614530    0.336657    0.048745
  C     1.402871    0.429956   -0.785257
  C     0.309778   -0.365878   -0.050155
  O     0.607815   -0.901982    1.016109
  N    -0.852103   -0.498751   -0.691738
  C    -2.036323   -0.815939    0.066236
  C    -2.430351    0.415958    0.971706
  O    -3.528757    0.344562    1.545439
  O    -1.595045    1.335524    1.020177
  H     2.907396    1.243939    0.420855
  H     2.295869   -0.264535    0.853825
  H     3.399577   -0.114600   -0.428305
  H     1.558355    0.004140   -1.775237
  H     1.056917    1.458423   -0.881449
  H    -1.011950    0.110920   -1.482093
  H    -1.831363   -1.650024    0.739622
  H    -2.867214   -1.068372   -0.588480

----------------------------
CARTESIAN COORDINATES (A.U.)
----------------------------
  NO LB    ZA    FRAG    MASS        X           Y           Z
   0 N   7.0000    0    14.007    4.940745    0.636190    0.092114
   1 C   6.0000    0    12.011    2.651042    0.812498   -1.483920
   2 C   6.0000    0    12.011    0.585395   -0.691408   -0.094779
   3 O   8.0000    0    15.999    1.148604   -1.704498    1.920167
   4 N   7.0000    0    14.007   -1.610241   -0.942502   -1.307195
   5 C   6.0000    0    12.011   -3.848094   -1.541902    0.125168
   6 C   6.0000    0    12.011   -4.592697    0.786047    1.836258
   7 O   8.0000    0    15.999   -6.668385    0.651129    2.920456
   8 O   8.0000    0    15.999   -3.014199    2.523774    1.927855
   9 H   1.0000    0     1.008    5.494183    2.350703    0.795301
  10 H   1.0000    0     1.008    4.338563   -0.499899    1.613495
  11 H   1.0000    0     1.008    6.424269   -0.216563   -0.809379
  12 H   1.0000    0     1.008    2.944865    0.007824   -3.354711
  13 H   1.0000    0     1.008    1.997284    2.756021   -1.665697
  14 H   1.0000    0     1.008   -1.912308    0.209609   -2.800750
  15 H   1.0000    0     1.008   -3.460774   -3.118093    1.397682
  16 H   1.0000    0     1.008   -5.418250   -2.018930   -1.112067

      -----------------------------------------------------------      
     |                   =====================                   |     
     |                           x T B                           |     
     |                   =====================                   |     
     |                         S. Grimme                         |     
     |          Mulliken Center for Theoretical Chemistry        |     
     |                    University of Bonn                     |     
      -----------------------------------------------------------      

   * xtb version 6.7.1 (edcfbbe) compiled by 'albert@albert-system' on 2024-07-22

   xtb is free software: you can redistribute it and/or modify it under
   the terms of the GNU Lesser General Public License as published by
   the Free Software Foundation, either version 3 of the License, or
   (at your option) any later version.
   
   xtb is distributed in the hope that it will be useful,
   but WITHOUT ANY WARRANTY; without even the implied warranty of
   MERCHANTABILITY or FITNESS FOR A PARTICULAR PURPOSE.  See the
   GNU Lesser General Public License for more details.
   
   Cite this work as:
   * C. Bannwarth, E. Caldeweyher, S. Ehlert, A. Hansen, P. Pracht,
     J. Seibert, S. Spicher, S. Grimme, WIREs Comput. Mol. Sci., 2020, 11,
     e01493. DOI: 10.1002/wcms.1493
   
   for GFN2-xTB:
   * C. Bannwarth, S. Ehlert and S. Grimme., J. Chem. Theory Comput., 2019,
     15, 1652-1671. DOI: 10.1021/acs.jctc.8b01176
   for GFN1-xTB:
   * S. Grimme, C. Bannwarth, P. Shushkov, J. Chem. Theory Comput., 2017,
     13, 1989-2009. DOI: 10.1021/acs.jctc.7b00118
   for GFN0-xTB:
   * P. Pracht, E. Caldeweyher, S. Ehlert, S. Grimme, ChemRxiv, 2019, preprint.
     DOI: 10.26434/chemrxiv.8326202.v1
   for GFN-FF:
   * S. Spicher and S. Grimme, Angew. Chem. Int. Ed., 2020, 59, 15665-15673.
     DOI: 10.1002/anie.202004239
   
   for ALPB and GBSA implicit solvation:
   * S. Ehlert, M. Stahn, S. Spicher, S. Grimme, J. Chem. Theory Comput.,
     2021, 17, 4250-4261. DOI: 10.1021/acs.jctc.1c00471
   
   for ddCOSMO and CPCM-X implicit solvation:
   * M. Stahn, S. Ehlert, S. Grimme, J. Phys. Chem. A,
     2023, XX, XXXX-XXXX. DOI: 10.1021/acs.jpca.3c04382
   
   for DFT-D4:
   * E. Caldeweyher, C. Bannwarth and S. Grimme, J. Chem. Phys., 2017,
     147, 034112. DOI: 10.1063/1.4993215
   * E. Caldeweyher, S. Ehlert, A. Hansen, H. Neugebauer, S. Spicher,
     C. Bannwarth and S. Grimme, J. Chem. Phys., 2019, 150, 154122.
     DOI: 10.1063/1.5090222
   * E. Caldeweyher, J.-M. Mewes, S. Ehlert and S. Grimme, Phys. Chem. Chem. Phys.
     2020, 22, 8499-8512. DOI: 10.1039/D0CP00502A
   
   for sTDA-xTB:
   * S. Grimme and C. Bannwarth, J. Chem. Phys., 2016, 145, 054103.
     DOI: 10.1063/1.4959605
   
   in the mass-spec context:
   * V. Asgeirsson, C. Bauer and S. Grimme, Chem. Sci., 2017, 8, 4879.
     DOI: 10.1039/c7sc00601b
   * J. Koopman and S. Grimme, ACS Omega 2019, 4, 12, 15120-15133.
     DOI: 10.1021/acsomega.9b02011
   
   for metadynamics refer to:
   * S. Grimme, J. Chem. Theory Comput., 2019, 155, 2847-2862
     DOI: 10.1021/acs.jctc.9b00143
   
   for SPH calculations refer to:
   * S. Spicher and S. Grimme, J. Chem. Theory Comput., 2021, 17, 1701-1714
     DOI: 10.1021/acs.jctc.0c01306
   
   for ONIOM refer to:
   * C. Plett, A. Katbashev, S. Ehlert, S. Grimme, M. Bursch,
     Phys. Chem. Chem. Phys., 2023, 25, 17860-17868. DOI: 10.1039/D3CP02178E
   
   for DIPRO refer to:
   * J. Kohn, N. Gildemeister, S. Grimme, D. Fazzi, A. Hansen,
     J. Chem. Phys., 2023, just accepted.
   
   for PTB refer to:
   * S. Grimme, M. Mueller, A. Hansen, J. Chem. Phys., 2023, 158, 124111.
     DOI: 10.1063/5.0137838
   
   with help from (in alphabetical order)
   P. Atkinson, C. Bannwarth, F. Bohle, G. Brandenburg, E. Caldeweyher
   M. Checinski, S. Dohm, S. Ehlert, S. Ehrlich, I. Gerasimov, C. Hölzer
   A. Katbashev, J. Kohn, J. Koopman, C. Lavigne, S. Lehtola, F. März, M. Müller,
   F. Musil, H. Neugebauer, J. Pisarek, C. Plett, P. Pracht, F. Pultar,
   J. Seibert, P. Shushkov, S. Spicher, M. Stahn, M. Steiner, T. Strunk,
   J. Stückrath, T. Rose, and J. Unsleber
   
 * started run on 2026/04/11 at 16:57:59.347     
   ID    Z sym.   atoms
    1    7 N      1, 5
    2    6 C      2, 3, 6, 7
    3    8 O      4, 8, 9
    4    1 H      10-17

           -------------------------------------------------
          |                Calculation Setup                |
           -------------------------------------------------

          program call               : /home/analima/Programs/orca-6.1.0-f.0_linux_x86-64/bin/otool_xtb geo_opt_XTB.xyz --grad -c 0 -u 0 -P 1 --namespace geo_opt --input geo_opt_XTB.input.tmp --alpb WATER --acc 0.200000
          calculation namespace      : geo_opt
          coordinate file            : geo_opt_XTB.xyz
          omp threads                :                     1


           -------------------------------------------------
          |                 G F N 2 - x T B                 |
           -------------------------------------------------

        Reference                      10.1021/acs.jctc.8b01176
      * Hamiltonian:
        H0-scaling (s, p, d)           1.850000    2.230000    2.230000
        zeta-weighting                 0.500000
      * Dispersion:
        s8                             2.700000
        a1                             0.520000
        a2                             5.000000
        s9                             5.000000
      * Repulsion:
        kExp                           1.500000    1.000000
        rExp                           1.000000
      * Coulomb:
        alpha                          2.000000
        third order                    shell-resolved
        anisotropic                    true
        a3                             3.000000
        a5                             4.000000
        cn-shift                       1.200000
        cn-exp                         4.000000
        max-rad                        5.000000

      * Solvation model:               ALPB
        Solvent                        WATER
        Parameter file                 internal GFN2-xTB/ALPB
        Dielectric constant                8.0200E+01
        Reference state                gsolv [1 M gas/solution]
        Free energy shift                  1.0808E-03 Eh       6.7819E-01 kcal/mol
        Temperature                        2.9815E+02 K
        Density                            1.0000E+00 kg/L
        Solvent mass                       1.8000E+01 g/mol
        Interaction kernel             P16
        Born radius scaling (c1)           1.4744E+00
        Born radii integrator          GBOBC
        Born offset                        0.0000E+00 a0       0.0000E+00 AA
        H-bond correction              true
        Ion screening                  false
        Surface tension                    1.0000E-05 Eh       1.5569E+01 dyn/cm
        Grid points                               230 per atom
q/qsh data taken from xtbrestart
CAMM data taken from xtbrestart

          ...................................................
          :                      SETUP                      :
          :.................................................:
          :  # basis functions                  44          :
          :  # atomic orbitals                  44          :
          :  # shells                           26          :
          :  # electrons                        52          :
          :  max. iterations                   250          :
          :  Hamiltonian                  GFN2-xTB          :
          :  restarted?                       true          :
          :  GBSA solvation                   true          :
          :  PC potential                    false          :
          :  electronic temp.          300.0000000     K    :
          :  accuracy                    0.2000000          :
          :  -> integral cutoff          0.3198970E+02      :
          :  -> integral neglect         0.2000000E-08      :
          :  -> SCF convergence          0.2000000E-06 Eh   :
          :  -> wf. convergence          0.2000000E-04 e    :
          :  Broyden damping             0.4000000          :
          :  net charge                          0          :
          :  unpaired electrons                  0          :
          ...................................................

 iter      E             dE          RMSdq      gap      omega  full diag
   1    -31.0051596 -0.310052E+02  0.151E-02    3.75       0.0  T
   2    -31.0051597 -0.166643E-06  0.868E-03    3.75       2.8  T
   3    -31.0051597  0.333285E-08  0.220E-03    3.74      11.0  T
   4    -31.0051597 -0.206589E-07  0.481E-04    3.75      50.5  T
   5    -31.0051597 -0.114850E-08  0.236E-04    3.74     102.7  T
   6    -31.0051597 -0.297504E-10  0.447E-05    3.75     542.5  T
   7    -31.0051597 -0.225953E-11  0.158E-05    3.75    1534.2  T

   *** convergence criteria satisfied after 7 iterations ***

         #    Occupation            Energy/Eh            Energy/eV
      -------------------------------------------------------------
         1        2.0000           -0.7250687             -19.7301
       ...           ...                  ...                  ...
        20        2.0000           -0.4829241             -13.1410
        21        2.0000           -0.4645922             -12.6422
        22        2.0000           -0.4400907             -11.9755
        23        2.0000           -0.4233421             -11.5197
        24        2.0000           -0.4057048             -11.0398
        25        2.0000           -0.3908844             -10.6365
        26        2.0000           -0.3640288              -9.9057 (HOMO)
        27                         -0.2264019              -6.1607 (LUMO)
        28                         -0.1763666              -4.7992
        29                         -0.0471339              -1.2826
        30                          0.0198508               0.5402
        31                          0.0478438               1.3019
       ...                                ...                  ...
        44                          0.6491587              17.6645
      -------------------------------------------------------------
                  HL-Gap            0.1376269 Eh            3.7450 eV
             Fermi-level           -0.2952154 Eh           -8.0332 eV

 SCC (total)                   0 d,  0 h,  0 min,  0.008 sec
 SCC setup                      ...        0 min,  0.000 sec (  2.340%)
 Dispersion                     ...        0 min,  0.000 sec (  0.512%)
 classical contributions        ...        0 min,  0.000 sec (  0.120%)
 integral evaluation            ...        0 min,  0.001 sec (  7.715%)
 iterations                     ...        0 min,  0.004 sec ( 52.334%)
 molecular gradient             ...        0 min,  0.003 sec ( 35.866%)
 printout                       ...        0 min,  0.000 sec (  0.954%)

         :::::::::::::::::::::::::::::::::::::::::::::::::::::
         ::                     SUMMARY                     ::
         :::::::::::::::::::::::::::::::::::::::::::::::::::::
         :: total energy             -30.713705429900 Eh    ::
         :: total w/o Gsasa/hb       -30.702848876848 Eh    ::
         :: gradient norm              0.000891370417 Eh/a0 ::
         :: HOMO-LUMO gap              3.745018604787 eV    ::
         ::.................................................::
         :: SCC energy               -31.005142581337 Eh    ::
         :: -> isotropic ES            0.274521493637 Eh    ::
         :: -> anisotropic ES         -0.020259845672 Eh    ::
         :: -> anisotropic XC          0.006591554267 Eh    ::
         :: -> dispersion             -0.011275052671 Eh    ::
         :: -> Gsolv                  -0.123224468265 Eh    ::
         ::    -> Gelec               -0.112367915213 Eh    ::
         ::    -> Gsasa                0.004242442845 Eh    ::
         ::    -> Ghb                 -0.016179755595 Eh    ::
         ::    -> Gshift               0.001080759698 Eh    ::
         :: repulsion energy           0.291437151437 Eh    ::
         :: add. restraining           0.000000000000 Eh    ::
         :: total charge               0.000000000000 e     ::
         :::::::::::::::::::::::::::::::::::::::::::::::::::::


Property printout bound to 'properties.out'

           -------------------------------------------------
          | TOTAL ENERGY              -30.713705429900 Eh   |
          | GRADIENT NORM               0.000891370417 Eh/α |
          | HOMO-LUMO GAP               3.745018604787 eV   |
           -------------------------------------------------

------------------------------------------------------------------------
 * finished run on 2026/04/11 at 16:57:59.361     
------------------------------------------------------------------------
 total:
 * wall-time:     0 d,  0 h,  0 min,  0.013 sec
 *  cpu-time:     0 d,  0 h,  0 min,  0.012 sec
 * ratio c/w:     0.859 speedup
 SCF:
 * wall-time:     0 d,  0 h,  0 min,  0.008 sec
 *  cpu-time:     0 d,  0 h,  0 min,  0.007 sec
 * ratio c/w:     0.805 speedup


-------------------------   --------------------
FINAL SINGLE POINT ENERGY       -30.713705429900
-------------------------   --------------------


-------------
DIPOLE MOMENT
-------------
                                X             Y             Z
Total Dipole Moment    :      8.33500      -0.33900      -4.05300
                        -----------------------------------------
Magnitude (a.u.)       :      9.27437
Magnitude (Debye)      :     23.57358


------------------
CARTESIAN GRADIENT
------------------

   1   N   :   -0.000064980   -0.000307124   -0.000062579
   2   C   :    0.000038758    0.000274662   -0.000244094
   3   C   :   -0.000279000   -0.000207842    0.000316563
   4   O   :    0.000042016    0.000040574   -0.000056493
   5   N   :    0.000137427    0.000199731   -0.000035022
   6   C   :   -0.000120637   -0.000015778   -0.000206415
   7   C   :    0.000039474    0.000134861    0.000267214
   8   O   :    0.000102265    0.000009272   -0.000120221
   9   O   :   -0.000063642   -0.000113086   -0.000028811
  10   H   :   -0.000064463    0.000029237    0.000072561
  11   H   :    0.000044616    0.000057622    0.000011921
  12   H   :    0.000051861    0.000102415   -0.000060322
  13   H   :    0.000078422   -0.000120010    0.000054208
  14   H   :    0.000002356    0.000008169    0.000049662
  15   H   :   -0.000014300   -0.000019548   -0.000013273
  16   H   :    0.000091682   -0.000022704   -0.000015291
  17   H   :   -0.000021857   -0.000050452    0.000070392

Difference to translation invariance:
           :    0.0000000000    0.0000000000   -0.0000000000

Difference to rotation invariance:
           :    0.0003105253    0.0003068554   -0.0000270142

Norm of the Cartesian gradient     ...    0.0008913704
RMS gradient                       ...    0.0001248168
MAX gradient                       ...    0.0003165628
------------------------------------------------------------------------------
                         ORCA GEOMETRY RELAXATION STEP
------------------------------------------------------------------------------

Reading the OPT-File                    .... done
Getting information on internals        .... done
Copying old internal coords+grads       .... done
Making the new internal coordinates     .... (2022 redundants) done
Validating the new internal coordinates .... (2022 redundants) done
Calculating the B-matrix                .... done
Calculating the G,G- and P matrices     .... done
Transforming gradient to internals      .... done
Projecting the internal gradient        .... done
Number of atoms                         ....  17
Number of internal coordinates          ....  69
Current Energy                          ....   -30.713705430 Eh
Current gradient norm                   ....     0.000891370 Eh/bohr
Maximum allowed component of the step   ....  0.300
Current trust radius                    ....  0.700
Updating the Hessian (BFGS)             .... done
Forming the augmented Hessian           .... done
Diagonalizing the augmented Hessian     .... done
Last element of RFO vector              ....  0.999207713
Lowest eigenvalues of augmented Hessian:
 -0.000005455  0.002052652  0.003398439  0.010261576  0.014407061
Length of the computed step             ....  0.039830380
The final length of the internal step   ....  0.039830380
Converting the step to Cartesian space:
 Initial RMS(Int)=    0.0047950143
Transforming coordinates:
 Iter   0:  RMS(Cart)=    0.0102774782 RMS(Int)=    0.0047943847
done
Storing new coordinates                 .... done
The predicted energy change is          ....    -0.000002732
Previously predicted energy change      ....    -0.000002354
Actually observed energy change         ....    -0.000003515
Ratio of predicted to observed change   ....     1.493526159
New trust radius                        ....     0.700000000

                                .--------------------.
          ----------------------|Geometry convergence|-------------------------
          Item                value                   Tolerance       Converged
          ---------------------------------------------------------------------
          Energy change      -0.0000035155            0.0000050000      YES
          RMS gradient        0.0000654397            0.0001000000      YES
          MAX gradient        0.0001658543            0.0003000000      YES
          RMS step            0.0047950143            0.0020000000      NO
          MAX step            0.0146384574            0.0040000000      NO
          -------------------------------------------------------------------------
          ........................................................
          Max(Bonds)      0.0015      Max(Angles)    0.11
          Max(Dihed)        0.84      Max(Improp)    0.00
          ---------------------------------------------------------------------

The optimization has not yet converged - more geometry cycles are needed


    ---------------------------------------------------------------------------
                         Redundant Internal Coordinates
                            (Angstroem and degrees)

        Definition                    Value    dE/dq     Step     New-Value
    ----------------------------------------------------------------------------
     1. B(C   1,N   0)                1.4739 -0.000044 -0.0000    1.4739   
     2. B(C   2,C   1)                1.5390  0.000151  0.0002    1.5392   
     3. B(O   3,C   2)                1.2301 -0.000053  0.0002    1.2303   
     4. B(N   4,C   2)                1.3339 -0.000089 -0.0003    1.3336   
     5. B(C   5,N   4)                1.4414 -0.000037 -0.0001    1.4412   
     6. B(C   6,C   5)                1.5788  0.000070  0.0001    1.5789   
     7. B(O   7,C   6)                1.2413 -0.000149  0.0001    1.2414   
     8. B(O   8,C   6)                1.2433 -0.000126  0.0001    1.2434   
     9. B(H   9,N   0)                1.0234  0.000038 -0.0000    1.0234   
    10. B(H  10,N   0)                1.0541 -0.000028  0.0002    1.0543   
    11. B(H  10,O   3)                1.8117  0.000014 -0.0015    1.8102   
    12. B(H  11,N   0)                1.0235  0.000019  0.0000    1.0235   
    13. B(H  12,C   1)                1.0888  0.000011 -0.0001    1.0888   
    14. B(H  13,C   1)                1.0893 -0.000002  0.0001    1.0894   
    15. B(H  14,N   4)                1.0109 -0.000004  0.0000    1.0109   
    16. B(H  15,C   5)                1.0914  0.000027 -0.0000    1.0914   
    17. B(H  16,C   5)                1.0875 -0.000015  0.0000    1.0876   
    18. A(H  10,N   0,H  11)          109.66  0.000042   -0.09    109.57   
    19. A(H   9,N   0,H  11)          109.93  0.000007   -0.01    109.92   
    20. A(C   1,N   0,H  10)          102.69  0.000073   -0.03    102.67   
    21. A(H   9,N   0,H  10)          108.33 -0.000056    0.11    108.43   
    22. A(C   1,N   0,H   9)          112.64 -0.000084    0.06    112.69   
    23. A(C   1,N   0,H  11)          113.25  0.000022   -0.03    113.22   
    24. A(N   0,C   1,H  13)          111.77  0.000005   -0.02    111.74   
    25. A(C   2,C   1,H  12)          109.48  0.000050    0.08    109.56   
    26. A(H  12,C   1,H  13)          109.53  0.000059    0.03    109.56   
    27. A(C   2,C   1,H  13)          107.75 -0.000003   -0.08    107.66   
    28. A(N   0,C   1,C   2)          106.31 -0.000047    0.01    106.32   
    29. A(N   0,C   1,H  12)          111.86 -0.000065   -0.01    111.85   
    30. A(C   1,C   2,N   4)          116.13 -0.000126    0.04    116.17   
    31. A(C   1,C   2,O   3)          117.86 -0.000023   -0.05    117.81   
    32. A(O   3,C   2,N   4)          125.77  0.000149    0.02    125.79   
    33. A(C   5,N   4,H  14)          114.45  0.000073    0.06    114.52   
    34. A(C   2,N   4,C   5)          118.99 -0.000166    0.04    119.03   
    35. A(C   2,N   4,H  14)          116.98  0.000078    0.04    117.02   
    36. A(C   6,C   5,H  16)          109.61  0.000052   -0.04    109.58   
    37. A(N   4,C   5,H  16)          111.24  0.000111    0.01    111.25   
    38. A(C   6,C   5,H  15)          106.82  0.000047   -0.06    106.75   
    39. A(N   4,C   5,C   6)          109.57 -0.000134    0.06    109.63   
    40. A(N   4,C   5,H  15)          109.78 -0.000055    0.02    109.80   
    41. A(H  15,C   5,H  16)          109.73 -0.000024   -0.01    109.72   
    42. A(C   5,C   6,O   7)          116.17 -0.000005   -0.01    116.16   
    43. A(O   7,C   6,O   8)          128.25  0.000050   -0.01    128.24   
    44. A(C   5,C   6,O   8)          115.58 -0.000045    0.02    115.60   
    45. D(H  12,C   1,N   0,H   9)    125.15  0.000056   -0.84    124.31   
    46. D(H  12,C   1,N   0,H  11)     -0.38  0.000098   -0.84     -1.22   
    47. D(C   2,C   1,N   0,H  10)      0.91 -0.000012   -0.60      0.31   
    48. D(H  12,C   1,N   0,H  10)   -118.55 -0.000007   -0.70   -119.25   
    49. D(C   2,C   1,N   0,H  11)    119.08  0.000093   -0.74    118.34   
    50. D(C   2,C   1,N   0,H   9)   -115.40  0.000051   -0.74   -116.13   
    51. D(O   3,C   2,C   1,N   0)     -0.16  0.000010    0.38      0.21   
    52. D(N   4,C   2,C   1,N   0)   -174.89  0.000008    0.27   -174.62   
    53. D(O   3,C   2,C   1,H  13)   -120.12  0.000030    0.44   -119.67   
    54. D(N   4,C   2,C   1,H  12)    -53.89 -0.000069    0.31    -53.59   
    55. D(O   3,C   2,C   1,H  12)    120.84 -0.000068    0.41    121.25   
    56. D(H  14,N   4,C   2,C   1)    -14.99 -0.000021   -0.01    -15.00   
    57. D(C   5,N   4,C   2,O   3)     26.35 -0.000014   -0.39     25.96   
    58. D(H  14,N   4,C   2,O   3)    170.75 -0.000010   -0.12    170.63   
    59. D(C   5,N   4,C   2,C   1)   -159.40 -0.000025   -0.28   -159.67   
    60. D(H  16,C   5,N   4,C   2)   -169.88  0.000004    0.47   -169.41   
    61. D(H  15,C   5,N   4,H  14)    166.50  0.000002    0.23    166.72   
    62. D(H  15,C   5,N   4,C   2)    -48.24  0.000010    0.48    -47.76   
    63. D(C   6,C   5,N   4,H  14)    -76.50 -0.000051    0.21    -76.29   
    64. D(C   6,C   5,N   4,C   2)     68.77 -0.000043    0.46     69.22   
    65. D(O   8,C   6,C   5,H  15)    109.63 -0.000038    0.13    109.77   
    66. D(O   8,C   6,C   5,N   4)     -9.22  0.000072    0.10     -9.12   
    67. D(O   7,C   6,C   5,H  16)     48.59 -0.000067    0.13     48.72   
    68. D(O   7,C   6,C   5,H  15)    -70.23 -0.000093    0.20    -70.04   
    69. D(O   7,C   6,C   5,N   4)    170.91  0.000017    0.17    171.08   
    ----------------------------------------------------------------------------

Geometry step timings:
Preparation and reading OPT file:      0.000 s ( 1.078 %)
Internal coordinates            :      0.000 s ( 1.198 %)
B/P matrices and projection     :      0.000 s (38.204 %)
Hessian update/contruction      :      0.000 s (11.976 %)
Making the step                 :      0.000 s (28.623 %)
Converting the step to Cartesian:      0.000 s ( 2.994 %)
Storing new data                :      0.000 s ( 1.198 %)
Checking convergence            :      0.000 s ( 1.437 %)
Final printing                  :      0.000 s (13.293 %)
Total time                      :      0.001 s

Time for energy+gradient        :      0.017 s
Time for complete geometry iter :      0.018 s

         *************************************************************
         *                GEOMETRY OPTIMIZATION CYCLE  16            *
         *************************************************************
---------------------------------
CARTESIAN COORDINATES (ANGSTROEM)
---------------------------------
  N     2.618008    0.332630    0.046327
  C     1.404610    0.432625   -0.784299
  C     0.310593   -0.362165   -0.049022
  O     0.608584   -0.896612    1.018290
  N    -0.851526   -0.494322   -0.689753
  C    -2.034928   -0.816345    0.067199
  C    -2.438726    0.414647    0.969749
  O    -3.536410    0.335506    1.544062
  O    -1.610609    1.340941    1.016803
  H     2.922418    1.238963    0.411280
  H     2.295920   -0.261525    0.855550
  H     3.396310   -0.130447   -0.430515
  H     1.556892    0.011144   -1.776543
  H     1.060992    1.462495   -0.874381
  H    -1.012043    0.115097   -1.480188
  H    -1.826544   -1.647321    0.743362
  H    -2.863544   -1.075312   -0.587922

----------------------------
CARTESIAN COORDINATES (A.U.)
----------------------------
  NO LB    ZA    FRAG    MASS        X           Y           Z
   0 N   7.0000    0    14.007    4.947318    0.628579    0.087545
   1 C   6.0000    0    12.011    2.654328    0.817543   -1.482111
   2 C   6.0000    0    12.011    0.586936   -0.684393   -0.092639
   3 O   8.0000    0    15.999    1.150058   -1.694351    1.924290
   4 N   7.0000    0    14.007   -1.609150   -0.934133   -1.303444
   5 C   6.0000    0    12.011   -3.845456   -1.542668    0.126988
   6 C   6.0000    0    12.011   -4.608524    0.783570    1.832560
   7 O   8.0000    0    15.999   -6.682847    0.634015    2.917854
   8 O   8.0000    0    15.999   -3.043609    2.534011    1.921480
   9 H   1.0000    0     1.008    5.522570    2.341300    0.777207
  10 H   1.0000    0     1.008    4.338661   -0.494211    1.616756
  11 H   1.0000    0     1.008    6.418096   -0.246508   -0.813556
  12 H   1.0000    0     1.008    2.942099    0.021059   -3.357179
  13 H   1.0000    0     1.008    2.004985    2.763715   -1.652340
  14 H   1.0000    0     1.008   -1.912483    0.217502   -2.797149
  15 H   1.0000    0     1.008   -3.451667   -3.112986    1.404751
  16 H   1.0000    0     1.008   -5.411314   -2.032044   -1.111012

      -----------------------------------------------------------      
     |                   =====================                   |     
     |                           x T B                           |     
     |                   =====================                   |     
     |                         S. Grimme                         |     
     |          Mulliken Center for Theoretical Chemistry        |     
     |                    University of Bonn                     |     
      -----------------------------------------------------------      

   * xtb version 6.7.1 (edcfbbe) compiled by 'albert@albert-system' on 2024-07-22

   xtb is free software: you can redistribute it and/or modify it under
   the terms of the GNU Lesser General Public License as published by
   the Free Software Foundation, either version 3 of the License, or
   (at your option) any later version.
   
   xtb is distributed in the hope that it will be useful,
   but WITHOUT ANY WARRANTY; without even the implied warranty of
   MERCHANTABILITY or FITNESS FOR A PARTICULAR PURPOSE.  See the
   GNU Lesser General Public License for more details.
   
   Cite this work as:
   * C. Bannwarth, E. Caldeweyher, S. Ehlert, A. Hansen, P. Pracht,
     J. Seibert, S. Spicher, S. Grimme, WIREs Comput. Mol. Sci., 2020, 11,
     e01493. DOI: 10.1002/wcms.1493
   
   for GFN2-xTB:
   * C. Bannwarth, S. Ehlert and S. Grimme., J. Chem. Theory Comput., 2019,
     15, 1652-1671. DOI: 10.1021/acs.jctc.8b01176
   for GFN1-xTB:
   * S. Grimme, C. Bannwarth, P. Shushkov, J. Chem. Theory Comput., 2017,
     13, 1989-2009. DOI: 10.1021/acs.jctc.7b00118
   for GFN0-xTB:
   * P. Pracht, E. Caldeweyher, S. Ehlert, S. Grimme, ChemRxiv, 2019, preprint.
     DOI: 10.26434/chemrxiv.8326202.v1
   for GFN-FF:
   * S. Spicher and S. Grimme, Angew. Chem. Int. Ed., 2020, 59, 15665-15673.
     DOI: 10.1002/anie.202004239
   
   for ALPB and GBSA implicit solvation:
   * S. Ehlert, M. Stahn, S. Spicher, S. Grimme, J. Chem. Theory Comput.,
     2021, 17, 4250-4261. DOI: 10.1021/acs.jctc.1c00471
   
   for ddCOSMO and CPCM-X implicit solvation:
   * M. Stahn, S. Ehlert, S. Grimme, J. Phys. Chem. A,
     2023, XX, XXXX-XXXX. DOI: 10.1021/acs.jpca.3c04382
   
   for DFT-D4:
   * E. Caldeweyher, C. Bannwarth and S. Grimme, J. Chem. Phys., 2017,
     147, 034112. DOI: 10.1063/1.4993215
   * E. Caldeweyher, S. Ehlert, A. Hansen, H. Neugebauer, S. Spicher,
     C. Bannwarth and S. Grimme, J. Chem. Phys., 2019, 150, 154122.
     DOI: 10.1063/1.5090222
   * E. Caldeweyher, J.-M. Mewes, S. Ehlert and S. Grimme, Phys. Chem. Chem. Phys.
     2020, 22, 8499-8512. DOI: 10.1039/D0CP00502A
   
   for sTDA-xTB:
   * S. Grimme and C. Bannwarth, J. Chem. Phys., 2016, 145, 054103.
     DOI: 10.1063/1.4959605
   
   in the mass-spec context:
   * V. Asgeirsson, C. Bauer and S. Grimme, Chem. Sci., 2017, 8, 4879.
     DOI: 10.1039/c7sc00601b
   * J. Koopman and S. Grimme, ACS Omega 2019, 4, 12, 15120-15133.
     DOI: 10.1021/acsomega.9b02011
   
   for metadynamics refer to:
   * S. Grimme, J. Chem. Theory Comput., 2019, 155, 2847-2862
     DOI: 10.1021/acs.jctc.9b00143
   
   for SPH calculations refer to:
   * S. Spicher and S. Grimme, J. Chem. Theory Comput., 2021, 17, 1701-1714
     DOI: 10.1021/acs.jctc.0c01306
   
   for ONIOM refer to:
   * C. Plett, A. Katbashev, S. Ehlert, S. Grimme, M. Bursch,
     Phys. Chem. Chem. Phys., 2023, 25, 17860-17868. DOI: 10.1039/D3CP02178E
   
   for DIPRO refer to:
   * J. Kohn, N. Gildemeister, S. Grimme, D. Fazzi, A. Hansen,
     J. Chem. Phys., 2023, just accepted.
   
   for PTB refer to:
   * S. Grimme, M. Mueller, A. Hansen, J. Chem. Phys., 2023, 158, 124111.
     DOI: 10.1063/5.0137838
   
   with help from (in alphabetical order)
   P. Atkinson, C. Bannwarth, F. Bohle, G. Brandenburg, E. Caldeweyher
   M. Checinski, S. Dohm, S. Ehlert, S. Ehrlich, I. Gerasimov, C. Hölzer
   A. Katbashev, J. Kohn, J. Koopman, C. Lavigne, S. Lehtola, F. März, M. Müller,
   F. Musil, H. Neugebauer, J. Pisarek, C. Plett, P. Pracht, F. Pultar,
   J. Seibert, P. Shushkov, S. Spicher, M. Stahn, M. Steiner, T. Strunk,
   J. Stückrath, T. Rose, and J. Unsleber
   
 * started run on 2026/04/11 at 16:57:59.365     
   ID    Z sym.   atoms
    1    7 N      1, 5
    2    6 C      2, 3, 6, 7
    3    8 O      4, 8, 9
    4    1 H      10-17

           -------------------------------------------------
          |                Calculation Setup                |
           -------------------------------------------------

          program call               : /home/analima/Programs/orca-6.1.0-f.0_linux_x86-64/bin/otool_xtb geo_opt_XTB.xyz --grad -c 0 -u 0 -P 1 --namespace geo_opt --input geo_opt_XTB.input.tmp --alpb WATER --acc 0.200000
          calculation namespace      : geo_opt
          coordinate file            : geo_opt_XTB.xyz
          omp threads                :                     1


           -------------------------------------------------
          |                 G F N 2 - x T B                 |
           -------------------------------------------------

        Reference                      10.1021/acs.jctc.8b01176
      * Hamiltonian:
        H0-scaling (s, p, d)           1.850000    2.230000    2.230000
        zeta-weighting                 0.500000
      * Dispersion:
        s8                             2.700000
        a1                             0.520000
        a2                             5.000000
        s9                             5.000000
      * Repulsion:
        kExp                           1.500000    1.000000
        rExp                           1.000000
      * Coulomb:
        alpha                          2.000000
        third order                    shell-resolved
        anisotropic                    true
        a3                             3.000000
        a5                             4.000000
        cn-shift                       1.200000
        cn-exp                         4.000000
        max-rad                        5.000000

      * Solvation model:               ALPB
        Solvent                        WATER
        Parameter file                 internal GFN2-xTB/ALPB
        Dielectric constant                8.0200E+01
        Reference state                gsolv [1 M gas/solution]
        Free energy shift                  1.0808E-03 Eh       6.7819E-01 kcal/mol
        Temperature                        2.9815E+02 K
        Density                            1.0000E+00 kg/L
        Solvent mass                       1.8000E+01 g/mol
        Interaction kernel             P16
        Born radius scaling (c1)           1.4744E+00
        Born radii integrator          GBOBC
        Born offset                        0.0000E+00 a0       0.0000E+00 AA
        H-bond correction              true
        Ion screening                  false
        Surface tension                    1.0000E-05 Eh       1.5569E+01 dyn/cm
        Grid points                               230 per atom
q/qsh data taken from xtbrestart
CAMM data taken from xtbrestart

          ...................................................
          :                      SETUP                      :
          :.................................................:
          :  # basis functions                  44          :
          :  # atomic orbitals                  44          :
          :  # shells                           26          :
          :  # electrons                        52          :
          :  max. iterations                   250          :
          :  Hamiltonian                  GFN2-xTB          :
          :  restarted?                       true          :
          :  GBSA solvation                   true          :
          :  PC potential                    false          :
          :  electronic temp.          300.0000000     K    :
          :  accuracy                    0.2000000          :
          :  -> integral cutoff          0.3198970E+02      :
          :  -> integral neglect         0.2000000E-08      :
          :  -> SCF convergence          0.2000000E-06 Eh   :
          :  -> wf. convergence          0.2000000E-04 e    :
          :  Broyden damping             0.4000000          :
          :  net charge                          0          :
          :  unpaired electrons                  0          :
          ...................................................

 iter      E             dE          RMSdq      gap      omega  full diag
   1    -31.0050841 -0.310051E+02  0.230E-02    3.74       0.0  T
   2    -31.0050844 -0.278046E-06  0.132E-02    3.74       1.8  T
   3    -31.0050844  0.102836E-07  0.287E-03    3.74       8.5  T
   4    -31.0050844 -0.490062E-07  0.680E-04    3.74      35.7  T
   5    -31.0050844 -0.169162E-08  0.352E-04    3.74      68.8  T
   6    -31.0050844 -0.697717E-10  0.585E-05    3.74     414.8  T
   7    -31.0050844 -0.403944E-11  0.240E-05    3.74    1009.4  T

   *** convergence criteria satisfied after 7 iterations ***

         #    Occupation            Energy/Eh            Energy/eV
      -------------------------------------------------------------
         1        2.0000           -0.7251539             -19.7324
       ...           ...                  ...                  ...
        20        2.0000           -0.4829900             -13.1428
        21        2.0000           -0.4645346             -12.6406
        22        2.0000           -0.4401671             -11.9776
        23        2.0000           -0.4234514             -11.5227
        24        2.0000           -0.4056279             -11.0377
        25        2.0000           -0.3908040             -10.6343
        26        2.0000           -0.3639867              -9.9046 (HOMO)
        27                         -0.2264772              -6.1628 (LUMO)
        28                         -0.1763561              -4.7989
        29                         -0.0471747              -1.2837
        30                          0.0195527               0.5321
        31                          0.0477809               1.3002
       ...                                ...                  ...
        44                          0.6487509              17.6534
      -------------------------------------------------------------
                  HL-Gap            0.1375094 Eh            3.7418 eV
             Fermi-level           -0.2952319 Eh           -8.0337 eV

 SCC (total)                   0 d,  0 h,  0 min,  0.009 sec
 SCC setup                      ...        0 min,  0.000 sec (  2.560%)
 Dispersion                     ...        0 min,  0.000 sec (  0.661%)
 classical contributions        ...        0 min,  0.000 sec (  0.190%)
 integral evaluation            ...        0 min,  0.001 sec ( 11.140%)
 iterations                     ...        0 min,  0.005 sec ( 60.617%)
 molecular gradient             ...        0 min,  0.002 sec ( 24.222%)
 printout                       ...        0 min,  0.000 sec (  0.474%)

         :::::::::::::::::::::::::::::::::::::::::::::::::::::
         ::                     SUMMARY                     ::
         :::::::::::::::::::::::::::::::::::::::::::::::::::::
         :: total energy             -30.713709479501 Eh    ::
         :: total w/o Gsasa/hb       -30.702855585626 Eh    ::
         :: gradient norm              0.000929380349 Eh/a0 ::
         :: HOMO-LUMO gap              3.741822530218 eV    ::
         ::.................................................::
         :: SCC energy               -31.005067546736 Eh    ::
         :: -> isotropic ES            0.274791304767 Eh    ::
         :: -> anisotropic ES         -0.020230514201 Eh    ::
         :: -> anisotropic XC          0.006596419731 Eh    ::
         :: -> dispersion             -0.011263744414 Eh    ::
         :: -> Gsolv                  -0.123441427156 Eh    ::
         ::    -> Gelec               -0.112587533281 Eh    ::
         ::    -> Gsasa                0.004253569282 Eh    ::
         ::    -> Ghb                 -0.016188222856 Eh    ::
         ::    -> Gshift               0.001080759698 Eh    ::
         :: repulsion energy           0.291358067235 Eh    ::
         :: add. restraining           0.000000000000 Eh    ::
         :: total charge               0.000000000000 e     ::
         :::::::::::::::::::::::::::::::::::::::::::::::::::::


Property printout bound to 'properties.out'

           -------------------------------------------------
          | TOTAL ENERGY              -30.713709479501 Eh   |
          | GRADIENT NORM               0.000929380349 Eh/α |
          | HOMO-LUMO GAP               3.741822530218 eV   |
           -------------------------------------------------

------------------------------------------------------------------------
 * finished run on 2026/04/11 at 16:57:59.379     
------------------------------------------------------------------------
 total:
 * wall-time:     0 d,  0 h,  0 min,  0.014 sec
 *  cpu-time:     0 d,  0 h,  0 min,  0.011 sec
 * ratio c/w:     0.802 speedup
 SCF:
 * wall-time:     0 d,  0 h,  0 min,  0.009 sec
 *  cpu-time:     0 d,  0 h,  0 min,  0.006 sec
 * ratio c/w:     0.709 speedup


-------------------------   --------------------
FINAL SINGLE POINT ENERGY       -30.713709479500
-------------------------   --------------------


-------------
DIPOLE MOMENT
-------------
                                X             Y             Z
Total Dipole Moment    :      8.36400      -0.34800      -4.05600
                        -----------------------------------------
Magnitude (a.u.)       :      9.30208
Magnitude (Debye)      :     23.64401


------------------
CARTESIAN GRADIENT
------------------

   1   N   :   -0.000054239   -0.000224581   -0.000101294
   2   C   :    0.000123986    0.000243240   -0.000260780
   3   C   :   -0.000481319   -0.000194107    0.000206996
   4   O   :    0.000160413    0.000031421    0.000055578
   5   N   :    0.000014056    0.000232927   -0.000100871
   6   C   :    0.000080968   -0.000139683   -0.000287371
   7   C   :   -0.000065457    0.000059248    0.000168696
   8   O   :    0.000020177    0.000001167   -0.000015106
   9   O   :    0.000052643    0.000031673    0.000027765
  10   H   :   -0.000050182    0.000021658    0.000029954
  11   H   :    0.000010517    0.000000943    0.000047282
  12   H   :    0.000047477    0.000095929   -0.000063851
  13   H   :    0.000153536   -0.000130578    0.000078441
  14   H   :   -0.000018138    0.000011803    0.000111010
  15   H   :    0.000020115    0.000011658   -0.000037455
  16   H   :    0.000030865    0.000004992    0.000045375
  17   H   :   -0.000045415   -0.000057709    0.000095631

Difference to translation invariance:
           :    0.0000000000   -0.0000000000    0.0000000000

Difference to rotation invariance:
           :    0.0002975543    0.0003781305   -0.0000075547

Norm of the Cartesian gradient     ...    0.0009293803
RMS gradient                       ...    0.0001301393
MAX gradient                       ...    0.0004813195
------------------------------------------------------------------------------
                         ORCA GEOMETRY RELAXATION STEP
------------------------------------------------------------------------------

Reading the OPT-File                    .... done
Getting information on internals        .... done
Copying old internal coords+grads       .... done
Making the new internal coordinates     .... (2022 redundants) done
Validating the new internal coordinates .... (2022 redundants) done
Calculating the B-matrix                .... done
Calculating the G,G- and P matrices     .... done
Transforming gradient to internals      .... done
Projecting the internal gradient        .... done
Number of atoms                         ....  17
Number of internal coordinates          ....  69
Current Energy                          ....   -30.713709480 Eh
Current gradient norm                   ....     0.000929380 Eh/bohr
Maximum allowed component of the step   ....  0.300
Current trust radius                    ....  0.700
Updating the Hessian (BFGS)             .... done
Forming the augmented Hessian           .... done
Diagonalizing the augmented Hessian     .... done
Last element of RFO vector              ....  0.998585085
Lowest eigenvalues of augmented Hessian:
 -0.000005924  0.001344218  0.002873611  0.010000622  0.014519389
Length of the computed step             ....  0.053252673
The final length of the internal step   ....  0.053252673
Converting the step to Cartesian space:
 Initial RMS(Int)=    0.0064108684
Transforming coordinates:
 Iter   0:  RMS(Cart)=    0.0130263092 RMS(Int)=    0.0064085461
done
Storing new coordinates                 .... done
The predicted energy change is          ....    -0.000002971
Previously predicted energy change      ....    -0.000002732
Actually observed energy change         ....    -0.000004050
Ratio of predicted to observed change   ....     1.482282985
New trust radius                        ....     0.700000000

                                .--------------------.
          ----------------------|Geometry convergence|-------------------------
          Item                value                   Tolerance       Converged
          ---------------------------------------------------------------------
          Energy change      -0.0000040496            0.0000050000      YES
          RMS gradient        0.0000775347            0.0001000000      YES
          MAX gradient        0.0002545819            0.0003000000      YES
          RMS step            0.0064108684            0.0020000000      NO
          MAX step            0.0203475997            0.0040000000      NO
          -------------------------------------------------------------------------
          ........................................................
          Max(Bonds)      0.0014      Max(Angles)    0.15
          Max(Dihed)        1.17      Max(Improp)    0.00
          ---------------------------------------------------------------------

The optimization has not yet converged - more geometry cycles are needed


    ---------------------------------------------------------------------------
                         Redundant Internal Coordinates
                            (Angstroem and degrees)

        Definition                    Value    dE/dq     Step     New-Value
    ----------------------------------------------------------------------------
     1. B(C   1,N   0)                1.4739 -0.000066  0.0000    1.4739   
     2. B(C   2,C   1)                1.5392  0.000233 -0.0001    1.5391   
     3. B(O   3,C   2)                1.2303  0.000077  0.0002    1.2304   
     4. B(N   4,C   2)                1.3336 -0.000040 -0.0003    1.3334   
     5. B(C   5,N   4)                1.4412 -0.000031 -0.0001    1.4411   
     6. B(C   6,C   5)                1.5789  0.000170 -0.0002    1.5787   
     7. B(O   7,C   6)                1.2414 -0.000027  0.0001    1.2415   
     8. B(O   8,C   6)                1.2434  0.000061  0.0001    1.2435   
     9. B(H   9,N   0)                1.0234  0.000019 -0.0000    1.0233   
    10. B(H  10,N   0)                1.0543  0.000031  0.0002    1.0545   
    11. B(H  10,O   3)                1.8102 -0.000007 -0.0014    1.8088   
    12. B(H  11,N   0)                1.0235  0.000019  0.0000    1.0236   
    13. B(H  12,C   1)                1.0888  0.000002 -0.0001    1.0887   
    14. B(H  13,C   1)                1.0894  0.000003  0.0001    1.0895   
    15. B(H  14,N   4)                1.0109  0.000028  0.0000    1.0109   
    16. B(H  15,C   5)                1.0914  0.000031 -0.0001    1.0913   
    17. B(H  16,C   5)                1.0876 -0.000009  0.0001    1.0877   
    18. A(H  10,N   0,H  11)          109.57  0.000037   -0.13    109.44   
    19. A(H   9,N   0,H  11)          109.92  0.000002   -0.00    109.91   
    20. A(C   1,N   0,H  10)          102.67  0.000076   -0.05    102.62   
    21. A(H   9,N   0,H  10)          108.44 -0.000032    0.15    108.58   
    22. A(C   1,N   0,H   9)          112.69 -0.000086    0.09    112.78   
    23. A(C   1,N   0,H  11)          113.21  0.000009   -0.05    113.17   
    24. A(N   0,C   1,H  13)          111.74 -0.000012   -0.02    111.72   
    25. A(C   2,C   1,H  12)          109.56  0.000069    0.08    109.65   
    26. A(H  12,C   1,H  13)          109.56  0.000125   -0.02    109.53   
    27. A(C   2,C   1,H  13)          107.67 -0.000072   -0.09    107.58   
    28. A(N   0,C   1,C   2)          106.31  0.000031    0.01    106.32   
    29. A(N   0,C   1,H  12)          111.85 -0.000141    0.04    111.89   
    30. A(C   1,C   2,N   4)          116.17 -0.000016    0.05    116.22   
    31. A(C   1,C   2,O   3)          117.81 -0.000169   -0.02    117.79   
    32. A(O   3,C   2,N   4)          125.79  0.000184   -0.01    125.78   
    33. A(C   5,N   4,H  14)          114.52  0.000157    0.04    114.56   
    34. A(C   2,N   4,C   5)          119.03 -0.000255    0.09    119.13   
    35. A(C   2,N   4,H  14)          117.02  0.000084    0.02    117.04   
    36. A(C   6,C   5,H  16)          109.58  0.000003   -0.05    109.53   
    37. A(N   4,C   5,H  16)          111.25  0.000130   -0.03    111.22   
    38. A(C   6,C   5,H  15)          106.76 -0.000043   -0.04    106.72   
    39. A(N   4,C   5,C   6)          109.63 -0.000040    0.08    109.71   
    40. A(N   4,C   5,H  15)          109.80 -0.000014    0.04    109.84   
    41. A(H  15,C   5,H  16)          109.72 -0.000043   -0.00    109.71   
    42. A(C   5,C   6,O   7)          116.16  0.000000   -0.01    116.15   
    43. A(O   7,C   6,O   8)          128.24  0.000002   -0.02    128.22   
    44. A(C   5,C   6,O   8)          115.60 -0.000002    0.03    115.63   
    45. D(H  12,C   1,N   0,H   9)    124.31  0.000018   -1.15    123.16   
    46. D(H  12,C   1,N   0,H  11)     -1.22  0.000078   -1.17     -2.38   
    47. D(C   2,C   1,N   0,H  10)      0.31  0.000009   -0.83     -0.52   
    48. D(H  12,C   1,N   0,H  10)   -119.25 -0.000015   -0.96   -120.20   
    49. D(C   2,C   1,N   0,H  11)    118.34  0.000103   -1.03    117.30   
    50. D(C   2,C   1,N   0,H   9)   -116.13  0.000042   -1.01   -117.15   
    51. D(O   3,C   2,C   1,N   0)      0.21  0.000018    0.54      0.75   
    52. D(N   4,C   2,C   1,N   0)   -174.62  0.000022    0.42   -174.20   
    53. D(O   3,C   2,C   1,H  13)   -119.67  0.000052    0.61   -119.06   
    54. D(N   4,C   2,C   1,H  12)    -53.58 -0.000089    0.51    -53.07   
    55. D(O   3,C   2,C   1,H  12)    121.25 -0.000094    0.64    121.89   
    56. D(H  14,N   4,C   2,C   1)    -15.00 -0.000033    0.02    -14.98   
    57. D(C   5,N   4,C   2,O   3)     25.96 -0.000040   -0.31     25.65   
    58. D(H  14,N   4,C   2,O   3)    170.63 -0.000006   -0.11    170.52   
    59. D(C   5,N   4,C   2,C   1)   -159.67 -0.000067   -0.18   -159.85   
    60. D(H  16,C   5,N   4,C   2)   -169.41  0.000020    0.50   -168.91   
    61. D(H  15,C   5,N   4,H  14)    166.72  0.000029    0.32    167.05   
    62. D(H  15,C   5,N   4,C   2)    -47.76  0.000042    0.50    -47.26   
    63. D(C   6,C   5,N   4,H  14)    -76.29 -0.000055    0.34    -75.95   
    64. D(C   6,C   5,N   4,C   2)     69.22 -0.000041    0.52     69.75   
    65. D(O   8,C   6,C   5,H  15)    109.77 -0.000048    0.18    109.95   
    66. D(O   8,C   6,C   5,N   4)     -9.12  0.000015    0.12     -9.00   
    67. D(O   7,C   6,C   5,H  16)     48.72 -0.000084    0.19     48.90   
    68. D(O   7,C   6,C   5,H  15)    -70.04 -0.000009    0.24    -69.80   
    69. D(O   7,C   6,C   5,N   4)    171.08  0.000053    0.17    171.26   
    ----------------------------------------------------------------------------

Geometry step timings:
Preparation and reading OPT file:      0.000 s ( 1.476 %)
Internal coordinates            :      0.000 s ( 1.083 %)
B/P matrices and projection     :      0.000 s (32.776 %)
Hessian update/contruction      :      0.000 s (10.728 %)
Making the step                 :      0.000 s (33.563 %)
Converting the step to Cartesian:      0.000 s ( 3.937 %)
Storing new data                :      0.000 s ( 1.772 %)
Checking convergence            :      0.000 s ( 1.969 %)
Final printing                  :      0.000 s (12.697 %)
Total time                      :      0.001 s

Time for energy+gradient        :      0.018 s
Time for complete geometry iter :      0.019 s

         *************************************************************
         *                GEOMETRY OPTIMIZATION CYCLE  17            *
         *************************************************************
---------------------------------
CARTESIAN COORDINATES (ANGSTROEM)
---------------------------------
  N     2.622326    0.327795    0.043067
  C     1.405944    0.436798   -0.782037
  C     0.312211   -0.358417   -0.047115
  O     0.610395   -0.891532    1.021005
  N    -0.850241   -0.490716   -0.686688
  C    -2.033100   -0.817277    0.068921
  C    -2.448532    0.413498    0.966084
  O    -3.545776    0.326385    1.540364
  O    -1.628827    1.347501    1.010758
  H     2.941944    1.232364    0.399150
  H     2.296679   -0.257854    0.857307
  H     3.391208   -0.150257   -0.434367
  H     1.552762    0.022845   -1.778190
  H     1.064691    1.468328   -0.862838
  H    -1.011679    0.118697   -1.476943
  H    -1.821578   -1.644240    0.748934
  H    -2.858426   -1.083917   -0.587411

----------------------------
CARTESIAN COORDINATES (A.U.)
----------------------------
  NO LB    ZA    FRAG    MASS        X           Y           Z
   0 N   7.0000    0    14.007    4.955478    0.619442    0.081384
   1 C   6.0000    0    12.011    2.656850    0.825428   -1.477836
   2 C   6.0000    0    12.011    0.589993   -0.677309   -0.089035
   3 O   8.0000    0    15.999    1.153479   -1.684751    1.929419
   4 N   7.0000    0    14.007   -1.606723   -0.927320   -1.297652
   5 C   6.0000    0    12.011   -3.842001   -1.544430    0.130242
   6 C   6.0000    0    12.011   -4.627055    0.781398    1.825635
   7 O   8.0000    0    15.999   -6.700546    0.616779    2.910866
   8 O   8.0000    0    15.999   -3.078037    2.546407    1.910055
   9 H   1.0000    0     1.008    5.559469    2.328830    0.754284
  10 H   1.0000    0     1.008    4.340095   -0.487273    1.620076
  11 H   1.0000    0     1.008    6.408454   -0.283944   -0.820835
  12 H   1.0000    0     1.008    2.934294    0.043171   -3.360293
  13 H   1.0000    0     1.008    2.011974    2.774737   -1.630527
  14 H   1.0000    0     1.008   -1.911797    0.224305   -2.791018
  15 H   1.0000    0     1.008   -3.442283   -3.107163    1.415280
  16 H   1.0000    0     1.008   -5.401643   -2.048306   -1.110046

      -----------------------------------------------------------      
     |                   =====================                   |     
     |                           x T B                           |     
     |                   =====================                   |     
     |                         S. Grimme                         |     
     |          Mulliken Center for Theoretical Chemistry        |     
     |                    University of Bonn                     |     
      -----------------------------------------------------------      

   * xtb version 6.7.1 (edcfbbe) compiled by 'albert@albert-system' on 2024-07-22

   xtb is free software: you can redistribute it and/or modify it under
   the terms of the GNU Lesser General Public License as published by
   the Free Software Foundation, either version 3 of the License, or
   (at your option) any later version.
   
   xtb is distributed in the hope that it will be useful,
   but WITHOUT ANY WARRANTY; without even the implied warranty of
   MERCHANTABILITY or FITNESS FOR A PARTICULAR PURPOSE.  See the
   GNU Lesser General Public License for more details.
   
   Cite this work as:
   * C. Bannwarth, E. Caldeweyher, S. Ehlert, A. Hansen, P. Pracht,
     J. Seibert, S. Spicher, S. Grimme, WIREs Comput. Mol. Sci., 2020, 11,
     e01493. DOI: 10.1002/wcms.1493
   
   for GFN2-xTB:
   * C. Bannwarth, S. Ehlert and S. Grimme., J. Chem. Theory Comput., 2019,
     15, 1652-1671. DOI: 10.1021/acs.jctc.8b01176
   for GFN1-xTB:
   * S. Grimme, C. Bannwarth, P. Shushkov, J. Chem. Theory Comput., 2017,
     13, 1989-2009. DOI: 10.1021/acs.jctc.7b00118
   for GFN0-xTB:
   * P. Pracht, E. Caldeweyher, S. Ehlert, S. Grimme, ChemRxiv, 2019, preprint.
     DOI: 10.26434/chemrxiv.8326202.v1
   for GFN-FF:
   * S. Spicher and S. Grimme, Angew. Chem. Int. Ed., 2020, 59, 15665-15673.
     DOI: 10.1002/anie.202004239
   
   for ALPB and GBSA implicit solvation:
   * S. Ehlert, M. Stahn, S. Spicher, S. Grimme, J. Chem. Theory Comput.,
     2021, 17, 4250-4261. DOI: 10.1021/acs.jctc.1c00471
   
   for ddCOSMO and CPCM-X implicit solvation:
   * M. Stahn, S. Ehlert, S. Grimme, J. Phys. Chem. A,
     2023, XX, XXXX-XXXX. DOI: 10.1021/acs.jpca.3c04382
   
   for DFT-D4:
   * E. Caldeweyher, C. Bannwarth and S. Grimme, J. Chem. Phys., 2017,
     147, 034112. DOI: 10.1063/1.4993215
   * E. Caldeweyher, S. Ehlert, A. Hansen, H. Neugebauer, S. Spicher,
     C. Bannwarth and S. Grimme, J. Chem. Phys., 2019, 150, 154122.
     DOI: 10.1063/1.5090222
   * E. Caldeweyher, J.-M. Mewes, S. Ehlert and S. Grimme, Phys. Chem. Chem. Phys.
     2020, 22, 8499-8512. DOI: 10.1039/D0CP00502A
   
   for sTDA-xTB:
   * S. Grimme and C. Bannwarth, J. Chem. Phys., 2016, 145, 054103.
     DOI: 10.1063/1.4959605
   
   in the mass-spec context:
   * V. Asgeirsson, C. Bauer and S. Grimme, Chem. Sci., 2017, 8, 4879.
     DOI: 10.1039/c7sc00601b
   * J. Koopman and S. Grimme, ACS Omega 2019, 4, 12, 15120-15133.
     DOI: 10.1021/acsomega.9b02011
   
   for metadynamics refer to:
   * S. Grimme, J. Chem. Theory Comput., 2019, 155, 2847-2862
     DOI: 10.1021/acs.jctc.9b00143
   
   for SPH calculations refer to:
   * S. Spicher and S. Grimme, J. Chem. Theory Comput., 2021, 17, 1701-1714
     DOI: 10.1021/acs.jctc.0c01306
   
   for ONIOM refer to:
   * C. Plett, A. Katbashev, S. Ehlert, S. Grimme, M. Bursch,
     Phys. Chem. Chem. Phys., 2023, 25, 17860-17868. DOI: 10.1039/D3CP02178E
   
   for DIPRO refer to:
   * J. Kohn, N. Gildemeister, S. Grimme, D. Fazzi, A. Hansen,
     J. Chem. Phys., 2023, just accepted.
   
   for PTB refer to:
   * S. Grimme, M. Mueller, A. Hansen, J. Chem. Phys., 2023, 158, 124111.
     DOI: 10.1063/5.0137838
   
   with help from (in alphabetical order)
   P. Atkinson, C. Bannwarth, F. Bohle, G. Brandenburg, E. Caldeweyher
   M. Checinski, S. Dohm, S. Ehlert, S. Ehrlich, I. Gerasimov, C. Hölzer
   A. Katbashev, J. Kohn, J. Koopman, C. Lavigne, S. Lehtola, F. März, M. Müller,
   F. Musil, H. Neugebauer, J. Pisarek, C. Plett, P. Pracht, F. Pultar,
   J. Seibert, P. Shushkov, S. Spicher, M. Stahn, M. Steiner, T. Strunk,
   J. Stückrath, T. Rose, and J. Unsleber
   
 * started run on 2026/04/11 at 16:57:59.384     
   ID    Z sym.   atoms
    1    7 N      1, 5
    2    6 C      2, 3, 6, 7
    3    8 O      4, 8, 9
    4    1 H      10-17

           -------------------------------------------------
          |                Calculation Setup                |
           -------------------------------------------------

          program call               : /home/analima/Programs/orca-6.1.0-f.0_linux_x86-64/bin/otool_xtb geo_opt_XTB.xyz --grad -c 0 -u 0 -P 1 --namespace geo_opt --input geo_opt_XTB.input.tmp --alpb WATER --acc 0.200000
          calculation namespace      : geo_opt
          coordinate file            : geo_opt_XTB.xyz
          omp threads                :                     1


           -------------------------------------------------
          |                 G F N 2 - x T B                 |
           -------------------------------------------------

        Reference                      10.1021/acs.jctc.8b01176
      * Hamiltonian:
        H0-scaling (s, p, d)           1.850000    2.230000    2.230000
        zeta-weighting                 0.500000
      * Dispersion:
        s8                             2.700000
        a1                             0.520000
        a2                             5.000000
        s9                             5.000000
      * Repulsion:
        kExp                           1.500000    1.000000
        rExp                           1.000000
      * Coulomb:
        alpha                          2.000000
        third order                    shell-resolved
        anisotropic                    true
        a3                             3.000000
        a5                             4.000000
        cn-shift                       1.200000
        cn-exp                         4.000000
        max-rad                        5.000000

      * Solvation model:               ALPB
        Solvent                        WATER
        Parameter file                 internal GFN2-xTB/ALPB
        Dielectric constant                8.0200E+01
        Reference state                gsolv [1 M gas/solution]
        Free energy shift                  1.0808E-03 Eh       6.7819E-01 kcal/mol
        Temperature                        2.9815E+02 K
        Density                            1.0000E+00 kg/L
        Solvent mass                       1.8000E+01 g/mol
        Interaction kernel             P16
        Born radius scaling (c1)           1.4744E+00
        Born radii integrator          GBOBC
        Born offset                        0.0000E+00 a0       0.0000E+00 AA
        H-bond correction              true
        Ion screening                  false
        Surface tension                    1.0000E-05 Eh       1.5569E+01 dyn/cm
        Grid points                               230 per atom
q/qsh data taken from xtbrestart
CAMM data taken from xtbrestart

          ...................................................
          :                      SETUP                      :
          :.................................................:
          :  # basis functions                  44          :
          :  # atomic orbitals                  44          :
          :  # shells                           26          :
          :  # electrons                        52          :
          :  max. iterations                   250          :
          :  Hamiltonian                  GFN2-xTB          :
          :  restarted?                       true          :
          :  GBSA solvation                   true          :
          :  PC potential                    false          :
          :  electronic temp.          300.0000000     K    :
          :  accuracy                    0.2000000          :
          :  -> integral cutoff          0.3198970E+02      :
          :  -> integral neglect         0.2000000E-08      :
          :  -> SCF convergence          0.2000000E-06 Eh   :
          :  -> wf. convergence          0.2000000E-04 e    :
          :  Broyden damping             0.4000000          :
          :  net charge                          0          :
          :  unpaired electrons                  0          :
          ...................................................

 iter      E             dE          RMSdq      gap      omega  full diag
   1    -31.0050524 -0.310051E+02  0.302E-02    3.74       0.0  T
   2    -31.0050527 -0.298717E-06  0.174E-02    3.74       1.4  T
   3    -31.0050527  0.628724E-08  0.282E-03    3.74       8.6  T
   4    -31.0050527 -0.586473E-07  0.797E-04    3.74      30.4  T
   5    -31.0050527 -0.174269E-08  0.414E-04    3.74      58.6  T
   6    -31.0050527 -0.112344E-09  0.685E-05    3.74     354.3  T
   7    -31.0050527 -0.508038E-11  0.272E-05    3.74     890.5  T

   *** convergence criteria satisfied after 7 iterations ***

         #    Occupation            Energy/Eh            Energy/eV
      -------------------------------------------------------------
         1        2.0000           -0.7252873             -19.7361
       ...           ...                  ...                  ...
        20        2.0000           -0.4830629             -13.1448
        21        2.0000           -0.4644748             -12.6390
        22        2.0000           -0.4402660             -11.9802
        23        2.0000           -0.4235889             -11.5264
        24        2.0000           -0.4055483             -11.0355
        25        2.0000           -0.3907171             -10.6320
        26        2.0000           -0.3639604              -9.9039 (HOMO)
        27                         -0.2266044              -6.1662 (LUMO)
        28                         -0.1763499              -4.7987
        29                         -0.0472771              -1.2865
        30                          0.0193789               0.5273
        31                          0.0477959               1.3006
       ...                                ...                  ...
        44                          0.6483176              17.6416
      -------------------------------------------------------------
                  HL-Gap            0.1373560 Eh            3.7376 eV
             Fermi-level           -0.2952824 Eh           -8.0350 eV

 SCC (total)                   0 d,  0 h,  0 min,  0.007 sec
 SCC setup                      ...        0 min,  0.000 sec (  4.318%)
 Dispersion                     ...        0 min,  0.000 sec (  0.972%)
 classical contributions        ...        0 min,  0.000 sec (  0.245%)
 integral evaluation            ...        0 min,  0.001 sec ( 16.560%)
 iterations                     ...        0 min,  0.004 sec ( 53.253%)
 molecular gradient             ...        0 min,  0.002 sec ( 23.887%)
 printout                       ...        0 min,  0.000 sec (  0.647%)

         :::::::::::::::::::::::::::::::::::::::::::::::::::::
         ::                     SUMMARY                     ::
         :::::::::::::::::::::::::::::::::::::::::::::::::::::
         :: total energy             -30.713714042174 Eh    ::
         :: total w/o Gsasa/hb       -30.702863318092 Eh    ::
         :: gradient norm              0.000906598333 Eh/a0 ::
         :: HOMO-LUMO gap              3.737646696895 eV    ::
         ::.................................................::
         :: SCC energy               -31.005036160492 Eh    ::
         :: -> isotropic ES            0.275109460356 Eh    ::
         :: -> anisotropic ES         -0.020208147020 Eh    ::
         :: -> anisotropic XC          0.006595895869 Eh    ::
         :: -> dispersion             -0.011251199142 Eh    ::
         :: -> Gsolv                  -0.123682924130 Eh    ::
         ::    -> Gelec               -0.112832200049 Eh    ::
         ::    -> Gsasa                0.004265560109 Eh    ::
         ::    -> Ghb                 -0.016197043889 Eh    ::
         ::    -> Gshift               0.001080759698 Eh    ::
         :: repulsion energy           0.291322118318 Eh    ::
         :: add. restraining           0.000000000000 Eh    ::
         :: total charge              -0.000000000000 e     ::
         :::::::::::::::::::::::::::::::::::::::::::::::::::::


Property printout bound to 'properties.out'

           -------------------------------------------------
          | TOTAL ENERGY              -30.713714042174 Eh   |
          | GRADIENT NORM               0.000906598333 Eh/α |
          | HOMO-LUMO GAP               3.737646696895 eV   |
           -------------------------------------------------

------------------------------------------------------------------------
 * finished run on 2026/04/11 at 16:57:59.397     
------------------------------------------------------------------------
 total:
 * wall-time:     0 d,  0 h,  0 min,  0.013 sec
 *  cpu-time:     0 d,  0 h,  0 min,  0.011 sec
 * ratio c/w:     0.871 speedup
 SCF:
 * wall-time:     0 d,  0 h,  0 min,  0.008 sec
 *  cpu-time:     0 d,  0 h,  0 min,  0.006 sec
 * ratio c/w:     0.818 speedup


-------------------------   --------------------
FINAL SINGLE POINT ENERGY       -30.713714042170
-------------------------   --------------------


-------------
DIPOLE MOMENT
-------------
                                X             Y             Z
Total Dipole Moment    :      8.39900      -0.35900      -4.05600
                        -----------------------------------------
Magnitude (a.u.)       :      9.33398
Magnitude (Debye)      :     23.72510


------------------
CARTESIAN GRADIENT
------------------

   1   N   :   -0.000012427   -0.000100554   -0.000091543
   2   C   :    0.000144144    0.000158207   -0.000186472
   3   C   :   -0.000506034   -0.000098008   -0.000008935
   4   O   :    0.000205328    0.000002101    0.000123215
   5   N   :   -0.000117685    0.000182298   -0.000104054
   6   C   :    0.000280004   -0.000180850   -0.000255044
   7   C   :   -0.000108952   -0.000041424    0.000013193
   8   O   :   -0.000063743   -0.000007672    0.000086622
   9   O   :    0.000114960    0.000128682    0.000073724
  10   H   :   -0.000024851    0.000012746    0.000003299
  11   H   :   -0.000038209   -0.000058804    0.000051303
  12   H   :    0.000033341    0.000078908   -0.000058523
  13   H   :    0.000151340   -0.000115111    0.000078751
  14   H   :   -0.000029923    0.000004291    0.000115852
  15   H   :    0.000064821    0.000029636   -0.000020372
  16   H   :   -0.000041321    0.000043323    0.000093565
  17   H   :   -0.000050793   -0.000037769    0.000085422

Difference to translation invariance:
           :   -0.0000000000   -0.0000000000   -0.0000000000

Difference to rotation invariance:
           :    0.0002751707    0.0004486562    0.0000311429

Norm of the Cartesian gradient     ...    0.0009065983
RMS gradient                       ...    0.0001269492
MAX gradient                       ...    0.0005060340
------------------------------------------------------------------------------
                         ORCA GEOMETRY RELAXATION STEP
------------------------------------------------------------------------------

Reading the OPT-File                    .... done
Getting information on internals        .... done
Copying old internal coords+grads       .... done
Making the new internal coordinates     .... (2022 redundants) done
Validating the new internal coordinates .... (2022 redundants) done
Calculating the B-matrix                .... done
Calculating the G,G- and P matrices     .... done
Transforming gradient to internals      .... done
Projecting the internal gradient        .... done
Number of atoms                         ....  17
Number of internal coordinates          ....  69
Current Energy                          ....   -30.713714042 Eh
Current gradient norm                   ....     0.000906598 Eh/bohr
Maximum allowed component of the step   ....  0.300
Current trust radius                    ....  0.700
Updating the Hessian (BFGS)             .... done
Forming the augmented Hessian           .... done
Diagonalizing the augmented Hessian     .... done
Last element of RFO vector              ....  0.997049997
Lowest eigenvalues of augmented Hessian:
 -0.000006980  0.000782666  0.002744283  0.009998765  0.014548360
Length of the computed step             ....  0.076981927
The final length of the internal step   ....  0.076981927
Converting the step to Cartesian space:
 Initial RMS(Int)=    0.0092675349
Transforming coordinates:
 Iter   0:  RMS(Cart)=    0.0182279961 RMS(Int)=    0.0092620337
done
Storing new coordinates                 .... done
The predicted energy change is          ....    -0.000003510
Previously predicted energy change      ....    -0.000002971
Actually observed energy change         ....    -0.000004563
Ratio of predicted to observed change   ....     1.535966121
New trust radius                        ....     0.466666667

                                .--------------------.
          ----------------------|Geometry convergence|-------------------------
          Item                value                   Tolerance       Converged
          ---------------------------------------------------------------------
          Energy change      -0.0000045627            0.0000050000      YES
          RMS gradient        0.0000850409            0.0001000000      YES
          MAX gradient        0.0002522313            0.0003000000      YES
          RMS step            0.0092675349            0.0020000000      NO
          MAX step            0.0300483150            0.0040000000      NO
          -------------------------------------------------------------------------
          ........................................................
          Max(Bonds)      0.0007      Max(Angles)    0.20
          Max(Dihed)        1.72      Max(Improp)    0.00
          ---------------------------------------------------------------------

The optimization has not yet converged - more geometry cycles are needed


    ---------------------------------------------------------------------------
                         Redundant Internal Coordinates
                            (Angstroem and degrees)

        Definition                    Value    dE/dq     Step     New-Value
    ----------------------------------------------------------------------------
     1. B(C   1,N   0)                1.4739 -0.000048  0.0001    1.4739   
     2. B(C   2,C   1)                1.5391  0.000206 -0.0004    1.5386   
     3. B(O   3,C   2)                1.2304  0.000159  0.0001    1.2306   
     4. B(N   4,C   2)                1.3334 -0.000043 -0.0002    1.3331   
     5. B(C   5,N   4)                1.4411 -0.000048 -0.0001    1.4410   
     6. B(C   6,C   5)                1.5787  0.000172 -0.0005    1.5782   
     7. B(O   7,C   6)                1.2415  0.000095  0.0001    1.2416   
     8. B(O   8,C   6)                1.2435  0.000176  0.0000    1.2435   
     9. B(H   9,N   0)                1.0233  0.000008 -0.0001    1.0233   
    10. B(H  10,N   0)                1.0545  0.000069  0.0001    1.0546   
    11. B(H  10,O   3)                1.8088 -0.000034 -0.0007    1.8081   
    12. B(H  11,N   0)                1.0236  0.000011  0.0001    1.0236   
    13. B(H  12,C   1)                1.0887 -0.000007 -0.0001    1.0886   
    14. B(H  13,C   1)                1.0895 -0.000000  0.0002    1.0897   
    15. B(H  14,N   4)                1.0109  0.000020  0.0000    1.0109   
    16. B(H  15,C   5)                1.0913  0.000017 -0.0001    1.0913   
    17. B(H  16,C   5)                1.0877 -0.000003  0.0001    1.0878   
    18. A(H  10,N   0,H  11)          109.44  0.000030   -0.19    109.24   
    19. A(H   9,N   0,H  11)          109.91 -0.000004   -0.00    109.91   
    20. A(C   1,N   0,H  10)          102.62  0.000040   -0.05    102.57   
    21. A(H   9,N   0,H  10)          108.58 -0.000000    0.20    108.78   
    22. A(C   1,N   0,H   9)          112.78 -0.000053    0.12    112.90   
    23. A(C   1,N   0,H  11)          113.16 -0.000006   -0.07    113.09   
    24. A(N   0,C   1,H  13)          111.72 -0.000016   -0.03    111.69   
    25. A(C   2,C   1,H  12)          109.65  0.000056    0.10    109.76   
    26. A(H  12,C   1,H  13)          109.53  0.000129   -0.07    109.46   
    27. A(C   2,C   1,H  13)          107.58 -0.000101   -0.10    107.48   
    28. A(N   0,C   1,C   2)          106.32  0.000085    0.01    106.33   
    29. A(N   0,C   1,H  12)          111.89 -0.000152    0.09    111.98   
    30. A(C   1,C   2,N   4)          116.22  0.000101    0.04    116.26   
    31. A(C   1,C   2,O   3)          117.79 -0.000225    0.01    117.79   
    32. A(O   3,C   2,N   4)          125.78  0.000123   -0.03    125.75   
    33. A(C   5,N   4,H  14)          114.55  0.000191    0.01    114.56   
    34. A(C   2,N   4,C   5)          119.12 -0.000252    0.16    119.27   
    35. A(C   2,N   4,H  14)          117.02  0.000049    0.01    117.04   
    36. A(C   6,C   5,H  16)          109.53 -0.000050   -0.05    109.48   
    37. A(N   4,C   5,H  16)          111.22  0.000093   -0.06    111.16   
    38. A(C   6,C   5,H  15)          106.72 -0.000126    0.00    106.72   
    39. A(N   4,C   5,C   6)          109.71  0.000079    0.09    109.80   
    40. A(N   4,C   5,H  15)          109.84  0.000037    0.03    109.86   
    41. A(H  15,C   5,H  16)          109.71 -0.000041    0.00    109.72   
    42. A(C   5,C   6,O   7)          116.15  0.000003   -0.01    116.14   
    43. A(O   7,C   6,O   8)          128.22 -0.000045   -0.02    128.20   
    44. A(C   5,C   6,O   8)          115.63  0.000041    0.03    115.66   
    45. D(H  12,C   1,N   0,H   9)    123.17 -0.000001   -1.69    121.48   
    46. D(H  12,C   1,N   0,H  11)     -2.39  0.000054   -1.72     -4.11   
    47. D(C   2,C   1,N   0,H  10)     -0.52  0.000033   -1.24     -1.76   
    48. D(H  12,C   1,N   0,H  10)   -120.20 -0.000003   -1.42   -121.63   
    49. D(C   2,C   1,N   0,H  11)    117.30  0.000089   -1.54    115.77   
    50. D(C   2,C   1,N   0,H   9)   -117.15  0.000034   -1.50   -118.65   
    51. D(O   3,C   2,C   1,N   0)      0.75  0.000017    0.82      1.57   
    52. D(N   4,C   2,C   1,N   0)   -174.20  0.000019    0.67   -173.54   
    53. D(O   3,C   2,C   1,H  13)   -119.06  0.000043    0.90   -118.17   
    54. D(N   4,C   2,C   1,H  12)    -53.07 -0.000082    0.84    -52.23   
    55. D(O   3,C   2,C   1,H  12)    121.89 -0.000084    0.99    122.87   
    56. D(H  14,N   4,C   2,C   1)    -14.98 -0.000020    0.08    -14.90   
    57. D(C   5,N   4,C   2,O   3)     25.65 -0.000047   -0.33     25.32   
    58. D(H  14,N   4,C   2,O   3)    170.52  0.000002   -0.08    170.44   
    59. D(C   5,N   4,C   2,C   1)   -159.85 -0.000069   -0.16   -160.01   
    60. D(H  16,C   5,N   4,C   2)   -168.91  0.000027    0.58   -168.33   
    61. D(H  15,C   5,N   4,H  14)    167.04  0.000057    0.33    167.37   
    62. D(H  15,C   5,N   4,C   2)    -47.26  0.000062    0.56    -46.70   
    63. D(C   6,C   5,N   4,H  14)    -75.95 -0.000028    0.40    -75.55   
    64. D(C   6,C   5,N   4,C   2)     69.75 -0.000023    0.62     70.37   
    65. D(O   8,C   6,C   5,H  15)    109.95 -0.000034    0.24    110.19   
    66. D(O   8,C   6,C   5,N   4)     -9.00 -0.000048    0.17     -8.83   
    67. D(O   7,C   6,C   5,H  16)     48.90 -0.000075    0.24     49.15   
    68. D(O   7,C   6,C   5,H  15)    -69.80  0.000072    0.27    -69.53   
    69. D(O   7,C   6,C   5,N   4)    171.26  0.000058    0.19    171.45   
    ----------------------------------------------------------------------------

Geometry step timings:
Preparation and reading OPT file:      0.000 s ( 1.142 %)
Internal coordinates            :      0.000 s ( 0.913 %)
B/P matrices and projection     :      0.000 s (35.731 %)
Hessian update/contruction      :      0.000 s (13.014 %)
Making the step                 :      0.000 s (29.224 %)
Converting the step to Cartesian:      0.000 s ( 3.196 %)
Storing new data                :      0.000 s ( 1.712 %)
Checking convergence            :      0.000 s ( 1.484 %)
Final printing                  :      0.000 s (13.470 %)
Total time                      :      0.001 s

Time for energy+gradient        :      0.017 s
Time for complete geometry iter :      0.018 s

         *************************************************************
         *                GEOMETRY OPTIMIZATION CYCLE  18            *
         *************************************************************
---------------------------------
CARTESIAN COORDINATES (ANGSTROEM)
---------------------------------
  N     2.628264    0.321363    0.038184
  C     1.407033    0.443145   -0.777995
  C     0.314784   -0.353490   -0.043376
  O     0.613190   -0.884762    1.025737
  N    -0.847940   -0.487013   -0.681706
  C    -2.030878   -0.818853    0.071326
  C    -2.461220    0.411832    0.960619
  O    -3.558529    0.315546    1.533563
  O    -1.652158    1.355265    1.002166
  H     2.969733    1.223007    0.380945
  H     2.298771   -0.251657    0.859966
  H     3.382844   -0.177984   -0.440381
  H     1.544877    0.040832   -1.780103
  H     1.068933    1.476857   -0.845118
  H    -1.010401    0.121722   -1.472288
  H    -1.816051   -1.641001    0.756010
  H    -2.851250   -1.094809   -0.587548

----------------------------
CARTESIAN COORDINATES (A.U.)
----------------------------
  NO LB    ZA    FRAG    MASS        X           Y           Z
   0 N   7.0000    0    14.007    4.966699    0.607288    0.072158
   1 C   6.0000    0    12.011    2.658906    0.837423   -1.470198
   2 C   6.0000    0    12.011    0.594855   -0.667999   -0.081969
   3 O   8.0000    0    15.999    1.158761   -1.671958    1.938361
   4 N   7.0000    0    14.007   -1.602374   -0.920322   -1.288238
   5 C   6.0000    0    12.011   -3.837804   -1.547408    0.134786
   6 C   6.0000    0    12.011   -4.651033    0.778249    1.815307
   7 O   8.0000    0    15.999   -6.724645    0.596296    2.898014
   8 O   8.0000    0    15.999   -3.122127    2.561080    1.893819
   9 H   1.0000    0     1.008    5.611982    2.311148    0.719881
  10 H   1.0000    0     1.008    4.344048   -0.475563    1.625101
  11 H   1.0000    0     1.008    6.392648   -0.336340   -0.832200
  12 H   1.0000    0     1.008    2.919395    0.077162   -3.363906
  13 H   1.0000    0     1.008    2.019990    2.790855   -1.597042
  14 H   1.0000    0     1.008   -1.909381    0.230021   -2.782220
  15 H   1.0000    0     1.008   -3.431840   -3.101043    1.428651
  16 H   1.0000    0     1.008   -5.388082   -2.068890   -1.110305

      -----------------------------------------------------------      
     |                   =====================                   |     
     |                           x T B                           |     
     |                   =====================                   |     
     |                         S. Grimme                         |     
     |          Mulliken Center for Theoretical Chemistry        |     
     |                    University of Bonn                     |     
      -----------------------------------------------------------      

   * xtb version 6.7.1 (edcfbbe) compiled by 'albert@albert-system' on 2024-07-22

   xtb is free software: you can redistribute it and/or modify it under
   the terms of the GNU Lesser General Public License as published by
   the Free Software Foundation, either version 3 of the License, or
   (at your option) any later version.
   
   xtb is distributed in the hope that it will be useful,
   but WITHOUT ANY WARRANTY; without even the implied warranty of
   MERCHANTABILITY or FITNESS FOR A PARTICULAR PURPOSE.  See the
   GNU Lesser General Public License for more details.
   
   Cite this work as:
   * C. Bannwarth, E. Caldeweyher, S. Ehlert, A. Hansen, P. Pracht,
     J. Seibert, S. Spicher, S. Grimme, WIREs Comput. Mol. Sci., 2020, 11,
     e01493. DOI: 10.1002/wcms.1493
   
   for GFN2-xTB:
   * C. Bannwarth, S. Ehlert and S. Grimme., J. Chem. Theory Comput., 2019,
     15, 1652-1671. DOI: 10.1021/acs.jctc.8b01176
   for GFN1-xTB:
   * S. Grimme, C. Bannwarth, P. Shushkov, J. Chem. Theory Comput., 2017,
     13, 1989-2009. DOI: 10.1021/acs.jctc.7b00118
   for GFN0-xTB:
   * P. Pracht, E. Caldeweyher, S. Ehlert, S. Grimme, ChemRxiv, 2019, preprint.
     DOI: 10.26434/chemrxiv.8326202.v1
   for GFN-FF:
   * S. Spicher and S. Grimme, Angew. Chem. Int. Ed., 2020, 59, 15665-15673.
     DOI: 10.1002/anie.202004239
   
   for ALPB and GBSA implicit solvation:
   * S. Ehlert, M. Stahn, S. Spicher, S. Grimme, J. Chem. Theory Comput.,
     2021, 17, 4250-4261. DOI: 10.1021/acs.jctc.1c00471
   
   for ddCOSMO and CPCM-X implicit solvation:
   * M. Stahn, S. Ehlert, S. Grimme, J. Phys. Chem. A,
     2023, XX, XXXX-XXXX. DOI: 10.1021/acs.jpca.3c04382
   
   for DFT-D4:
   * E. Caldeweyher, C. Bannwarth and S. Grimme, J. Chem. Phys., 2017,
     147, 034112. DOI: 10.1063/1.4993215
   * E. Caldeweyher, S. Ehlert, A. Hansen, H. Neugebauer, S. Spicher,
     C. Bannwarth and S. Grimme, J. Chem. Phys., 2019, 150, 154122.
     DOI: 10.1063/1.5090222
   * E. Caldeweyher, J.-M. Mewes, S. Ehlert and S. Grimme, Phys. Chem. Chem. Phys.
     2020, 22, 8499-8512. DOI: 10.1039/D0CP00502A
   
   for sTDA-xTB:
   * S. Grimme and C. Bannwarth, J. Chem. Phys., 2016, 145, 054103.
     DOI: 10.1063/1.4959605
   
   in the mass-spec context:
   * V. Asgeirsson, C. Bauer and S. Grimme, Chem. Sci., 2017, 8, 4879.
     DOI: 10.1039/c7sc00601b
   * J. Koopman and S. Grimme, ACS Omega 2019, 4, 12, 15120-15133.
     DOI: 10.1021/acsomega.9b02011
   
   for metadynamics refer to:
   * S. Grimme, J. Chem. Theory Comput., 2019, 155, 2847-2862
     DOI: 10.1021/acs.jctc.9b00143
   
   for SPH calculations refer to:
   * S. Spicher and S. Grimme, J. Chem. Theory Comput., 2021, 17, 1701-1714
     DOI: 10.1021/acs.jctc.0c01306
   
   for ONIOM refer to:
   * C. Plett, A. Katbashev, S. Ehlert, S. Grimme, M. Bursch,
     Phys. Chem. Chem. Phys., 2023, 25, 17860-17868. DOI: 10.1039/D3CP02178E
   
   for DIPRO refer to:
   * J. Kohn, N. Gildemeister, S. Grimme, D. Fazzi, A. Hansen,
     J. Chem. Phys., 2023, just accepted.
   
   for PTB refer to:
   * S. Grimme, M. Mueller, A. Hansen, J. Chem. Phys., 2023, 158, 124111.
     DOI: 10.1063/5.0137838
   
   with help from (in alphabetical order)
   P. Atkinson, C. Bannwarth, F. Bohle, G. Brandenburg, E. Caldeweyher
   M. Checinski, S. Dohm, S. Ehlert, S. Ehrlich, I. Gerasimov, C. Hölzer
   A. Katbashev, J. Kohn, J. Koopman, C. Lavigne, S. Lehtola, F. März, M. Müller,
   F. Musil, H. Neugebauer, J. Pisarek, C. Plett, P. Pracht, F. Pultar,
   J. Seibert, P. Shushkov, S. Spicher, M. Stahn, M. Steiner, T. Strunk,
   J. Stückrath, T. Rose, and J. Unsleber
   
 * started run on 2026/04/11 at 16:57:59.402     
   ID    Z sym.   atoms
    1    7 N      1, 5
    2    6 C      2, 3, 6, 7
    3    8 O      4, 8, 9
    4    1 H      10-17

           -------------------------------------------------
          |                Calculation Setup                |
           -------------------------------------------------

          program call               : /home/analima/Programs/orca-6.1.0-f.0_linux_x86-64/bin/otool_xtb geo_opt_XTB.xyz --grad -c 0 -u 0 -P 1 --namespace geo_opt --input geo_opt_XTB.input.tmp --alpb WATER --acc 0.200000
          calculation namespace      : geo_opt
          coordinate file            : geo_opt_XTB.xyz
          omp threads                :                     1


           -------------------------------------------------
          |                 G F N 2 - x T B                 |
           -------------------------------------------------

        Reference                      10.1021/acs.jctc.8b01176
      * Hamiltonian:
        H0-scaling (s, p, d)           1.850000    2.230000    2.230000
        zeta-weighting                 0.500000
      * Dispersion:
        s8                             2.700000
        a1                             0.520000
        a2                             5.000000
        s9                             5.000000
      * Repulsion:
        kExp                           1.500000    1.000000
        rExp                           1.000000
      * Coulomb:
        alpha                          2.000000
        third order                    shell-resolved
        anisotropic                    true
        a3                             3.000000
        a5                             4.000000
        cn-shift                       1.200000
        cn-exp                         4.000000
        max-rad                        5.000000

      * Solvation model:               ALPB
        Solvent                        WATER
        Parameter file                 internal GFN2-xTB/ALPB
        Dielectric constant                8.0200E+01
        Reference state                gsolv [1 M gas/solution]
        Free energy shift                  1.0808E-03 Eh       6.7819E-01 kcal/mol
        Temperature                        2.9815E+02 K
        Density                            1.0000E+00 kg/L
        Solvent mass                       1.8000E+01 g/mol
        Interaction kernel             P16
        Born radius scaling (c1)           1.4744E+00
        Born radii integrator          GBOBC
        Born offset                        0.0000E+00 a0       0.0000E+00 AA
        H-bond correction              true
        Ion screening                  false
        Surface tension                    1.0000E-05 Eh       1.5569E+01 dyn/cm
        Grid points                               230 per atom
q/qsh data taken from xtbrestart
CAMM data taken from xtbrestart

          ...................................................
          :                      SETUP                      :
          :.................................................:
          :  # basis functions                  44          :
          :  # atomic orbitals                  44          :
          :  # shells                           26          :
          :  # electrons                        52          :
          :  max. iterations                   250          :
          :  Hamiltonian                  GFN2-xTB          :
          :  restarted?                       true          :
          :  GBSA solvation                   true          :
          :  PC potential                    false          :
          :  electronic temp.          300.0000000     K    :
          :  accuracy                    0.2000000          :
          :  -> integral cutoff          0.3198970E+02      :
          :  -> integral neglect         0.2000000E-08      :
          :  -> SCF convergence          0.2000000E-06 Eh   :
          :  -> wf. convergence          0.2000000E-04 e    :
          :  Broyden damping             0.4000000          :
          :  net charge                          0          :
          :  unpaired electrons                  0          :
          ...................................................

 iter      E             dE          RMSdq      gap      omega  full diag
   1    -31.0050885 -0.310051E+02  0.426E-02    3.73       0.0  T
   2    -31.0050889 -0.394083E-06  0.246E-02    3.74       1.0  T
   3    -31.0050889 -0.173783E-07  0.296E-03    3.73       8.2  T
   4    -31.0050890 -0.679851E-07  0.104E-03    3.73      23.3  T
   5    -31.0050890 -0.226581E-08  0.520E-04    3.73      46.7  T
   6    -31.0050890 -0.226631E-09  0.835E-05    3.73     290.6  T
   7    -31.0050890 -0.619238E-11  0.280E-05    3.73     866.8  T

   *** convergence criteria satisfied after 7 iterations ***

         #    Occupation            Energy/Eh            Energy/eV
      -------------------------------------------------------------
         1        2.0000           -0.7254573             -19.7407
       ...           ...                  ...                  ...
        20        2.0000           -0.4831415             -13.1470
        21        2.0000           -0.4644105             -12.6373
        22        2.0000           -0.4403452             -11.9824
        23        2.0000           -0.4237334             -11.5304
        24        2.0000           -0.4054490             -11.0328
        25        2.0000           -0.3906033             -10.6289
        26        2.0000           -0.3639282              -9.9030 (HOMO)
        27                         -0.2267299              -6.1696 (LUMO)
        28                         -0.1763102              -4.7976
        29                         -0.0474630              -1.2915
        30                          0.0192308               0.5233
        31                          0.0478709               1.3026
       ...                                ...                  ...
        44                          0.6480265              17.6337
      -------------------------------------------------------------
                  HL-Gap            0.1371983 Eh            3.7334 eV
             Fermi-level           -0.2953291 Eh           -8.0363 eV

 SCC (total)                   0 d,  0 h,  0 min,  0.009 sec
 SCC setup                      ...        0 min,  0.000 sec (  3.616%)
 Dispersion                     ...        0 min,  0.000 sec (  0.815%)
 classical contributions        ...        0 min,  0.000 sec (  0.200%)
 integral evaluation            ...        0 min,  0.001 sec ( 14.207%)
 iterations                     ...        0 min,  0.004 sec ( 47.358%)
 molecular gradient             ...        0 min,  0.003 sec ( 32.981%)
 printout                       ...        0 min,  0.000 sec (  0.682%)

         :::::::::::::::::::::::::::::::::::::::::::::::::::::
         ::                     SUMMARY                     ::
         :::::::::::::::::::::::::::::::::::::::::::::::::::::
         :: total energy             -30.713718293508 Eh    ::
         :: total w/o Gsasa/hb       -30.702871708647 Eh    ::
         :: gradient norm              0.000812504416 Eh/a0 ::
         :: HOMO-LUMO gap              3.733354566277 eV    ::
         ::.................................................::
         :: SCC energy               -31.005072867944 Eh    ::
         :: -> isotropic ES            0.275554266872 Eh    ::
         :: -> anisotropic ES         -0.020181983685 Eh    ::
         :: -> anisotropic XC          0.006589773019 Eh    ::
         :: -> dispersion             -0.011235872812 Eh    ::
         :: -> Gsolv                  -0.124012195724 Eh    ::
         ::    -> Gelec               -0.113165610863 Eh    ::
         ::    -> Gsasa                0.004281021383 Eh    ::
         ::    -> Ghb                 -0.016208365942 Eh    ::
         ::    -> Gshift               0.001080759698 Eh    ::
         :: repulsion energy           0.291354574435 Eh    ::
         :: add. restraining           0.000000000000 Eh    ::
         :: total charge               0.000000000000 e     ::
         :::::::::::::::::::::::::::::::::::::::::::::::::::::


Property printout bound to 'properties.out'

           -------------------------------------------------
          | TOTAL ENERGY              -30.713718293508 Eh   |
          | GRADIENT NORM               0.000812504416 Eh/α |
          | HOMO-LUMO GAP               3.733354566277 eV   |
           -------------------------------------------------

------------------------------------------------------------------------
 * finished run on 2026/04/11 at 16:57:59.418     
------------------------------------------------------------------------
 total:
 * wall-time:     0 d,  0 h,  0 min,  0.015 sec
 *  cpu-time:     0 d,  0 h,  0 min,  0.014 sec
 * ratio c/w:     0.902 speedup
 SCF:
 * wall-time:     0 d,  0 h,  0 min,  0.009 sec
 *  cpu-time:     0 d,  0 h,  0 min,  0.008 sec
 * ratio c/w:     0.850 speedup


-------------------------   --------------------
FINAL SINGLE POINT ENERGY       -30.713718293510
-------------------------   --------------------


-------------
DIPOLE MOMENT
-------------
                                X             Y             Z
Total Dipole Moment    :      8.44700      -0.37400      -4.05400
                        -----------------------------------------
Magnitude (a.u.)       :      9.37692
Magnitude (Debye)      :     23.83423


------------------
CARTESIAN GRADIENT
------------------

   1   N   :    0.000095076    0.000056737   -0.000033842
   2   C   :    0.000092743    0.000024408   -0.000050429
   3   C   :   -0.000296796    0.000048454   -0.000244446
   4   O   :    0.000168792   -0.000034116    0.000130325
   5   N   :   -0.000237271    0.000084453   -0.000007450
   6   C   :    0.000369124   -0.000130328   -0.000133740
   7   C   :   -0.000081060   -0.000153175   -0.000129584
   8   O   :   -0.000101682   -0.000009063    0.000135198
   9   O   :    0.000094775    0.000147491    0.000087962
  10   H   :    0.000001718   -0.000014806   -0.000039268
  11   H   :   -0.000094667   -0.000114617    0.000029261
  12   H   :   -0.000018043    0.000058243   -0.000015159
  13   H   :    0.000074198   -0.000063077    0.000050321
  14   H   :   -0.000034213   -0.000010866    0.000061389
  15   H   :    0.000105884    0.000035516    0.000000473
  16   H   :   -0.000093784    0.000074613    0.000113853
  17   H   :   -0.000044793    0.000000133    0.000045137

Difference to translation invariance:
           :   -0.0000000000   -0.0000000000   -0.0000000000

Difference to rotation invariance:
           :    0.0001922417    0.0005102372    0.0000835587

Norm of the Cartesian gradient     ...    0.0008125044
RMS gradient                       ...    0.0001137734
MAX gradient                       ...    0.0003691243
------------------------------------------------------------------------------
                         ORCA GEOMETRY RELAXATION STEP
------------------------------------------------------------------------------

Reading the OPT-File                    .... done
Getting information on internals        .... done
Copying old internal coords+grads       .... done
Making the new internal coordinates     .... (2022 redundants) done
Validating the new internal coordinates .... (2022 redundants) done
Calculating the B-matrix                .... done
Calculating the G,G- and P matrices     .... done
Transforming gradient to internals      .... done
Projecting the internal gradient        .... done
Number of atoms                         ....  17
Number of internal coordinates          ....  69
Current Energy                          ....   -30.713718294 Eh
Current gradient norm                   ....     0.000812504 Eh/bohr
Maximum allowed component of the step   ....  0.300
Current trust radius                    ....  0.467
Updating the Hessian (BFGS)             .... done
Forming the augmented Hessian           .... done
Diagonalizing the augmented Hessian     .... done
Last element of RFO vector              ....  0.999556533
Lowest eigenvalues of augmented Hessian:
 -0.000002731  0.000736835  0.002752195  0.009923971  0.014320074
Length of the computed step             ....  0.029791334
The final length of the internal step   ....  0.029791334
Converting the step to Cartesian space:
 Initial RMS(Int)=    0.0035864552
Transforming coordinates:
 Iter   0:  RMS(Cart)=    0.0063018237 RMS(Int)=    0.0035853958
done
Storing new coordinates                 .... done
The predicted energy change is          ....    -0.000001367
Previously predicted energy change      ....    -0.000003510
Actually observed energy change         ....    -0.000004251
Ratio of predicted to observed change   ....     1.211048329
New trust radius                        ....     0.700000000

                                .--------------------.
          ----------------------|Geometry convergence|-------------------------
          Item                value                   Tolerance       Converged
          ---------------------------------------------------------------------
          Energy change      -0.0000042513            0.0000050000      YES
          RMS gradient        0.0000751245            0.0001000000      YES
          MAX gradient        0.0001928398            0.0003000000      YES
          RMS step            0.0035864552            0.0020000000      NO
          MAX step            0.0115164833            0.0040000000      NO
          -------------------------------------------------------------------------
          ........................................................
          Max(Bonds)      0.0010      Max(Angles)    0.07
          Max(Dihed)        0.66      Max(Improp)    0.00
          ---------------------------------------------------------------------

The optimization has not yet converged - more geometry cycles are needed


    ---------------------------------------------------------------------------
                         Redundant Internal Coordinates
                            (Angstroem and degrees)

        Definition                    Value    dE/dq     Step     New-Value
    ----------------------------------------------------------------------------
     1. B(C   1,N   0)                1.4739  0.000013  0.0000    1.4739   
     2. B(C   2,C   1)                1.5386  0.000085 -0.0003    1.5383   
     3. B(O   3,C   2)                1.2306  0.000172 -0.0001    1.2305   
     4. B(N   4,C   2)                1.3331 -0.000042  0.0000    1.3332   
     5. B(C   5,N   4)                1.4410 -0.000054  0.0001    1.4411   
     6. B(C   6,C   5)                1.5782  0.000061 -0.0002    1.5779   
     7. B(O   7,C   6)                1.2416  0.000151 -0.0000    1.2416   
     8. B(O   8,C   6)                1.2435  0.000178 -0.0001    1.2435   
     9. B(H   9,N   0)                1.0233 -0.000023 -0.0000    1.0233   
    10. B(H  10,N   0)                1.0546  0.000087 -0.0001    1.0545   
    11. B(H  10,O   3)                1.8082 -0.000060  0.0010    1.8092   
    12. B(H  11,N   0)                1.0236 -0.000038  0.0001    1.0237   
    13. B(H  12,C   1)                1.0886 -0.000014 -0.0000    1.0886   
    14. B(H  13,C   1)                1.0897 -0.000008  0.0001    1.0897   
    15. B(H  14,N   4)                1.0109  0.000002  0.0000    1.0109   
    16. B(H  15,C   5)                1.0913 -0.000005 -0.0000    1.0913   
    17. B(H  16,C   5)                1.0878  0.000008  0.0000    1.0878   
    18. A(H  10,N   0,H  11)          109.24  0.000014   -0.07    109.17   
    19. A(H   9,N   0,H  11)          109.90 -0.000011    0.00    109.91   
    20. A(C   1,N   0,H  10)          102.56 -0.000026   -0.01    102.56   
    21. A(H   9,N   0,H  10)          108.78  0.000046    0.05    108.84   
    22. A(C   1,N   0,H   9)          112.90 -0.000008    0.04    112.95   
    23. A(C   1,N   0,H  11)          113.09 -0.000011   -0.02    113.07   
    24. A(N   0,C   1,H  13)          111.69 -0.000005   -0.01    111.68   
    25. A(C   2,C   1,H  12)          109.76  0.000012    0.02    109.78   
    26. A(H  12,C   1,H  13)          109.46  0.000073   -0.06    109.41   
    27. A(C   2,C   1,H  13)          107.48 -0.000086   -0.02    107.46   
    28. A(N   0,C   1,C   2)          106.32  0.000095    0.01    106.33   
    29. A(N   0,C   1,H  12)          111.98 -0.000090    0.05    112.04   
    30. A(C   1,C   2,N   4)          116.26  0.000172   -0.01    116.25   
    31. A(C   1,C   2,O   3)          117.79 -0.000172    0.03    117.82   
    32. A(O   3,C   2,N   4)          125.75 -0.000000   -0.02    125.73   
    33. A(C   5,N   4,H  14)          114.55  0.000159   -0.04    114.50   
    34. A(C   2,N   4,C   5)          119.26 -0.000110    0.06    119.33   
    35. A(C   2,N   4,H  14)          117.02 -0.000039   -0.01    117.01   
    36. A(C   6,C   5,H  16)          109.48 -0.000099    0.00    109.48   
    37. A(N   4,C   5,H  16)          111.16  0.000017   -0.04    111.12   
    38. A(C   6,C   5,H  15)          106.72 -0.000175    0.05    106.76   
    39. A(N   4,C   5,C   6)          109.80  0.000193    0.00    109.80   
    40. A(N   4,C   5,H  15)          109.86  0.000068   -0.01    109.85   
    41. A(H  15,C   5,H  16)          109.72 -0.000012    0.01    109.72   
    42. A(C   5,C   6,O   7)          116.14  0.000000   -0.00    116.14   
    43. A(O   7,C   6,O   8)          128.20 -0.000078   -0.00    128.20   
    44. A(C   5,C   6,O   8)          115.66  0.000077    0.00    115.66   
    45. D(H  12,C   1,N   0,H   9)    121.48 -0.000013   -0.64    120.84   
    46. D(H  12,C   1,N   0,H  11)     -4.11  0.000017   -0.66     -4.77   
    47. D(C   2,C   1,N   0,H  10)     -1.76  0.000046   -0.49     -2.25   
    48. D(H  12,C   1,N   0,H  10)   -121.63  0.000022   -0.56   -122.19   
    49. D(C   2,C   1,N   0,H  11)    115.77  0.000041   -0.59    115.17   
    50. D(C   2,C   1,N   0,H   9)   -118.65  0.000011   -0.57   -119.22   
    51. D(O   3,C   2,C   1,N   0)      1.57 -0.000000    0.36      1.92   
    52. D(N   4,C   2,C   1,N   0)   -173.54  0.000003    0.32   -173.22   
    53. D(O   3,C   2,C   1,H  13)   -118.17  0.000000    0.38   -117.79   
    54. D(N   4,C   2,C   1,H  12)    -52.23 -0.000041    0.41    -51.82   
    55. D(O   3,C   2,C   1,H  12)    122.87 -0.000044    0.44    123.31   
    56. D(H  14,N   4,C   2,C   1)    -14.90  0.000007    0.04    -14.86   
    57. D(C   5,N   4,C   2,O   3)     25.32 -0.000055    0.06     25.38   
    58. D(H  14,N   4,C   2,O   3)    170.44  0.000018   -0.00    170.43   
    59. D(C   5,N   4,C   2,C   1)   -160.01 -0.000066    0.10   -159.91   
    60. D(H  16,C   5,N   4,C   2)   -168.33  0.000028    0.06   -168.27   
    61. D(H  15,C   5,N   4,H  14)    167.37  0.000062    0.09    167.46   
    62. D(H  15,C   5,N   4,C   2)    -46.70  0.000070    0.03    -46.67   
    63. D(C   6,C   5,N   4,H  14)    -75.56  0.000003    0.14    -75.42   
    64. D(C   6,C   5,N   4,C   2)     70.38  0.000011    0.07     70.45   
    65. D(O   8,C   6,C   5,H  15)    110.19  0.000003    0.04    110.23   
    66. D(O   8,C   6,C   5,N   4)     -8.83 -0.000081    0.03     -8.80   
    67. D(O   7,C   6,C   5,H  16)     49.15 -0.000049    0.05     49.20   
    68. D(O   7,C   6,C   5,H  15)    -69.53  0.000118    0.01    -69.52   
    69. D(O   7,C   6,C   5,N   4)    171.45  0.000033    0.01    171.45   
    ----------------------------------------------------------------------------

Geometry step timings:
Preparation and reading OPT file:      0.000 s ( 1.059 %)
Internal coordinates            :      0.000 s ( 1.176 %)
B/P matrices and projection     :      0.000 s (36.706 %)
Hessian update/contruction      :      0.000 s (13.059 %)
Making the step                 :      0.000 s (27.882 %)
Converting the step to Cartesian:      0.000 s ( 2.824 %)
Storing new data                :      0.000 s ( 1.294 %)
Checking convergence            :      0.000 s ( 1.412 %)
Final printing                  :      0.000 s (14.471 %)
Total time                      :      0.001 s

Time for energy+gradient        :      0.019 s
Time for complete geometry iter :      0.021 s

         *************************************************************
         *                GEOMETRY OPTIMIZATION CYCLE  19            *
         *************************************************************
---------------------------------
CARTESIAN COORDINATES (ANGSTROEM)
---------------------------------
  N     2.629928    0.319644    0.036376
  C     1.406285    0.445952   -0.775552
  C     0.315680   -0.352704   -0.041319
  O     0.614194   -0.883477    1.027942
  N    -0.846755   -0.487971   -0.679902
  C    -2.030412   -0.819993    0.072078
  C    -2.463833    0.411725    0.958002
  O    -3.561803    0.314960    1.529558
  O    -1.656571    1.356678    0.998299
  H     2.979038    1.220088    0.374564
  H     2.300294   -0.249156    0.860889
  H     3.379129   -0.186779   -0.443376
  H     1.540092    0.049145   -1.780394
  H     1.068732    1.480288   -0.836702
  H    -1.009537    0.120579   -1.470575
  H    -1.815364   -1.640909    0.758139
  H    -2.849096   -1.098071   -0.588029

----------------------------
CARTESIAN COORDINATES (A.U.)
----------------------------
  NO LB    ZA    FRAG    MASS        X           Y           Z
   0 N   7.0000    0    14.007    4.969843    0.604040    0.068741
   1 C   6.0000    0    12.011    2.657494    0.842728   -1.465581
   2 C   6.0000    0    12.011    0.596548   -0.666515   -0.078082
   3 O   8.0000    0    15.999    1.160658   -1.669529    1.942528
   4 N   7.0000    0    14.007   -1.600135   -0.922132   -1.284828
   5 C   6.0000    0    12.011   -3.836922   -1.549561    0.136208
   6 C   6.0000    0    12.011   -4.655970    0.778047    1.810362
   7 O   8.0000    0    15.999   -6.730833    0.595188    2.890447
   8 O   8.0000    0    15.999   -3.130466    2.563749    1.886512
   9 H   1.0000    0     1.008    5.629565    2.305631    0.707824
  10 H   1.0000    0     1.008    4.346926   -0.470837    1.626844
  11 H   1.0000    0     1.008    6.385628   -0.352960   -0.837859
  12 H   1.0000    0     1.008    2.910352    0.092872   -3.364457
  13 H   1.0000    0     1.008    2.019612    2.797338   -1.581137
  14 H   1.0000    0     1.008   -1.907748    0.227861   -2.778984
  15 H   1.0000    0     1.008   -3.430540   -3.100868    1.432676
  16 H   1.0000    0     1.008   -5.384011   -2.075053   -1.111213

      -----------------------------------------------------------      
     |                   =====================                   |     
     |                           x T B                           |     
     |                   =====================                   |     
     |                         S. Grimme                         |     
     |          Mulliken Center for Theoretical Chemistry        |     
     |                    University of Bonn                     |     
      -----------------------------------------------------------      

   * xtb version 6.7.1 (edcfbbe) compiled by 'albert@albert-system' on 2024-07-22

   xtb is free software: you can redistribute it and/or modify it under
   the terms of the GNU Lesser General Public License as published by
   the Free Software Foundation, either version 3 of the License, or
   (at your option) any later version.
   
   xtb is distributed in the hope that it will be useful,
   but WITHOUT ANY WARRANTY; without even the implied warranty of
   MERCHANTABILITY or FITNESS FOR A PARTICULAR PURPOSE.  See the
   GNU Lesser General Public License for more details.
   
   Cite this work as:
   * C. Bannwarth, E. Caldeweyher, S. Ehlert, A. Hansen, P. Pracht,
     J. Seibert, S. Spicher, S. Grimme, WIREs Comput. Mol. Sci., 2020, 11,
     e01493. DOI: 10.1002/wcms.1493
   
   for GFN2-xTB:
   * C. Bannwarth, S. Ehlert and S. Grimme., J. Chem. Theory Comput., 2019,
     15, 1652-1671. DOI: 10.1021/acs.jctc.8b01176
   for GFN1-xTB:
   * S. Grimme, C. Bannwarth, P. Shushkov, J. Chem. Theory Comput., 2017,
     13, 1989-2009. DOI: 10.1021/acs.jctc.7b00118
   for GFN0-xTB:
   * P. Pracht, E. Caldeweyher, S. Ehlert, S. Grimme, ChemRxiv, 2019, preprint.
     DOI: 10.26434/chemrxiv.8326202.v1
   for GFN-FF:
   * S. Spicher and S. Grimme, Angew. Chem. Int. Ed., 2020, 59, 15665-15673.
     DOI: 10.1002/anie.202004239
   
   for ALPB and GBSA implicit solvation:
   * S. Ehlert, M. Stahn, S. Spicher, S. Grimme, J. Chem. Theory Comput.,
     2021, 17, 4250-4261. DOI: 10.1021/acs.jctc.1c00471
   
   for ddCOSMO and CPCM-X implicit solvation:
   * M. Stahn, S. Ehlert, S. Grimme, J. Phys. Chem. A,
     2023, XX, XXXX-XXXX. DOI: 10.1021/acs.jpca.3c04382
   
   for DFT-D4:
   * E. Caldeweyher, C. Bannwarth and S. Grimme, J. Chem. Phys., 2017,
     147, 034112. DOI: 10.1063/1.4993215
   * E. Caldeweyher, S. Ehlert, A. Hansen, H. Neugebauer, S. Spicher,
     C. Bannwarth and S. Grimme, J. Chem. Phys., 2019, 150, 154122.
     DOI: 10.1063/1.5090222
   * E. Caldeweyher, J.-M. Mewes, S. Ehlert and S. Grimme, Phys. Chem. Chem. Phys.
     2020, 22, 8499-8512. DOI: 10.1039/D0CP00502A
   
   for sTDA-xTB:
   * S. Grimme and C. Bannwarth, J. Chem. Phys., 2016, 145, 054103.
     DOI: 10.1063/1.4959605
   
   in the mass-spec context:
   * V. Asgeirsson, C. Bauer and S. Grimme, Chem. Sci., 2017, 8, 4879.
     DOI: 10.1039/c7sc00601b
   * J. Koopman and S. Grimme, ACS Omega 2019, 4, 12, 15120-15133.
     DOI: 10.1021/acsomega.9b02011
   
   for metadynamics refer to:
   * S. Grimme, J. Chem. Theory Comput., 2019, 155, 2847-2862
     DOI: 10.1021/acs.jctc.9b00143
   
   for SPH calculations refer to:
   * S. Spicher and S. Grimme, J. Chem. Theory Comput., 2021, 17, 1701-1714
     DOI: 10.1021/acs.jctc.0c01306
   
   for ONIOM refer to:
   * C. Plett, A. Katbashev, S. Ehlert, S. Grimme, M. Bursch,
     Phys. Chem. Chem. Phys., 2023, 25, 17860-17868. DOI: 10.1039/D3CP02178E
   
   for DIPRO refer to:
   * J. Kohn, N. Gildemeister, S. Grimme, D. Fazzi, A. Hansen,
     J. Chem. Phys., 2023, just accepted.
   
   for PTB refer to:
   * S. Grimme, M. Mueller, A. Hansen, J. Chem. Phys., 2023, 158, 124111.
     DOI: 10.1063/5.0137838
   
   with help from (in alphabetical order)
   P. Atkinson, C. Bannwarth, F. Bohle, G. Brandenburg, E. Caldeweyher
   M. Checinski, S. Dohm, S. Ehlert, S. Ehrlich, I. Gerasimov, C. Hölzer
   A. Katbashev, J. Kohn, J. Koopman, C. Lavigne, S. Lehtola, F. März, M. Müller,
   F. Musil, H. Neugebauer, J. Pisarek, C. Plett, P. Pracht, F. Pultar,
   J. Seibert, P. Shushkov, S. Spicher, M. Stahn, M. Steiner, T. Strunk,
   J. Stückrath, T. Rose, and J. Unsleber
   
 * started run on 2026/04/11 at 16:57:59.423     
   ID    Z sym.   atoms
    1    7 N      1, 5
    2    6 C      2, 3, 6, 7
    3    8 O      4, 8, 9
    4    1 H      10-17

           -------------------------------------------------
          |                Calculation Setup                |
           -------------------------------------------------

          program call               : /home/analima/Programs/orca-6.1.0-f.0_linux_x86-64/bin/otool_xtb geo_opt_XTB.xyz --grad -c 0 -u 0 -P 1 --namespace geo_opt --input geo_opt_XTB.input.tmp --alpb WATER --acc 0.200000
          calculation namespace      : geo_opt
          coordinate file            : geo_opt_XTB.xyz
          omp threads                :                     1


           -------------------------------------------------
          |                 G F N 2 - x T B                 |
           -------------------------------------------------

        Reference                      10.1021/acs.jctc.8b01176
      * Hamiltonian:
        H0-scaling (s, p, d)           1.850000    2.230000    2.230000
        zeta-weighting                 0.500000
      * Dispersion:
        s8                             2.700000
        a1                             0.520000
        a2                             5.000000
        s9                             5.000000
      * Repulsion:
        kExp                           1.500000    1.000000
        rExp                           1.000000
      * Coulomb:
        alpha                          2.000000
        third order                    shell-resolved
        anisotropic                    true
        a3                             3.000000
        a5                             4.000000
        cn-shift                       1.200000
        cn-exp                         4.000000
        max-rad                        5.000000

      * Solvation model:               ALPB
        Solvent                        WATER
        Parameter file                 internal GFN2-xTB/ALPB
        Dielectric constant                8.0200E+01
        Reference state                gsolv [1 M gas/solution]
        Free energy shift                  1.0808E-03 Eh       6.7819E-01 kcal/mol
        Temperature                        2.9815E+02 K
        Density                            1.0000E+00 kg/L
        Solvent mass                       1.8000E+01 g/mol
        Interaction kernel             P16
        Born radius scaling (c1)           1.4744E+00
        Born radii integrator          GBOBC
        Born offset                        0.0000E+00 a0       0.0000E+00 AA
        H-bond correction              true
        Ion screening                  false
        Surface tension                    1.0000E-05 Eh       1.5569E+01 dyn/cm
        Grid points                               230 per atom
q/qsh data taken from xtbrestart
CAMM data taken from xtbrestart

          ...................................................
          :                      SETUP                      :
          :.................................................:
          :  # basis functions                  44          :
          :  # atomic orbitals                  44          :
          :  # shells                           26          :
          :  # electrons                        52          :
          :  max. iterations                   250          :
          :  Hamiltonian                  GFN2-xTB          :
          :  restarted?                       true          :
          :  GBSA solvation                   true          :
          :  PC potential                    false          :
          :  electronic temp.          300.0000000     K    :
          :  accuracy                    0.2000000          :
          :  -> integral cutoff          0.3198970E+02      :
          :  -> integral neglect         0.2000000E-08      :
          :  -> SCF convergence          0.2000000E-06 Eh   :
          :  -> wf. convergence          0.2000000E-04 e    :
          :  Broyden damping             0.4000000          :
          :  net charge                          0          :
          :  unpaired electrons                  0          :
          ...................................................

 iter      E             dE          RMSdq      gap      omega  full diag
   1    -31.0051368 -0.310051E+02  0.165E-02    3.73       0.0  T
   2    -31.0051368 -0.241248E-07  0.958E-03    3.73       2.5  T
   3    -31.0051368 -0.728393E-08  0.597E-04    3.73      40.7  T
   4    -31.0051368 -0.138826E-08  0.319E-04    3.73      75.9  T
   5    -31.0051368 -0.135522E-09  0.904E-05    3.73     268.3  T
   6    -31.0051368 -0.171347E-10  0.247E-05    3.73     982.1  T

   *** convergence criteria satisfied after 6 iterations ***

         #    Occupation            Energy/Eh            Energy/eV
      -------------------------------------------------------------
         1        2.0000           -0.7254980             -19.7418
       ...           ...                  ...                  ...
        20        2.0000           -0.4831471             -13.1471
        21        2.0000           -0.4644025             -12.6370
        22        2.0000           -0.4403515             -11.9826
        23        2.0000           -0.4237407             -11.5306
        24        2.0000           -0.4054473             -11.0328
        25        2.0000           -0.3905964             -10.6287
        26        2.0000           -0.3639346              -9.9032 (HOMO)
        27                         -0.2267577              -6.1704 (LUMO)
        28                         -0.1762938              -4.7972
        29                         -0.0475670              -1.2944
        30                          0.0193185               0.5257
        31                          0.0479401               1.3045
       ...                                ...                  ...
        44                          0.6481610              17.6374
      -------------------------------------------------------------
                  HL-Gap            0.1371769 Eh            3.7328 eV
             Fermi-level           -0.2953461 Eh           -8.0368 eV

 SCC (total)                   0 d,  0 h,  0 min,  0.008 sec
 SCC setup                      ...        0 min,  0.000 sec (  3.847%)
 Dispersion                     ...        0 min,  0.000 sec (  0.875%)
 classical contributions        ...        0 min,  0.000 sec (  0.203%)
 integral evaluation            ...        0 min,  0.001 sec ( 15.381%)
 iterations                     ...        0 min,  0.004 sec ( 48.317%)
 molecular gradient             ...        0 min,  0.002 sec ( 30.666%)
 printout                       ...        0 min,  0.000 sec (  0.576%)

         :::::::::::::::::::::::::::::::::::::::::::::::::::::
         ::                     SUMMARY                     ::
         :::::::::::::::::::::::::::::::::::::::::::::::::::::
         :: total energy             -30.713720399365 Eh    ::
         :: total w/o Gsasa/hb       -30.702874506942 Eh    ::
         :: gradient norm              0.000574451134 Eh/a0 ::
         :: HOMO-LUMO gap              3.732773752646 eV    ::
         ::.................................................::
         :: SCC energy               -31.005120861348 Eh    ::
         :: -> isotropic ES            0.275651865294 Eh    ::
         :: -> anisotropic ES         -0.020187189213 Eh    ::
         :: -> anisotropic XC          0.006587248476 Eh    ::
         :: -> dispersion             -0.011234135364 Eh    ::
         :: -> Gsolv                  -0.124081139562 Eh    ::
         ::    -> Gelec               -0.113235247140 Eh    ::
         ::    -> Gsasa                0.004282537113 Eh    ::
         ::    -> Ghb                 -0.016209189234 Eh    ::
         ::    -> Gshift               0.001080759698 Eh    ::
         :: repulsion energy           0.291400461983 Eh    ::
         :: add. restraining           0.000000000000 Eh    ::
         :: total charge               0.000000000000 e     ::
         :::::::::::::::::::::::::::::::::::::::::::::::::::::


Property printout bound to 'properties.out'

           -------------------------------------------------
          | TOTAL ENERGY              -30.713720399365 Eh   |
          | GRADIENT NORM               0.000574451134 Eh/α |
          | HOMO-LUMO GAP               3.732773752646 eV   |
           -------------------------------------------------

------------------------------------------------------------------------
 * finished run on 2026/04/11 at 16:57:59.436     
------------------------------------------------------------------------
 total:
 * wall-time:     0 d,  0 h,  0 min,  0.013 sec
 *  cpu-time:     0 d,  0 h,  0 min,  0.011 sec
 * ratio c/w:     0.886 speedup
 SCF:
 * wall-time:     0 d,  0 h,  0 min,  0.008 sec
 *  cpu-time:     0 d,  0 h,  0 min,  0.007 sec
 * ratio c/w:     0.829 speedup


-------------------------   --------------------
FINAL SINGLE POINT ENERGY       -30.713720399360
-------------------------   --------------------


-------------
DIPOLE MOMENT
-------------
                                X             Y             Z
Total Dipole Moment    :      8.45800      -0.37800      -4.05000
                        -----------------------------------------
Magnitude (a.u.)       :      9.38526
Magnitude (Debye)      :     23.85544


------------------
CARTESIAN GRADIENT
------------------

   1   N   :    0.000087628    0.000101440   -0.000009258
   2   C   :    0.000018275   -0.000011137    0.000031875
   3   C   :   -0.000093745    0.000074856   -0.000272409
   4   O   :    0.000077619   -0.000046937    0.000081002
   5   N   :   -0.000187168    0.000009734    0.000078590
   6   C   :    0.000245223   -0.000039697   -0.000049923
   7   C   :   -0.000017518   -0.000133942   -0.000117527
   8   O   :   -0.000061850   -0.000006138    0.000088787
   9   O   :    0.000021707    0.000075415    0.000057138
  10   H   :    0.000018549   -0.000014821   -0.000013856
  11   H   :   -0.000092784   -0.000108962    0.000001483
  12   H   :   -0.000005533    0.000027872   -0.000014268
  13   H   :   -0.000000515   -0.000025320    0.000020998
  14   H   :   -0.000012145   -0.000009386   -0.000001925
  15   H   :    0.000087366    0.000026490    0.000024862
  16   H   :   -0.000064072    0.000064818    0.000081593
  17   H   :   -0.000021038    0.000015714    0.000012836

Difference to translation invariance:
           :    0.0000000000    0.0000000000   -0.0000000000

Difference to rotation invariance:
           :    0.0001942374    0.0005133922    0.0000853942

Norm of the Cartesian gradient     ...    0.0005744511
RMS gradient                       ...    0.0000804392
MAX gradient                       ...    0.0002724091
------------------------------------------------------------------------------
                         ORCA GEOMETRY RELAXATION STEP
------------------------------------------------------------------------------

Reading the OPT-File                    .... done
Getting information on internals        .... done
Copying old internal coords+grads       .... done
Making the new internal coordinates     .... (2022 redundants) done
Validating the new internal coordinates .... (2022 redundants) done
Calculating the B-matrix                .... done
Calculating the G,G- and P matrices     .... done
Transforming gradient to internals      .... done
Projecting the internal gradient        .... done
Number of atoms                         ....  17
Number of internal coordinates          ....  69
Current Energy                          ....   -30.713720399 Eh
Current gradient norm                   ....     0.000574451 Eh/bohr
Maximum allowed component of the step   ....  0.300
Current trust radius                    ....  0.700
Updating the Hessian (BFGS)             .... done
Forming the augmented Hessian           .... done
Diagonalizing the augmented Hessian     .... done
Last element of RFO vector              ....  0.999368290
Lowest eigenvalues of augmented Hessian:
 -0.000003232  0.000669744  0.002689123  0.009153182  0.010484100
Length of the computed step             ....  0.035561472
The final length of the internal step   ....  0.035561472
Converting the step to Cartesian space:
 Initial RMS(Int)=    0.0042810981
Transforming coordinates:
 Iter   0:  RMS(Cart)=    0.0061511517 RMS(Int)=    0.0042809445
done
Storing new coordinates                 .... done
The predicted energy change is          ....    -0.000001618
Previously predicted energy change      ....    -0.000001367
Actually observed energy change         ....    -0.000002106
Ratio of predicted to observed change   ....     1.540771123
New trust radius                        ....     0.466666667

                                .--------------------.
          ----------------------|Geometry convergence|-------------------------
          Item                value                   Tolerance       Converged
          ---------------------------------------------------------------------
          Energy change      -0.0000021059            0.0000050000      YES
          RMS gradient        0.0000510364            0.0001000000      YES
          MAX gradient        0.0001726978            0.0003000000      YES
          RMS step            0.0042810981            0.0020000000      NO
          MAX step            0.0134963570            0.0040000000      NO
          -------------------------------------------------------------------------
          ........................................................
          Max(Bonds)      0.0023      Max(Angles)    0.08
          Max(Dihed)        0.77      Max(Improp)    0.00
          ---------------------------------------------------------------------

The optimization has not yet converged - more geometry cycles are needed


    ---------------------------------------------------------------------------
                         Redundant Internal Coordinates
                            (Angstroem and degrees)

        Definition                    Value    dE/dq     Step     New-Value
    ----------------------------------------------------------------------------
     1. B(C   1,N   0)                1.4739  0.000036  0.0000    1.4740   
     2. B(C   2,C   1)                1.5383  0.000008 -0.0003    1.5380   
     3. B(O   3,C   2)                1.2305  0.000112 -0.0002    1.2303   
     4. B(N   4,C   2)                1.3332 -0.000062  0.0001    1.3333   
     5. B(C   5,N   4)                1.4411 -0.000056  0.0002    1.4413   
     6. B(C   6,C   5)                1.5779 -0.000023 -0.0002    1.5778   
     7. B(O   7,C   6)                1.2416  0.000094 -0.0001    1.2415   
     8. B(O   8,C   6)                1.2435  0.000074 -0.0001    1.2434   
     9. B(H   9,N   0)                1.0233 -0.000009 -0.0000    1.0232   
    10. B(H  10,N   0)                1.0545  0.000067 -0.0003    1.0542   
    11. B(H  10,O   3)                1.8092 -0.000050  0.0023    1.8115   
    12. B(H  11,N   0)                1.0237 -0.000015  0.0001    1.0237   
    13. B(H  12,C   1)                1.0886 -0.000011  0.0000    1.0886   
    14. B(H  13,C   1)                1.0897 -0.000010  0.0001    1.0898   
    15. B(H  14,N   4)                1.0109 -0.000020  0.0000    1.0110   
    16. B(H  15,C   5)                1.0913 -0.000012 -0.0000    1.0912   
    17. B(H  16,C   5)                1.0878  0.000006 -0.0000    1.0878   
    18. A(H  10,N   0,H  11)          109.17  0.000008   -0.08    109.09   
    19. A(H   9,N   0,H  11)          109.91 -0.000016    0.01    109.91   
    20. A(C   1,N   0,H  10)          102.56 -0.000064    0.03    102.58   
    21. A(H   9,N   0,H  10)          108.84  0.000045    0.04    108.87   
    22. A(C   1,N   0,H   9)          112.95  0.000036    0.03    112.98   
    23. A(C   1,N   0,H  11)          113.07 -0.000008   -0.02    113.04   
    24. A(N   0,C   1,H  13)          111.68  0.000003   -0.02    111.66   
    25. A(C   2,C   1,H  12)          109.78 -0.000011    0.02    109.81   
    26. A(H  12,C   1,H  13)          109.41  0.000001   -0.06    109.34   
    27. A(C   2,C   1,H  13)          107.46 -0.000016   -0.03    107.43   
    28. A(N   0,C   1,C   2)          106.33  0.000055    0.02    106.35   
    29. A(N   0,C   1,H  12)          112.04 -0.000031    0.06    112.10   
    30. A(C   1,C   2,N   4)          116.25  0.000126   -0.04    116.21   
    31. A(C   1,C   2,O   3)          117.82 -0.000059    0.05    117.87   
    32. A(O   3,C   2,N   4)          125.73 -0.000067   -0.01    125.72   
    33. A(C   5,N   4,H  14)          114.49  0.000070   -0.07    114.42   
    34. A(C   2,N   4,C   5)          119.31  0.000021    0.05    119.36   
    35. A(C   2,N   4,H  14)          117.00 -0.000072   -0.01    116.99   
    36. A(C   6,C   5,H  16)          109.48 -0.000084    0.02    109.50   
    37. A(N   4,C   5,H  16)          111.13 -0.000025   -0.04    111.08   
    38. A(C   6,C   5,H  15)          106.76 -0.000121    0.08    106.84   
    39. A(N   4,C   5,C   6)          109.80  0.000173   -0.03    109.77   
    40. A(N   4,C   5,H  15)          109.85  0.000042   -0.03    109.82   
    41. A(H  15,C   5,H  16)          109.73  0.000012    0.01    109.73   
    42. A(C   5,C   6,O   7)          116.14 -0.000009    0.00    116.14   
    43. A(O   7,C   6,O   8)          128.20 -0.000062    0.01    128.21   
    44. A(C   5,C   6,O   8)          115.66  0.000070   -0.00    115.66   
    45. D(H  12,C   1,N   0,H   9)    120.84  0.000008   -0.76    120.09   
    46. D(H  12,C   1,N   0,H  11)     -4.77  0.000008   -0.77     -5.54   
    47. D(C   2,C   1,N   0,H  10)     -2.25  0.000044   -0.61     -2.85   
    48. D(H  12,C   1,N   0,H  10)   -122.19  0.000040   -0.69   -122.87   
    49. D(C   2,C   1,N   0,H  11)    115.17  0.000012   -0.69    114.48   
    50. D(C   2,C   1,N   0,H   9)   -119.22  0.000012   -0.68   -119.90   
    51. D(O   3,C   2,C   1,N   0)      1.92  0.000004    0.37      2.30   
    52. D(N   4,C   2,C   1,N   0)   -173.22  0.000004    0.35   -172.86   
    53. D(O   3,C   2,C   1,H  13)   -117.79 -0.000021    0.40   -117.39   
    54. D(N   4,C   2,C   1,H  12)    -51.82 -0.000007    0.46    -51.37   
    55. D(O   3,C   2,C   1,H  12)    123.31 -0.000007    0.48    123.79   
    56. D(H  14,N   4,C   2,C   1)    -14.86  0.000027    0.02    -14.85   
    57. D(C   5,N   4,C   2,O   3)     25.38 -0.000031    0.12     25.50   
    58. D(H  14,N   4,C   2,O   3)    170.43  0.000026   -0.01    170.42   
    59. D(C   5,N   4,C   2,C   1)   -159.91 -0.000029    0.15   -159.77   
    60. D(H  16,C   5,N   4,C   2)   -168.27  0.000031   -0.20   -168.48   
    61. D(H  15,C   5,N   4,H  14)    167.46  0.000050   -0.13    167.33   
    62. D(H  15,C   5,N   4,C   2)    -46.66  0.000058   -0.24    -46.91   
    63. D(C   6,C   5,N   4,H  14)    -75.43  0.000029   -0.06    -75.49   
    64. D(C   6,C   5,N   4,C   2)     70.45  0.000037   -0.18     70.27   
    65. D(O   8,C   6,C   5,H  15)    110.23  0.000026    0.10    110.34   
    66. D(O   8,C   6,C   5,N   4)     -8.80 -0.000048    0.11     -8.69   
    67. D(O   7,C   6,C   5,H  16)     49.20 -0.000022    0.11     49.31   
    68. D(O   7,C   6,C   5,H  15)    -69.52  0.000078    0.05    -69.47   
    69. D(O   7,C   6,C   5,N   4)    171.45  0.000004    0.05    171.51   
    ----------------------------------------------------------------------------

Geometry step timings:
Preparation and reading OPT file:      0.000 s ( 0.909 %)
Internal coordinates            :      0.000 s ( 1.000 %)
B/P matrices and projection     :      0.000 s (32.364 %)
Hessian update/contruction      :      0.000 s (12.455 %)
Making the step                 :      0.000 s (28.909 %)
Converting the step to Cartesian:      0.000 s ( 3.273 %)
Storing new data                :      0.000 s ( 1.909 %)
Checking convergence            :      0.000 s ( 2.000 %)
Final printing                  :      0.000 s (17.091 %)
Total time                      :      0.001 s

Time for energy+gradient        :      0.017 s
Time for complete geometry iter :      0.019 s

         *************************************************************
         *                GEOMETRY OPTIMIZATION CYCLE  20            *
         *************************************************************
---------------------------------
CARTESIAN COORDINATES (ANGSTROEM)
---------------------------------
  N     2.630784    0.318896    0.035084
  C     1.404889    0.448465   -0.772989
  C     0.316012   -0.352077   -0.038916
  O     0.614020   -0.881202    1.031108
  N    -0.845493   -0.490292   -0.678851
  C    -2.030601   -0.821358    0.071677
  C    -2.463721    0.411075    0.956449
  O    -3.561946    0.315337    1.527531
  O    -1.656398    1.355914    0.995591
  H     2.987790    1.218754    0.366450
  H     2.301200   -0.243299    0.863795
  H     3.374350   -0.196021   -0.444533
  H     1.534958    0.056639   -1.780275
  H     1.067496    1.483228   -0.828929
  H    -1.008232    0.117414   -1.470206
  H    -1.816867   -1.643091    0.757161
  H    -2.848243   -1.098382   -0.590149

----------------------------
CARTESIAN COORDINATES (A.U.)
----------------------------
  NO LB    ZA    FRAG    MASS        X           Y           Z
   0 N   7.0000    0    14.007    4.971462    0.602626    0.066299
   1 C   6.0000    0    12.011    2.654855    0.847475   -1.460738
   2 C   6.0000    0    12.011    0.597176   -0.665329   -0.073540
   3 O   8.0000    0    15.999    1.160329   -1.665231    1.948511
   4 N   7.0000    0    14.007   -1.597749   -0.926518   -1.282842
   5 C   6.0000    0    12.011   -3.837279   -1.552141    0.135450
   6 C   6.0000    0    12.011   -4.655758    0.776819    1.807428
   7 O   8.0000    0    15.999   -6.731102    0.595901    2.886616
   8 O   8.0000    0    15.999   -3.130138    2.562306    1.881395
   9 H   1.0000    0     1.008    5.646104    2.303111    0.692490
  10 H   1.0000    0     1.008    4.348638   -0.459768    1.632336
  11 H   1.0000    0     1.008    6.376598   -0.370426   -0.840045
  12 H   1.0000    0     1.008    2.900651    0.107032   -3.364232
  13 H   1.0000    0     1.008    2.017276    2.802895   -1.566448
  14 H   1.0000    0     1.008   -1.905282    0.221880   -2.778287
  15 H   1.0000    0     1.008   -3.433381   -3.104991    1.430827
  16 H   1.0000    0     1.008   -5.382399   -2.075641   -1.115219

      -----------------------------------------------------------      
     |                   =====================                   |     
     |                           x T B                           |     
     |                   =====================                   |     
     |                         S. Grimme                         |     
     |          Mulliken Center for Theoretical Chemistry        |     
     |                    University of Bonn                     |     
      -----------------------------------------------------------      

   * xtb version 6.7.1 (edcfbbe) compiled by 'albert@albert-system' on 2024-07-22

   xtb is free software: you can redistribute it and/or modify it under
   the terms of the GNU Lesser General Public License as published by
   the Free Software Foundation, either version 3 of the License, or
   (at your option) any later version.
   
   xtb is distributed in the hope that it will be useful,
   but WITHOUT ANY WARRANTY; without even the implied warranty of
   MERCHANTABILITY or FITNESS FOR A PARTICULAR PURPOSE.  See the
   GNU Lesser General Public License for more details.
   
   Cite this work as:
   * C. Bannwarth, E. Caldeweyher, S. Ehlert, A. Hansen, P. Pracht,
     J. Seibert, S. Spicher, S. Grimme, WIREs Comput. Mol. Sci., 2020, 11,
     e01493. DOI: 10.1002/wcms.1493
   
   for GFN2-xTB:
   * C. Bannwarth, S. Ehlert and S. Grimme., J. Chem. Theory Comput., 2019,
     15, 1652-1671. DOI: 10.1021/acs.jctc.8b01176
   for GFN1-xTB:
   * S. Grimme, C. Bannwarth, P. Shushkov, J. Chem. Theory Comput., 2017,
     13, 1989-2009. DOI: 10.1021/acs.jctc.7b00118
   for GFN0-xTB:
   * P. Pracht, E. Caldeweyher, S. Ehlert, S. Grimme, ChemRxiv, 2019, preprint.
     DOI: 10.26434/chemrxiv.8326202.v1
   for GFN-FF:
   * S. Spicher and S. Grimme, Angew. Chem. Int. Ed., 2020, 59, 15665-15673.
     DOI: 10.1002/anie.202004239
   
   for ALPB and GBSA implicit solvation:
   * S. Ehlert, M. Stahn, S. Spicher, S. Grimme, J. Chem. Theory Comput.,
     2021, 17, 4250-4261. DOI: 10.1021/acs.jctc.1c00471
   
   for ddCOSMO and CPCM-X implicit solvation:
   * M. Stahn, S. Ehlert, S. Grimme, J. Phys. Chem. A,
     2023, XX, XXXX-XXXX. DOI: 10.1021/acs.jpca.3c04382
   
   for DFT-D4:
   * E. Caldeweyher, C. Bannwarth and S. Grimme, J. Chem. Phys., 2017,
     147, 034112. DOI: 10.1063/1.4993215
   * E. Caldeweyher, S. Ehlert, A. Hansen, H. Neugebauer, S. Spicher,
     C. Bannwarth and S. Grimme, J. Chem. Phys., 2019, 150, 154122.
     DOI: 10.1063/1.5090222
   * E. Caldeweyher, J.-M. Mewes, S. Ehlert and S. Grimme, Phys. Chem. Chem. Phys.
     2020, 22, 8499-8512. DOI: 10.1039/D0CP00502A
   
   for sTDA-xTB:
   * S. Grimme and C. Bannwarth, J. Chem. Phys., 2016, 145, 054103.
     DOI: 10.1063/1.4959605
   
   in the mass-spec context:
   * V. Asgeirsson, C. Bauer and S. Grimme, Chem. Sci., 2017, 8, 4879.
     DOI: 10.1039/c7sc00601b
   * J. Koopman and S. Grimme, ACS Omega 2019, 4, 12, 15120-15133.
     DOI: 10.1021/acsomega.9b02011
   
   for metadynamics refer to:
   * S. Grimme, J. Chem. Theory Comput., 2019, 155, 2847-2862
     DOI: 10.1021/acs.jctc.9b00143
   
   for SPH calculations refer to:
   * S. Spicher and S. Grimme, J. Chem. Theory Comput., 2021, 17, 1701-1714
     DOI: 10.1021/acs.jctc.0c01306
   
   for ONIOM refer to:
   * C. Plett, A. Katbashev, S. Ehlert, S. Grimme, M. Bursch,
     Phys. Chem. Chem. Phys., 2023, 25, 17860-17868. DOI: 10.1039/D3CP02178E
   
   for DIPRO refer to:
   * J. Kohn, N. Gildemeister, S. Grimme, D. Fazzi, A. Hansen,
     J. Chem. Phys., 2023, just accepted.
   
   for PTB refer to:
   * S. Grimme, M. Mueller, A. Hansen, J. Chem. Phys., 2023, 158, 124111.
     DOI: 10.1063/5.0137838
   
   with help from (in alphabetical order)
   P. Atkinson, C. Bannwarth, F. Bohle, G. Brandenburg, E. Caldeweyher
   M. Checinski, S. Dohm, S. Ehlert, S. Ehrlich, I. Gerasimov, C. Hölzer
   A. Katbashev, J. Kohn, J. Koopman, C. Lavigne, S. Lehtola, F. März, M. Müller,
   F. Musil, H. Neugebauer, J. Pisarek, C. Plett, P. Pracht, F. Pultar,
   J. Seibert, P. Shushkov, S. Spicher, M. Stahn, M. Steiner, T. Strunk,
   J. Stückrath, T. Rose, and J. Unsleber
   
 * started run on 2026/04/11 at 16:57:59.442     
   ID    Z sym.   atoms
    1    7 N      1, 5
    2    6 C      2, 3, 6, 7
    3    8 O      4, 8, 9
    4    1 H      10-17

           -------------------------------------------------
          |                Calculation Setup                |
           -------------------------------------------------

          program call               : /home/analima/Programs/orca-6.1.0-f.0_linux_x86-64/bin/otool_xtb geo_opt_XTB.xyz --grad -c 0 -u 0 -P 1 --namespace geo_opt --input geo_opt_XTB.input.tmp --alpb WATER --acc 0.200000
          calculation namespace      : geo_opt
          coordinate file            : geo_opt_XTB.xyz
          omp threads                :                     1


           -------------------------------------------------
          |                 G F N 2 - x T B                 |
           -------------------------------------------------

        Reference                      10.1021/acs.jctc.8b01176
      * Hamiltonian:
        H0-scaling (s, p, d)           1.850000    2.230000    2.230000
        zeta-weighting                 0.500000
      * Dispersion:
        s8                             2.700000
        a1                             0.520000
        a2                             5.000000
        s9                             5.000000
      * Repulsion:
        kExp                           1.500000    1.000000
        rExp                           1.000000
      * Coulomb:
        alpha                          2.000000
        third order                    shell-resolved
        anisotropic                    true
        a3                             3.000000
        a5                             4.000000
        cn-shift                       1.200000
        cn-exp                         4.000000
        max-rad                        5.000000

      * Solvation model:               ALPB
        Solvent                        WATER
        Parameter file                 internal GFN2-xTB/ALPB
        Dielectric constant                8.0200E+01
        Reference state                gsolv [1 M gas/solution]
        Free energy shift                  1.0808E-03 Eh       6.7819E-01 kcal/mol
        Temperature                        2.9815E+02 K
        Density                            1.0000E+00 kg/L
        Solvent mass                       1.8000E+01 g/mol
        Interaction kernel             P16
        Born radius scaling (c1)           1.4744E+00
        Born radii integrator          GBOBC
        Born offset                        0.0000E+00 a0       0.0000E+00 AA
        H-bond correction              true
        Ion screening                  false
        Surface tension                    1.0000E-05 Eh       1.5569E+01 dyn/cm
        Grid points                               230 per atom
q/qsh data taken from xtbrestart
CAMM data taken from xtbrestart

          ...................................................
          :                      SETUP                      :
          :.................................................:
          :  # basis functions                  44          :
          :  # atomic orbitals                  44          :
          :  # shells                           26          :
          :  # electrons                        52          :
          :  max. iterations                   250          :
          :  Hamiltonian                  GFN2-xTB          :
          :  restarted?                       true          :
          :  GBSA solvation                   true          :
          :  PC potential                    false          :
          :  electronic temp.          300.0000000     K    :
          :  accuracy                    0.2000000          :
          :  -> integral cutoff          0.3198970E+02      :
          :  -> integral neglect         0.2000000E-08      :
          :  -> SCF convergence          0.2000000E-06 Eh   :
          :  -> wf. convergence          0.2000000E-04 e    :
          :  Broyden damping             0.4000000          :
          :  net charge                          0          :
          :  unpaired electrons                  0          :
          ...................................................

 iter      E             dE          RMSdq      gap      omega  full diag
   1    -31.0052180 -0.310052E+02  0.145E-02    3.73       0.0  T
   2    -31.0052181 -0.846413E-07  0.840E-03    3.73       2.9  T
   3    -31.0052181  0.732187E-08  0.159E-03    3.73      15.2  T
   4    -31.0052181 -0.187181E-07  0.358E-04    3.73      67.8  T
   5    -31.0052181 -0.464382E-09  0.165E-04    3.73     147.3  T
   6    -31.0052181 -0.132907E-10  0.353E-05    3.73     687.6  T

   *** convergence criteria satisfied after 6 iterations ***

         #    Occupation            Energy/Eh            Energy/eV
      -------------------------------------------------------------
         1        2.0000           -0.7254858             -19.7415
       ...           ...                  ...                  ...
        20        2.0000           -0.4831233             -13.1465
        21        2.0000           -0.4644182             -12.6375
        22        2.0000           -0.4402967             -11.9811
        23        2.0000           -0.4236737             -11.5287
        24        2.0000           -0.4054570             -11.0330
        25        2.0000           -0.3906039             -10.6289
        26        2.0000           -0.3639447              -9.9034 (HOMO)
        27                         -0.2267087              -6.1691 (LUMO)
        28                         -0.1762654              -4.7964
        29                         -0.0476589              -1.2969
        30                          0.0194499               0.5293
        31                          0.0480433               1.3073
       ...                                ...                  ...
        44                          0.6484542              17.6453
      -------------------------------------------------------------
                  HL-Gap            0.1372360 Eh            3.7344 eV
             Fermi-level           -0.2953267 Eh           -8.0362 eV

 SCC (total)                   0 d,  0 h,  0 min,  0.006 sec
 SCC setup                      ...        0 min,  0.000 sec (  3.586%)
 Dispersion                     ...        0 min,  0.000 sec (  0.709%)
 classical contributions        ...        0 min,  0.000 sec (  0.185%)
 integral evaluation            ...        0 min,  0.001 sec ( 10.966%)
 iterations                     ...        0 min,  0.003 sec ( 54.464%)
 molecular gradient             ...        0 min,  0.002 sec ( 29.454%)
 printout                       ...        0 min,  0.000 sec (  0.540%)

         :::::::::::::::::::::::::::::::::::::::::::::::::::::
         ::                     SUMMARY                     ::
         :::::::::::::::::::::::::::::::::::::::::::::::::::::
         :: total energy             -30.713722564539 Eh    ::
         :: total w/o Gsasa/hb       -30.702874595585 Eh    ::
         :: gradient norm              0.000437627254 Eh/a0 ::
         :: HOMO-LUMO gap              3.734381299115 eV    ::
         ::.................................................::
         :: SCC energy               -31.005202218053 Eh    ::
         :: -> isotropic ES            0.275734054225 Eh    ::
         :: -> anisotropic ES         -0.020201408022 Eh    ::
         :: -> anisotropic XC          0.006585846192 Eh    ::
         :: -> dispersion             -0.011236739821 Eh    ::
         :: -> Gsolv                  -0.124136654530 Eh    ::
         ::    -> Gelec               -0.113288685576 Eh    ::
         ::    -> Gsasa                0.004280040200 Eh    ::
         ::    -> Ghb                 -0.016208768851 Eh    ::
         ::    -> Gshift               0.001080759698 Eh    ::
         :: repulsion energy           0.291479653515 Eh    ::
         :: add. restraining           0.000000000000 Eh    ::
         :: total charge              -0.000000000000 e     ::
         :::::::::::::::::::::::::::::::::::::::::::::::::::::


Property printout bound to 'properties.out'

           -------------------------------------------------
          | TOTAL ENERGY              -30.713722564539 Eh   |
          | GRADIENT NORM               0.000437627254 Eh/α |
          | HOMO-LUMO GAP               3.734381299115 eV   |
           -------------------------------------------------

------------------------------------------------------------------------
 * finished run on 2026/04/11 at 16:57:59.452     
------------------------------------------------------------------------
 total:
 * wall-time:     0 d,  0 h,  0 min,  0.010 sec
 *  cpu-time:     0 d,  0 h,  0 min,  0.008 sec
 * ratio c/w:     0.846 speedup
 SCF:
 * wall-time:     0 d,  0 h,  0 min,  0.006 sec
 *  cpu-time:     0 d,  0 h,  0 min,  0.005 sec
 * ratio c/w:     0.758 speedup


-------------------------   --------------------
FINAL SINGLE POINT ENERGY       -30.713722564540
-------------------------   --------------------


-------------
DIPOLE MOMENT
-------------
                                X             Y             Z
Total Dipole Moment    :      8.46200      -0.38000      -4.04800
                        -----------------------------------------
Magnitude (a.u.)       :      9.38809
Magnitude (Debye)      :     23.86262


------------------
CARTESIAN GRADIENT
------------------

   1   N   :    0.000060255    0.000083982    0.000002550
   2   C   :   -0.000070114   -0.000047549    0.000103390
   3   C   :    0.000159509    0.000052362   -0.000214004
   4   O   :   -0.000040460   -0.000029461   -0.000023776
   5   N   :   -0.000032882   -0.000038417    0.000186211
   6   C   :   -0.000011798    0.000061738    0.000044543
   7   C   :    0.000037276   -0.000076495   -0.000047642
   8   O   :    0.000024000   -0.000000241    0.000003907
   9   O   :   -0.000063365   -0.000020674    0.000009059
  10   H   :    0.000017377   -0.000040933    0.000015713
  11   H   :   -0.000048438   -0.000043280   -0.000018783
  12   H   :    0.000008518    0.000019235    0.000008538
  13   H   :   -0.000093870    0.000020851   -0.000018844
  14   H   :    0.000013243   -0.000006332   -0.000077148
  15   H   :    0.000031919    0.000015424    0.000041759
  16   H   :    0.000000856    0.000024357    0.000009722
  17   H   :    0.000007972    0.000025434   -0.000025196

Difference to translation invariance:
           :   -0.0000000000   -0.0000000000   -0.0000000000

Difference to rotation invariance:
           :    0.0001909654    0.0004940289    0.0000945427

Norm of the Cartesian gradient     ...    0.0004376273
RMS gradient                       ...    0.0000612801
MAX gradient                       ...    0.0002140045
------------------------------------------------------------------------------
                         ORCA GEOMETRY RELAXATION STEP
------------------------------------------------------------------------------

Reading the OPT-File                    .... done
Getting information on internals        .... done
Copying old internal coords+grads       .... done
Making the new internal coordinates     .... (2022 redundants) done
Validating the new internal coordinates .... (2022 redundants) done
Calculating the B-matrix                .... done
Calculating the G,G- and P matrices     .... done
Transforming gradient to internals      .... done
Projecting the internal gradient        .... done
Number of atoms                         ....  17
Number of internal coordinates          ....  69
Current Energy                          ....   -30.713722565 Eh
Current gradient norm                   ....     0.000437627 Eh/bohr
Maximum allowed component of the step   ....  0.300
Current trust radius                    ....  0.467
Updating the Hessian (BFGS)             .... done
Forming the augmented Hessian           .... done
Diagonalizing the augmented Hessian     .... done
Last element of RFO vector              ....  0.999520747
Lowest eigenvalues of augmented Hessian:
 -0.000001744  0.000564526  0.002657674  0.006591781  0.010211073
Length of the computed step             ....  0.030970893
The final length of the internal step   ....  0.030970893
Converting the step to Cartesian space:
 Initial RMS(Int)=    0.0037284573
Transforming coordinates:
 Iter   0:  RMS(Cart)=    0.0052713462 RMS(Int)=    0.0037279858
done
Storing new coordinates                 .... done
The predicted energy change is          ....    -0.000000873
Previously predicted energy change      ....    -0.000001618
Actually observed energy change         ....    -0.000002165
Ratio of predicted to observed change   ....     1.338082624
New trust radius                        ....     0.466666667

                                .--------------------.
          ----------------------|Geometry convergence|-------------------------
          Item                value                   Tolerance       Converged
          ---------------------------------------------------------------------
          Energy change      -0.0000021652            0.0000050000      YES
          RMS gradient        0.0000495035            0.0001000000      YES
          MAX gradient        0.0002013350            0.0003000000      YES
          RMS step            0.0037284573            0.0020000000      NO
          MAX step            0.0117238045            0.0040000000      NO
          -------------------------------------------------------------------------
          ........................................................
          Max(Bonds)      0.0017      Max(Angles)    0.06
          Max(Dihed)        0.67      Max(Improp)    0.00
          ---------------------------------------------------------------------

The optimization has not yet converged - more geometry cycles are needed


    ---------------------------------------------------------------------------
                         Redundant Internal Coordinates
                            (Angstroem and degrees)

        Definition                    Value    dE/dq     Step     New-Value
    ----------------------------------------------------------------------------
     1. B(C   1,N   0)                1.4740  0.000064 -0.0000    1.4740   
     2. B(C   2,C   1)                1.5380 -0.000093 -0.0001    1.5379   
     3. B(O   3,C   2)                1.2303 -0.000015 -0.0001    1.2302   
     4. B(N   4,C   2)                1.3333 -0.000075  0.0001    1.3334   
     5. B(C   5,N   4)                1.4413 -0.000017  0.0002    1.4415   
     6. B(C   6,C   5)                1.5778 -0.000098  0.0000    1.5778   
     7. B(O   7,C   6)                1.2415 -0.000022 -0.0001    1.2415   
     8. B(O   8,C   6)                1.2434 -0.000055 -0.0000    1.2433   
     9. B(H   9,N   0)                1.0232 -0.000022  0.0000    1.0232   
    10. B(H  10,N   0)                1.0543  0.000017 -0.0002    1.0541   
    11. B(H  10,O   3)                1.8115 -0.000022  0.0017    1.8132   
    12. B(H  11,N   0)                1.0237 -0.000011  0.0000    1.0238   
    13. B(H  12,C   1)                1.0886 -0.000002 -0.0000    1.0886   
    14. B(H  13,C   1)                1.0898 -0.000011  0.0001    1.0899   
    15. B(H  14,N   4)                1.0110 -0.000031  0.0000    1.0110   
    16. B(H  15,C   5)                1.0912 -0.000014  0.0000    1.0913   
    17. B(H  16,C   5)                1.0878  0.000005 -0.0000    1.0878   
    18. A(H  10,N   0,H  11)          109.09  0.000000   -0.06    109.03   
    19. A(H   9,N   0,H  11)          109.92 -0.000033    0.01    109.92   
    20. A(C   1,N   0,H  10)          102.58 -0.000065    0.03    102.61   
    21. A(H   9,N   0,H  10)          108.87  0.000007    0.04    108.91   
    22. A(C   1,N   0,H   9)          112.98  0.000059    0.02    113.00   
    23. A(C   1,N   0,H  11)          113.04  0.000028   -0.03    113.02   
    24. A(N   0,C   1,H  13)          111.66  0.000010   -0.02    111.64   
    25. A(C   2,C   1,H  12)          109.81 -0.000043    0.04    109.85   
    26. A(H  12,C   1,H  13)          109.34 -0.000083   -0.01    109.33   
    27. A(C   2,C   1,H  13)          107.43  0.000067   -0.04    107.39   
    28. A(N   0,C   1,C   2)          106.34 -0.000010    0.01    106.36   
    29. A(N   0,C   1,H  12)          112.10  0.000061    0.03    112.13   
    30. A(C   1,C   2,N   4)          116.21  0.000018   -0.03    116.18   
    31. A(C   1,C   2,O   3)          117.87  0.000073    0.02    117.89   
    32. A(O   3,C   2,N   4)          125.72 -0.000090    0.01    125.73   
    33. A(C   5,N   4,H  14)          114.41 -0.000064   -0.04    114.37   
    34. A(C   2,N   4,C   5)          119.35  0.000201   -0.01    119.34   
    35. A(C   2,N   4,H  14)          116.98 -0.000104    0.00    116.98   
    36. A(C   6,C   5,H  16)          109.50 -0.000043    0.02    109.52   
    37. A(N   4,C   5,H  16)          111.08 -0.000059   -0.01    111.07   
    38. A(C   6,C   5,H  15)          106.84 -0.000015    0.04    106.88   
    39. A(N   4,C   5,C   6)          109.77  0.000101   -0.03    109.74   
    40. A(N   4,C   5,H  15)          109.82 -0.000017   -0.02    109.79   
    41. A(H  15,C   5,H  16)          109.73  0.000035    0.00    109.73   
    42. A(C   5,C   6,O   7)          116.14 -0.000016    0.01    116.14   
    43. A(O   7,C   6,O   8)          128.20 -0.000029    0.01    128.21   
    44. A(C   5,C   6,O   8)          115.66  0.000045   -0.01    115.65   
    45. D(H  12,C   1,N   0,H   9)    120.09  0.000036   -0.67    119.42   
    46. D(H  12,C   1,N   0,H  11)     -5.54  0.000008   -0.67     -6.21   
    47. D(C   2,C   1,N   0,H  10)     -2.85  0.000010   -0.53     -3.38   
    48. D(H  12,C   1,N   0,H  10)   -122.87  0.000033   -0.60   -123.47   
    49. D(C   2,C   1,N   0,H  11)    114.48 -0.000015   -0.60    113.88   
    50. D(C   2,C   1,N   0,H   9)   -119.90  0.000013   -0.59   -120.49   
    51. D(O   3,C   2,C   1,N   0)      2.30 -0.000011    0.33      2.63   
    52. D(N   4,C   2,C   1,N   0)   -172.86 -0.000018    0.33   -172.53   
    53. D(O   3,C   2,C   1,H  13)   -117.38 -0.000051    0.38   -117.01   
    54. D(N   4,C   2,C   1,H  12)    -51.37  0.000026    0.39    -50.97   
    55. D(O   3,C   2,C   1,H  12)    123.79  0.000033    0.40    124.19   
    56. D(H  14,N   4,C   2,C   1)    -14.85  0.000033   -0.04    -14.89   
    57. D(C   5,N   4,C   2,O   3)     25.50 -0.000018    0.11     25.62   
    58. D(H  14,N   4,C   2,O   3)    170.42  0.000015   -0.05    170.37   
    59. D(C   5,N   4,C   2,C   1)   -159.77 -0.000000    0.12   -159.65   
    60. D(H  16,C   5,N   4,C   2)   -168.48  0.000031   -0.20   -168.67   
    61. D(H  15,C   5,N   4,H  14)    167.32  0.000008   -0.07    167.25   
    62. D(H  15,C   5,N   4,C   2)    -46.90  0.000024   -0.22    -47.12   
    63. D(C   6,C   5,N   4,H  14)    -75.50  0.000040   -0.05    -75.55   
    64. D(C   6,C   5,N   4,C   2)     70.28  0.000056   -0.20     70.08   
    65. D(O   8,C   6,C   5,H  15)    110.34  0.000040    0.01    110.34   
    66. D(O   8,C   6,C   5,N   4)     -8.69  0.000014    0.03     -8.66   
    67. D(O   7,C   6,C   5,H  16)     49.31  0.000014    0.02     49.33   
    68. D(O   7,C   6,C   5,H  15)    -69.47  0.000004   -0.02    -69.48   
    69. D(O   7,C   6,C   5,N   4)    171.51 -0.000022    0.00    171.51   
    ----------------------------------------------------------------------------

Geometry step timings:
Preparation and reading OPT file:      0.000 s ( 1.090 %)
Internal coordinates            :      0.000 s ( 1.211 %)
B/P matrices and projection     :      0.000 s (37.893 %)
Hessian update/contruction      :      0.000 s (11.743 %)
Making the step                 :      0.000 s (29.056 %)
Converting the step to Cartesian:      0.000 s ( 2.906 %)
Storing new data                :      0.000 s ( 1.211 %)
Checking convergence            :      0.000 s ( 1.453 %)
Final printing                  :      0.000 s (13.438 %)
Total time                      :      0.001 s

Time for energy+gradient        :      0.014 s
Time for complete geometry iter :      0.015 s

         *************************************************************
         *                GEOMETRY OPTIMIZATION CYCLE  21            *
         *************************************************************
---------------------------------
CARTESIAN COORDINATES (ANGSTROEM)
---------------------------------
  N     2.631019    0.318289    0.034256
  C     1.403574    0.450735   -0.770945
  C     0.315685   -0.351358   -0.037235
  O     0.613179   -0.878661    1.033702
  N    -0.844667   -0.492542   -0.678881
  C    -2.030616   -0.822754    0.070994
  C    -2.462734    0.410482    0.955222
  O    -3.561229    0.316245    1.525912
  O    -1.654472    1.354479    0.993865
  H     2.994746    1.217683    0.359555
  H     2.301209   -0.238004    0.866614
  H     3.369735   -0.204068   -0.444914
  H     1.531302    0.063044   -1.780106
  H     1.066284    1.485844   -0.822142
  H    -1.007528    0.114631   -1.470645
  H    -1.817581   -1.644891    0.756224
  H    -2.847906   -1.099153   -0.591476

----------------------------
CARTESIAN COORDINATES (A.U.)
----------------------------
  NO LB    ZA    FRAG    MASS        X           Y           Z
   0 N   7.0000    0    14.007    4.971906    0.601479    0.064735
   1 C   6.0000    0    12.011    2.652370    0.851766   -1.456874
   2 C   6.0000    0    12.011    0.596558   -0.663971   -0.070365
   3 O   8.0000    0    15.999    1.158740   -1.660428    1.953413
   4 N   7.0000    0    14.007   -1.596189   -0.930769   -1.282900
   5 C   6.0000    0    12.011   -3.837307   -1.554780    0.134159
   6 C   6.0000    0    12.011   -4.653893    0.775699    1.805109
   7 O   8.0000    0    15.999   -6.729748    0.597616    2.883557
   8 O   8.0000    0    15.999   -3.126498    2.559594    1.878132
   9 H   1.0000    0     1.008    5.659250    2.301087    0.679461
  10 H   1.0000    0     1.008    4.348654   -0.449763    1.637664
  11 H   1.0000    0     1.008    6.367876   -0.385632   -0.840766
  12 H   1.0000    0     1.008    2.893741    0.119135   -3.363913
  13 H   1.0000    0     1.008    2.014984    2.807837   -1.553623
  14 H   1.0000    0     1.008   -1.903951    0.216621   -2.779115
  15 H   1.0000    0     1.008   -3.434730   -3.108394    1.429055
  16 H   1.0000    0     1.008   -5.381762   -2.077098   -1.117728

      -----------------------------------------------------------      
     |                   =====================                   |     
     |                           x T B                           |     
     |                   =====================                   |     
     |                         S. Grimme                         |     
     |          Mulliken Center for Theoretical Chemistry        |     
     |                    University of Bonn                     |     
      -----------------------------------------------------------      

   * xtb version 6.7.1 (edcfbbe) compiled by 'albert@albert-system' on 2024-07-22

   xtb is free software: you can redistribute it and/or modify it under
   the terms of the GNU Lesser General Public License as published by
   the Free Software Foundation, either version 3 of the License, or
   (at your option) any later version.
   
   xtb is distributed in the hope that it will be useful,
   but WITHOUT ANY WARRANTY; without even the implied warranty of
   MERCHANTABILITY or FITNESS FOR A PARTICULAR PURPOSE.  See the
   GNU Lesser General Public License for more details.
   
   Cite this work as:
   * C. Bannwarth, E. Caldeweyher, S. Ehlert, A. Hansen, P. Pracht,
     J. Seibert, S. Spicher, S. Grimme, WIREs Comput. Mol. Sci., 2020, 11,
     e01493. DOI: 10.1002/wcms.1493
   
   for GFN2-xTB:
   * C. Bannwarth, S. Ehlert and S. Grimme., J. Chem. Theory Comput., 2019,
     15, 1652-1671. DOI: 10.1021/acs.jctc.8b01176
   for GFN1-xTB:
   * S. Grimme, C. Bannwarth, P. Shushkov, J. Chem. Theory Comput., 2017,
     13, 1989-2009. DOI: 10.1021/acs.jctc.7b00118
   for GFN0-xTB:
   * P. Pracht, E. Caldeweyher, S. Ehlert, S. Grimme, ChemRxiv, 2019, preprint.
     DOI: 10.26434/chemrxiv.8326202.v1
   for GFN-FF:
   * S. Spicher and S. Grimme, Angew. Chem. Int. Ed., 2020, 59, 15665-15673.
     DOI: 10.1002/anie.202004239
   
   for ALPB and GBSA implicit solvation:
   * S. Ehlert, M. Stahn, S. Spicher, S. Grimme, J. Chem. Theory Comput.,
     2021, 17, 4250-4261. DOI: 10.1021/acs.jctc.1c00471
   
   for ddCOSMO and CPCM-X implicit solvation:
   * M. Stahn, S. Ehlert, S. Grimme, J. Phys. Chem. A,
     2023, XX, XXXX-XXXX. DOI: 10.1021/acs.jpca.3c04382
   
   for DFT-D4:
   * E. Caldeweyher, C. Bannwarth and S. Grimme, J. Chem. Phys., 2017,
     147, 034112. DOI: 10.1063/1.4993215
   * E. Caldeweyher, S. Ehlert, A. Hansen, H. Neugebauer, S. Spicher,
     C. Bannwarth and S. Grimme, J. Chem. Phys., 2019, 150, 154122.
     DOI: 10.1063/1.5090222
   * E. Caldeweyher, J.-M. Mewes, S. Ehlert and S. Grimme, Phys. Chem. Chem. Phys.
     2020, 22, 8499-8512. DOI: 10.1039/D0CP00502A
   
   for sTDA-xTB:
   * S. Grimme and C. Bannwarth, J. Chem. Phys., 2016, 145, 054103.
     DOI: 10.1063/1.4959605
   
   in the mass-spec context:
   * V. Asgeirsson, C. Bauer and S. Grimme, Chem. Sci., 2017, 8, 4879.
     DOI: 10.1039/c7sc00601b
   * J. Koopman and S. Grimme, ACS Omega 2019, 4, 12, 15120-15133.
     DOI: 10.1021/acsomega.9b02011
   
   for metadynamics refer to:
   * S. Grimme, J. Chem. Theory Comput., 2019, 155, 2847-2862
     DOI: 10.1021/acs.jctc.9b00143
   
   for SPH calculations refer to:
   * S. Spicher and S. Grimme, J. Chem. Theory Comput., 2021, 17, 1701-1714
     DOI: 10.1021/acs.jctc.0c01306
   
   for ONIOM refer to:
   * C. Plett, A. Katbashev, S. Ehlert, S. Grimme, M. Bursch,
     Phys. Chem. Chem. Phys., 2023, 25, 17860-17868. DOI: 10.1039/D3CP02178E
   
   for DIPRO refer to:
   * J. Kohn, N. Gildemeister, S. Grimme, D. Fazzi, A. Hansen,
     J. Chem. Phys., 2023, just accepted.
   
   for PTB refer to:
   * S. Grimme, M. Mueller, A. Hansen, J. Chem. Phys., 2023, 158, 124111.
     DOI: 10.1063/5.0137838
   
   with help from (in alphabetical order)
   P. Atkinson, C. Bannwarth, F. Bohle, G. Brandenburg, E. Caldeweyher
   M. Checinski, S. Dohm, S. Ehlert, S. Ehrlich, I. Gerasimov, C. Hölzer
   A. Katbashev, J. Kohn, J. Koopman, C. Lavigne, S. Lehtola, F. März, M. Müller,
   F. Musil, H. Neugebauer, J. Pisarek, C. Plett, P. Pracht, F. Pultar,
   J. Seibert, P. Shushkov, S. Spicher, M. Stahn, M. Steiner, T. Strunk,
   J. Stückrath, T. Rose, and J. Unsleber
   
 * started run on 2026/04/11 at 16:57:59.456     
   ID    Z sym.   atoms
    1    7 N      1, 5
    2    6 C      2, 3, 6, 7
    3    8 O      4, 8, 9
    4    1 H      10-17

           -------------------------------------------------
          |                Calculation Setup                |
           -------------------------------------------------

          program call               : /home/analima/Programs/orca-6.1.0-f.0_linux_x86-64/bin/otool_xtb geo_opt_XTB.xyz --grad -c 0 -u 0 -P 1 --namespace geo_opt --input geo_opt_XTB.input.tmp --alpb WATER --acc 0.200000
          calculation namespace      : geo_opt
          coordinate file            : geo_opt_XTB.xyz
          omp threads                :                     1


           -------------------------------------------------
          |                 G F N 2 - x T B                 |
           -------------------------------------------------

        Reference                      10.1021/acs.jctc.8b01176
      * Hamiltonian:
        H0-scaling (s, p, d)           1.850000    2.230000    2.230000
        zeta-weighting                 0.500000
      * Dispersion:
        s8                             2.700000
        a1                             0.520000
        a2                             5.000000
        s9                             5.000000
      * Repulsion:
        kExp                           1.500000    1.000000
        rExp                           1.000000
      * Coulomb:
        alpha                          2.000000
        third order                    shell-resolved
        anisotropic                    true
        a3                             3.000000
        a5                             4.000000
        cn-shift                       1.200000
        cn-exp                         4.000000
        max-rad                        5.000000

      * Solvation model:               ALPB
        Solvent                        WATER
        Parameter file                 internal GFN2-xTB/ALPB
        Dielectric constant                8.0200E+01
        Reference state                gsolv [1 M gas/solution]
        Free energy shift                  1.0808E-03 Eh       6.7819E-01 kcal/mol
        Temperature                        2.9815E+02 K
        Density                            1.0000E+00 kg/L
        Solvent mass                       1.8000E+01 g/mol
        Interaction kernel             P16
        Born radius scaling (c1)           1.4744E+00
        Born radii integrator          GBOBC
        Born offset                        0.0000E+00 a0       0.0000E+00 AA
        H-bond correction              true
        Ion screening                  false
        Surface tension                    1.0000E-05 Eh       1.5569E+01 dyn/cm
        Grid points                               230 per atom
q/qsh data taken from xtbrestart
CAMM data taken from xtbrestart

          ...................................................
          :                      SETUP                      :
          :.................................................:
          :  # basis functions                  44          :
          :  # atomic orbitals                  44          :
          :  # shells                           26          :
          :  # electrons                        52          :
          :  max. iterations                   250          :
          :  Hamiltonian                  GFN2-xTB          :
          :  restarted?                       true          :
          :  GBSA solvation                   true          :
          :  PC potential                    false          :
          :  electronic temp.          300.0000000     K    :
          :  accuracy                    0.2000000          :
          :  -> integral cutoff          0.3198970E+02      :
          :  -> integral neglect         0.2000000E-08      :
          :  -> SCF convergence          0.2000000E-06 Eh   :
          :  -> wf. convergence          0.2000000E-04 e    :
          :  Broyden damping             0.4000000          :
          :  net charge                          0          :
          :  unpaired electrons                  0          :
          ...................................................

 iter      E             dE          RMSdq      gap      omega  full diag
   1    -31.0052417 -0.310052E+02  0.118E-02    3.74       0.0  T
   2    -31.0052418 -0.699263E-07  0.679E-03    3.74       3.6  T
   3    -31.0052418  0.570882E-08  0.151E-03    3.74      16.1  T
   4    -31.0052418 -0.142884E-07  0.306E-04    3.74      79.3  T
   5    -31.0052418 -0.397264E-09  0.140E-04    3.74     172.7  T
   6    -31.0052418 -0.978062E-11  0.286E-05    3.74     848.7  T

   *** convergence criteria satisfied after 6 iterations ***

         #    Occupation            Energy/Eh            Energy/eV
      -------------------------------------------------------------
         1        2.0000           -0.7254516             -19.7405
       ...           ...                  ...                  ...
        20        2.0000           -0.4830984             -13.1458
        21        2.0000           -0.4644323             -12.6378
        22        2.0000           -0.4402655             -11.9802
        23        2.0000           -0.4236054             -11.5269
        24        2.0000           -0.4054833             -11.0338
        25        2.0000           -0.3906327             -10.6297
        26        2.0000           -0.3639598              -9.9039 (HOMO)
        27                         -0.2266681              -6.1680 (LUMO)
        28                         -0.1762632              -4.7964
        29                         -0.0476631              -1.2970
        30                          0.0195564               0.5322
        31                          0.0480794               1.3083
       ...                                ...                  ...
        44                          0.6486370              17.6503
      -------------------------------------------------------------
                  HL-Gap            0.1372917 Eh            3.7359 eV
             Fermi-level           -0.2953139 Eh           -8.0359 eV

 SCC (total)                   0 d,  0 h,  0 min,  0.009 sec
 SCC setup                      ...        0 min,  0.000 sec (  3.735%)
 Dispersion                     ...        0 min,  0.000 sec (  0.866%)
 classical contributions        ...        0 min,  0.000 sec (  0.185%)
 integral evaluation            ...        0 min,  0.001 sec (  9.596%)
 iterations                     ...        0 min,  0.006 sec ( 64.483%)
 molecular gradient             ...        0 min,  0.002 sec ( 20.537%)
 printout                       ...        0 min,  0.000 sec (  0.438%)

         :::::::::::::::::::::::::::::::::::::::::::::::::::::
         ::                     SUMMARY                     ::
         :::::::::::::::::::::::::::::::::::::::::::::::::::::
         :: total energy             -30.713724000623 Eh    ::
         :: total w/o Gsasa/hb       -30.702872269491 Eh    ::
         :: gradient norm              0.000499192559 Eh/a0 ::
         :: HOMO-LUMO gap              3.735897645764 eV    ::
         ::.................................................::
         :: SCC energy               -31.005225956817 Eh    ::
         :: -> isotropic ES            0.275743044138 Eh    ::
         :: -> anisotropic ES         -0.020221988529 Eh    ::
         :: -> anisotropic XC          0.006590288954 Eh    ::
         :: -> dispersion             -0.011240770193 Eh    ::
         :: -> Gsolv                  -0.124147939437 Eh    ::
         ::    -> Gelec               -0.113296208306 Eh    ::
         ::    -> Gsasa                0.004274652079 Eh    ::
         ::    -> Ghb                 -0.016207142909 Eh    ::
         ::    -> Gshift               0.001080759698 Eh    ::
         :: repulsion energy           0.291501956194 Eh    ::
         :: add. restraining           0.000000000000 Eh    ::
         :: total charge              -0.000000000000 e     ::
         :::::::::::::::::::::::::::::::::::::::::::::::::::::


Property printout bound to 'properties.out'

           -------------------------------------------------
          | TOTAL ENERGY              -30.713724000623 Eh   |
          | GRADIENT NORM               0.000499192559 Eh/α |
          | HOMO-LUMO GAP               3.735897645764 eV   |
           -------------------------------------------------

------------------------------------------------------------------------
 * finished run on 2026/04/11 at 16:57:59.470     
------------------------------------------------------------------------
 total:
 * wall-time:     0 d,  0 h,  0 min,  0.014 sec
 *  cpu-time:     0 d,  0 h,  0 min,  0.010 sec
 * ratio c/w:     0.746 speedup
 SCF:
 * wall-time:     0 d,  0 h,  0 min,  0.009 sec
 *  cpu-time:     0 d,  0 h,  0 min,  0.005 sec
 * ratio c/w:     0.619 speedup


-------------------------   --------------------
FINAL SINGLE POINT ENERGY       -30.713724000620
-------------------------   --------------------


-------------
DIPOLE MOMENT
-------------
                                X             Y             Z
Total Dipole Moment    :      8.46200      -0.38200      -4.04700
                        -----------------------------------------
Magnitude (a.u.)       :      9.38774
Magnitude (Debye)      :     23.86173


------------------
CARTESIAN GRADIENT
------------------

   1   N   :    0.000009292    0.000036965   -0.000035186
   2   C   :   -0.000086976   -0.000038592    0.000116396
   3   C   :    0.000208700   -0.000005198   -0.000132817
   4   O   :   -0.000079261   -0.000005737   -0.000060875
   5   N   :    0.000101791   -0.000049759    0.000195185
   6   C   :   -0.000160536    0.000094486    0.000064928
   7   C   :    0.000054571   -0.000005924    0.000009326
   8   O   :    0.000069252    0.000001456   -0.000038523
   9   O   :   -0.000098424   -0.000072509   -0.000014067
  10   H   :    0.000008604   -0.000032449    0.000041463
  11   H   :   -0.000010979   -0.000004000   -0.000021195
  12   H   :    0.000015295    0.000015538    0.000018732
  13   H   :   -0.000110356    0.000032790   -0.000032838
  14   H   :    0.000027094    0.000001373   -0.000097007
  15   H   :   -0.000022313    0.000017285    0.000055394
  16   H   :    0.000046448   -0.000004535   -0.000033893
  17   H   :    0.000027797    0.000018811   -0.000035023

Difference to translation invariance:
           :   -0.0000000000   -0.0000000000   -0.0000000000

Difference to rotation invariance:
           :    0.0001923757    0.0004666430    0.0001239955

Norm of the Cartesian gradient     ...    0.0004991926
RMS gradient                       ...    0.0000699009
MAX gradient                       ...    0.0002087002
------------------------------------------------------------------------------
                         ORCA GEOMETRY RELAXATION STEP
------------------------------------------------------------------------------

Reading the OPT-File                    .... done
Getting information on internals        .... done
Copying old internal coords+grads       .... done
Making the new internal coordinates     .... (2022 redundants) done
Validating the new internal coordinates .... (2022 redundants) done
Calculating the B-matrix                .... done
Calculating the G,G- and P matrices     .... done
Transforming gradient to internals      .... done
Projecting the internal gradient        .... done
Number of atoms                         ....  17
Number of internal coordinates          ....  69
Current Energy                          ....   -30.713724001 Eh
Current gradient norm                   ....     0.000499193 Eh/bohr
Maximum allowed component of the step   ....  0.300
Current trust radius                    ....  0.467
Updating the Hessian (BFGS)             .... done
Forming the augmented Hessian           .... done
Diagonalizing the augmented Hessian     .... done
Last element of RFO vector              ....  0.993068911
Lowest eigenvalues of augmented Hessian:
 -0.000004752  0.000247178  0.002603218  0.005672084  0.010205828
Length of the computed step             ....  0.118353885
The final length of the internal step   ....  0.118353885
Converting the step to Cartesian space:
 Initial RMS(Int)=    0.0142481335
Transforming coordinates:
 Iter   0:  RMS(Cart)=    0.0209443191 RMS(Int)=    0.0142417305
done
Storing new coordinates                 .... done
The predicted energy change is          ....    -0.000002409
Previously predicted energy change      ....    -0.000000873
Actually observed energy change         ....    -0.000001436
Ratio of predicted to observed change   ....     1.645670114
New trust radius                        ....     0.311111111

                                .--------------------.
          ----------------------|Geometry convergence|-------------------------
          Item                value                   Tolerance       Converged
          ---------------------------------------------------------------------
          Energy change      -0.0000014361            0.0000050000      YES
          RMS gradient        0.0000587752            0.0001000000      YES
          MAX gradient        0.0002462476            0.0003000000      YES
          RMS step            0.0142481335            0.0020000000      NO
          MAX step            0.0463105714            0.0040000000      NO
          -------------------------------------------------------------------------
          ........................................................
          Max(Bonds)      0.0047      Max(Angles)    0.25
          Max(Dihed)        2.65      Max(Improp)    0.00
          ---------------------------------------------------------------------

The optimization has not yet converged - more geometry cycles are needed


    ---------------------------------------------------------------------------
                         Redundant Internal Coordinates
                            (Angstroem and degrees)

        Definition                    Value    dE/dq     Step     New-Value
    ----------------------------------------------------------------------------
     1. B(C   1,N   0)                1.4739  0.000037 -0.0001    1.4739   
     2. B(C   2,C   1)                1.5379 -0.000108 -0.0001    1.5379   
     3. B(O   3,C   2)                1.2302 -0.000067 -0.0002    1.2300   
     4. B(N   4,C   2)                1.3334 -0.000090  0.0003    1.3337   
     5. B(C   5,N   4)                1.4415  0.000004  0.0004    1.4418   
     6. B(C   6,C   5)                1.5778 -0.000093  0.0001    1.5779   
     7. B(O   7,C   6)                1.2415 -0.000081 -0.0001    1.2414   
     8. B(O   8,C   6)                1.2433 -0.000118 -0.0000    1.2433   
     9. B(H   9,N   0)                1.0232 -0.000010  0.0000    1.0232   
    10. B(H  10,N   0)                1.0541 -0.000008 -0.0005    1.0536   
    11. B(H  10,O   3)                1.8132 -0.000005  0.0047    1.8179   
    12. B(H  11,N   0)                1.0238 -0.000009  0.0002    1.0240   
    13. B(H  12,C   1)                1.0886  0.000005 -0.0001    1.0885   
    14. B(H  13,C   1)                1.0899 -0.000007  0.0002    1.0901   
    15. B(H  14,N   4)                1.0110 -0.000031  0.0001    1.0110   
    16. B(H  15,C   5)                1.0913 -0.000011  0.0000    1.0913   
    17. B(H  16,C   5)                1.0878 -0.000003 -0.0000    1.0877   
    18. A(H  10,N   0,H  11)          109.03 -0.000008   -0.25    108.78   
    19. A(H   9,N   0,H  11)          109.92 -0.000032    0.02    109.94   
    20. A(C   1,N   0,H  10)          102.61 -0.000042    0.07    102.67   
    21. A(H   9,N   0,H  10)          108.91 -0.000021    0.20    109.11   
    22. A(C   1,N   0,H   9)          113.00  0.000052    0.09    113.09   
    23. A(C   1,N   0,H  11)          113.02  0.000046   -0.12    112.90   
    24. A(N   0,C   1,H  13)          111.64  0.000007   -0.08    111.55   
    25. A(C   2,C   1,H  12)          109.85 -0.000042    0.18    110.03   
    26. A(H  12,C   1,H  13)          109.33 -0.000108   -0.01    109.32   
    27. A(C   2,C   1,H  13)          107.39  0.000102   -0.20    107.19   
    28. A(N   0,C   1,C   2)          106.36 -0.000039    0.04    106.39   
    29. A(N   0,C   1,H  12)          112.13  0.000083    0.08    112.21   
    30. A(C   1,C   2,N   4)          116.18 -0.000056   -0.05    116.13   
    31. A(C   1,C   2,O   3)          117.89  0.000118    0.03    117.92   
    32. A(O   3,C   2,N   4)          125.73 -0.000061    0.03    125.76   
    33. A(C   5,N   4,H  14)          114.36 -0.000132   -0.09    114.27   
    34. A(C   2,N   4,C   5)          119.33  0.000246   -0.05    119.28   
    35. A(C   2,N   4,H  14)          116.97 -0.000084    0.00    116.97   
    36. A(C   6,C   5,H  16)          109.52 -0.000006    0.04    109.56   
    37. A(N   4,C   5,H  16)          111.07 -0.000061   -0.01    111.06   
    38. A(C   6,C   5,H  15)          106.88  0.000052    0.08    106.96   
    39. A(N   4,C   5,C   6)          109.74  0.000039   -0.05    109.69   
    40. A(N   4,C   5,H  15)          109.79 -0.000056   -0.05    109.75   
    41. A(H  15,C   5,H  16)          109.73  0.000036   -0.00    109.73   
    42. A(C   5,C   6,O   7)          116.14 -0.000015    0.01    116.15   
    43. A(O   7,C   6,O   8)          128.21 -0.000007    0.01    128.22   
    44. A(C   5,C   6,O   8)          115.65  0.000023   -0.02    115.63   
    45. D(H  12,C   1,N   0,H   9)    119.42  0.000049   -2.65    116.77   
    46. D(H  12,C   1,N   0,H  11)     -6.21  0.000010   -2.65     -8.86   
    47. D(C   2,C   1,N   0,H  10)     -3.38 -0.000006   -2.05     -5.44   
    48. D(H  12,C   1,N   0,H  10)   -123.47  0.000023   -2.34   -125.81   
    49. D(C   2,C   1,N   0,H  11)    113.88 -0.000018   -2.37    111.51   
    50. D(C   2,C   1,N   0,H   9)   -120.49  0.000020   -2.36   -122.86   
    51. D(O   3,C   2,C   1,N   0)      2.63 -0.000011    1.30      3.94   
    52. D(N   4,C   2,C   1,N   0)   -172.53 -0.000026    1.25   -171.28   
    53. D(O   3,C   2,C   1,H  13)   -117.01 -0.000051    1.49   -115.52   
    54. D(N   4,C   2,C   1,H  12)    -50.97  0.000027    1.46    -49.51   
    55. D(O   3,C   2,C   1,H  12)    124.19  0.000042    1.52    125.71   
    56. D(H  14,N   4,C   2,C   1)    -14.89  0.000019   -0.07    -14.97   
    57. D(C   5,N   4,C   2,O   3)     25.62 -0.000009    0.15     25.77   
    58. D(H  14,N   4,C   2,O   3)    170.37 -0.000007   -0.13    170.24   
    59. D(C   5,N   4,C   2,C   1)   -159.65  0.000017    0.21   -159.44   
    60. D(H  16,C   5,N   4,C   2)   -168.67  0.000033   -0.37   -169.04   
    61. D(H  15,C   5,N   4,H  14)    167.25 -0.000012   -0.17    167.08   
    62. D(H  15,C   5,N   4,C   2)    -47.12  0.000001   -0.41    -47.53   
    63. D(C   6,C   5,N   4,H  14)    -75.55  0.000041   -0.13    -75.68   
    64. D(C   6,C   5,N   4,C   2)     70.08  0.000054   -0.37     69.71   
    65. D(O   8,C   6,C   5,H  15)    110.34  0.000032    0.05    110.39   
    66. D(O   8,C   6,C   5,N   4)     -8.66  0.000048    0.09     -8.58   
    67. D(O   7,C   6,C   5,H  16)     49.33  0.000030    0.08     49.41   
    68. D(O   7,C   6,C   5,H  15)    -69.48 -0.000039    0.01    -69.47   
    69. D(O   7,C   6,C   5,N   4)    171.51 -0.000024    0.05    171.56   
    ----------------------------------------------------------------------------

Geometry step timings:
Preparation and reading OPT file:      0.000 s ( 1.099 %)
Internal coordinates            :      0.000 s ( 1.099 %)
B/P matrices and projection     :      0.000 s (36.970 %)
Hessian update/contruction      :      0.000 s (11.695 %)
Making the step                 :      0.000 s (28.414 %)
Converting the step to Cartesian:      0.000 s ( 2.904 %)
Storing new data                :      0.000 s ( 1.256 %)
Checking convergence            :      0.000 s ( 1.648 %)
Final printing                  :      0.000 s (14.914 %)
Total time                      :      0.001 s

Time for energy+gradient        :      0.018 s
Time for complete geometry iter :      0.020 s

         *************************************************************
         *                GEOMETRY OPTIMIZATION CYCLE  22            *
         *************************************************************
---------------------------------
CARTESIAN COORDINATES (ANGSTROEM)
---------------------------------
  N     2.633461    0.313775    0.030232
  C     1.400469    0.459997   -0.763862
  C     0.314999   -0.346259   -0.031368
  O     0.610910   -0.866692    1.043099
  N    -0.841708   -0.496918   -0.678003
  C    -2.029526   -0.827392    0.069470
  C    -2.464306    0.407586    0.950161
  O    -3.563520    0.313823    1.519377
  O    -1.657103    1.352525    0.987048
  H     3.025482    1.209742    0.331236
  H     2.301440   -0.219104    0.876356
  H     3.351442   -0.238988   -0.446733
  H     1.519029    0.088429   -1.780043
  H     1.065251    1.496795   -0.795843
  H    -1.005116    0.107218   -1.472040
  H    -1.816678   -1.648697    0.755795
  H    -2.844526   -1.105841   -0.594881

----------------------------
CARTESIAN COORDINATES (A.U.)
----------------------------
  NO LB    ZA    FRAG    MASS        X           Y           Z
   0 N   7.0000    0    14.007    4.976521    0.592949    0.057130
   1 C   6.0000    0    12.011    2.646503    0.869268   -1.443490
   2 C   6.0000    0    12.011    0.595261   -0.654334   -0.059276
   3 O   8.0000    0    15.999    1.154452   -1.637810    1.971171
   4 N   7.0000    0    14.007   -1.590597   -0.939040   -1.281241
   5 C   6.0000    0    12.011   -3.835248   -1.563544    0.131279
   6 C   6.0000    0    12.011   -4.656863    0.770226    1.795544
   7 O   8.0000    0    15.999   -6.734077    0.593039    2.871206
   8 O   8.0000    0    15.999   -3.131471    2.555903    1.865250
   9 H   1.0000    0     1.008    5.717333    2.286081    0.625945
  10 H   1.0000    0     1.008    4.349091   -0.414047    1.656072
  11 H   1.0000    0     1.008    6.333308   -0.451621   -0.844202
  12 H   1.0000    0     1.008    2.870548    0.167107   -3.363794
  13 H   1.0000    0     1.008    2.013033    2.828533   -1.503925
  14 H   1.0000    0     1.008   -1.899395    0.202612   -2.781753
  15 H   1.0000    0     1.008   -3.433023   -3.115586    1.428246
  16 H   1.0000    0     1.008   -5.375376   -2.089736   -1.124163

      -----------------------------------------------------------      
     |                   =====================                   |     
     |                           x T B                           |     
     |                   =====================                   |     
     |                         S. Grimme                         |     
     |          Mulliken Center for Theoretical Chemistry        |     
     |                    University of Bonn                     |     
      -----------------------------------------------------------      

   * xtb version 6.7.1 (edcfbbe) compiled by 'albert@albert-system' on 2024-07-22

   xtb is free software: you can redistribute it and/or modify it under
   the terms of the GNU Lesser General Public License as published by
   the Free Software Foundation, either version 3 of the License, or
   (at your option) any later version.
   
   xtb is distributed in the hope that it will be useful,
   but WITHOUT ANY WARRANTY; without even the implied warranty of
   MERCHANTABILITY or FITNESS FOR A PARTICULAR PURPOSE.  See the
   GNU Lesser General Public License for more details.
   
   Cite this work as:
   * C. Bannwarth, E. Caldeweyher, S. Ehlert, A. Hansen, P. Pracht,
     J. Seibert, S. Spicher, S. Grimme, WIREs Comput. Mol. Sci., 2020, 11,
     e01493. DOI: 10.1002/wcms.1493
   
   for GFN2-xTB:
   * C. Bannwarth, S. Ehlert and S. Grimme., J. Chem. Theory Comput., 2019,
     15, 1652-1671. DOI: 10.1021/acs.jctc.8b01176
   for GFN1-xTB:
   * S. Grimme, C. Bannwarth, P. Shushkov, J. Chem. Theory Comput., 2017,
     13, 1989-2009. DOI: 10.1021/acs.jctc.7b00118
   for GFN0-xTB:
   * P. Pracht, E. Caldeweyher, S. Ehlert, S. Grimme, ChemRxiv, 2019, preprint.
     DOI: 10.26434/chemrxiv.8326202.v1
   for GFN-FF:
   * S. Spicher and S. Grimme, Angew. Chem. Int. Ed., 2020, 59, 15665-15673.
     DOI: 10.1002/anie.202004239
   
   for ALPB and GBSA implicit solvation:
   * S. Ehlert, M. Stahn, S. Spicher, S. Grimme, J. Chem. Theory Comput.,
     2021, 17, 4250-4261. DOI: 10.1021/acs.jctc.1c00471
   
   for ddCOSMO and CPCM-X implicit solvation:
   * M. Stahn, S. Ehlert, S. Grimme, J. Phys. Chem. A,
     2023, XX, XXXX-XXXX. DOI: 10.1021/acs.jpca.3c04382
   
   for DFT-D4:
   * E. Caldeweyher, C. Bannwarth and S. Grimme, J. Chem. Phys., 2017,
     147, 034112. DOI: 10.1063/1.4993215
   * E. Caldeweyher, S. Ehlert, A. Hansen, H. Neugebauer, S. Spicher,
     C. Bannwarth and S. Grimme, J. Chem. Phys., 2019, 150, 154122.
     DOI: 10.1063/1.5090222
   * E. Caldeweyher, J.-M. Mewes, S. Ehlert and S. Grimme, Phys. Chem. Chem. Phys.
     2020, 22, 8499-8512. DOI: 10.1039/D0CP00502A
   
   for sTDA-xTB:
   * S. Grimme and C. Bannwarth, J. Chem. Phys., 2016, 145, 054103.
     DOI: 10.1063/1.4959605
   
   in the mass-spec context:
   * V. Asgeirsson, C. Bauer and S. Grimme, Chem. Sci., 2017, 8, 4879.
     DOI: 10.1039/c7sc00601b
   * J. Koopman and S. Grimme, ACS Omega 2019, 4, 12, 15120-15133.
     DOI: 10.1021/acsomega.9b02011
   
   for metadynamics refer to:
   * S. Grimme, J. Chem. Theory Comput., 2019, 155, 2847-2862
     DOI: 10.1021/acs.jctc.9b00143
   
   for SPH calculations refer to:
   * S. Spicher and S. Grimme, J. Chem. Theory Comput., 2021, 17, 1701-1714
     DOI: 10.1021/acs.jctc.0c01306
   
   for ONIOM refer to:
   * C. Plett, A. Katbashev, S. Ehlert, S. Grimme, M. Bursch,
     Phys. Chem. Chem. Phys., 2023, 25, 17860-17868. DOI: 10.1039/D3CP02178E
   
   for DIPRO refer to:
   * J. Kohn, N. Gildemeister, S. Grimme, D. Fazzi, A. Hansen,
     J. Chem. Phys., 2023, just accepted.
   
   for PTB refer to:
   * S. Grimme, M. Mueller, A. Hansen, J. Chem. Phys., 2023, 158, 124111.
     DOI: 10.1063/5.0137838
   
   with help from (in alphabetical order)
   P. Atkinson, C. Bannwarth, F. Bohle, G. Brandenburg, E. Caldeweyher
   M. Checinski, S. Dohm, S. Ehlert, S. Ehrlich, I. Gerasimov, C. Hölzer
   A. Katbashev, J. Kohn, J. Koopman, C. Lavigne, S. Lehtola, F. März, M. Müller,
   F. Musil, H. Neugebauer, J. Pisarek, C. Plett, P. Pracht, F. Pultar,
   J. Seibert, P. Shushkov, S. Spicher, M. Stahn, M. Steiner, T. Strunk,
   J. Stückrath, T. Rose, and J. Unsleber
   
 * started run on 2026/04/11 at 16:57:59.477     
   ID    Z sym.   atoms
    1    7 N      1, 5
    2    6 C      2, 3, 6, 7
    3    8 O      4, 8, 9
    4    1 H      10-17

           -------------------------------------------------
          |                Calculation Setup                |
           -------------------------------------------------

          program call               : /home/analima/Programs/orca-6.1.0-f.0_linux_x86-64/bin/otool_xtb geo_opt_XTB.xyz --grad -c 0 -u 0 -P 1 --namespace geo_opt --input geo_opt_XTB.input.tmp --alpb WATER --acc 0.200000
          calculation namespace      : geo_opt
          coordinate file            : geo_opt_XTB.xyz
          omp threads                :                     1


           -------------------------------------------------
          |                 G F N 2 - x T B                 |
           -------------------------------------------------

        Reference                      10.1021/acs.jctc.8b01176
      * Hamiltonian:
        H0-scaling (s, p, d)           1.850000    2.230000    2.230000
        zeta-weighting                 0.500000
      * Dispersion:
        s8                             2.700000
        a1                             0.520000
        a2                             5.000000
        s9                             5.000000
      * Repulsion:
        kExp                           1.500000    1.000000
        rExp                           1.000000
      * Coulomb:
        alpha                          2.000000
        third order                    shell-resolved
        anisotropic                    true
        a3                             3.000000
        a5                             4.000000
        cn-shift                       1.200000
        cn-exp                         4.000000
        max-rad                        5.000000

      * Solvation model:               ALPB
        Solvent                        WATER
        Parameter file                 internal GFN2-xTB/ALPB
        Dielectric constant                8.0200E+01
        Reference state                gsolv [1 M gas/solution]
        Free energy shift                  1.0808E-03 Eh       6.7819E-01 kcal/mol
        Temperature                        2.9815E+02 K
        Density                            1.0000E+00 kg/L
        Solvent mass                       1.8000E+01 g/mol
        Interaction kernel             P16
        Born radius scaling (c1)           1.4744E+00
        Born radii integrator          GBOBC
        Born offset                        0.0000E+00 a0       0.0000E+00 AA
        H-bond correction              true
        Ion screening                  false
        Surface tension                    1.0000E-05 Eh       1.5569E+01 dyn/cm
        Grid points                               230 per atom
q/qsh data taken from xtbrestart
CAMM data taken from xtbrestart

          ...................................................
          :                      SETUP                      :
          :.................................................:
          :  # basis functions                  44          :
          :  # atomic orbitals                  44          :
          :  # shells                           26          :
          :  # electrons                        52          :
          :  max. iterations                   250          :
          :  Hamiltonian                  GFN2-xTB          :
          :  restarted?                       true          :
          :  GBSA solvation                   true          :
          :  PC potential                    false          :
          :  electronic temp.          300.0000000     K    :
          :  accuracy                    0.2000000          :
          :  -> integral cutoff          0.3198970E+02      :
          :  -> integral neglect         0.2000000E-08      :
          :  -> SCF convergence          0.2000000E-06 Eh   :
          :  -> wf. convergence          0.2000000E-04 e    :
          :  Broyden damping             0.4000000          :
          :  net charge                          0          :
          :  unpaired electrons                  0          :
          ...................................................

 iter      E             dE          RMSdq      gap      omega  full diag
   1    -31.0052519 -0.310053E+02  0.443E-02    3.74       0.0  T
   2    -31.0052523 -0.366175E-06  0.258E-02    3.74       1.0  T
   3    -31.0052523  0.435541E-08  0.303E-03    3.74       8.0  T
   4    -31.0052524 -0.855609E-07  0.100E-03    3.74      24.1  T
   5    -31.0052524 -0.200244E-08  0.430E-04    3.74      56.3  T
   6    -31.0052524 -0.134026E-09  0.814E-05    3.74     297.9  T
   7    -31.0052524 -0.108500E-10  0.348E-05    3.74     697.2  T

   *** convergence criteria satisfied after 7 iterations ***

         #    Occupation            Energy/Eh            Energy/eV
      -------------------------------------------------------------
         1        2.0000           -0.7253701             -19.7383
       ...           ...                  ...                  ...
        20        2.0000           -0.4830450             -13.1443
        21        2.0000           -0.4644521             -12.6384
        22        2.0000           -0.4401717             -11.9777
        23        2.0000           -0.4234187             -11.5218
        24        2.0000           -0.4055146             -11.0346
        25        2.0000           -0.3906704             -10.6307
        26        2.0000           -0.3639842              -9.9045 (HOMO)
        27                         -0.2265563              -6.1649 (LUMO)
        28                         -0.1762672              -4.7965
        29                         -0.0476523              -1.2967
        30                          0.0196853               0.5357
        31                          0.0481199               1.3094
       ...                                ...                  ...
        44                          0.6488342              17.6557
      -------------------------------------------------------------
                  HL-Gap            0.1374279 Eh            3.7396 eV
             Fermi-level           -0.2952702 Eh           -8.0347 eV

 SCC (total)                   0 d,  0 h,  0 min,  0.008 sec
 SCC setup                      ...        0 min,  0.000 sec (  3.653%)
 Dispersion                     ...        0 min,  0.000 sec (  0.828%)
 classical contributions        ...        0 min,  0.000 sec (  0.191%)
 integral evaluation            ...        0 min,  0.001 sec ( 14.641%)
 iterations                     ...        0 min,  0.004 sec ( 50.335%)
 molecular gradient             ...        0 min,  0.002 sec ( 29.710%)
 printout                       ...        0 min,  0.000 sec (  0.468%)

         :::::::::::::::::::::::::::::::::::::::::::::::::::::
         ::                     SUMMARY                     ::
         :::::::::::::::::::::::::::::::::::::::::::::::::::::
         :: total energy             -30.713728357317 Eh    ::
         :: total w/o Gsasa/hb       -30.702855441066 Eh    ::
         :: gradient norm              0.000861952574 Eh/a0 ::
         :: HOMO-LUMO gap              3.739602253873 eV    ::
         ::.................................................::
         :: SCC energy               -31.005236834925 Eh    ::
         :: -> isotropic ES            0.275934332776 Eh    ::
         :: -> anisotropic ES         -0.020271733378 Eh    ::
         :: -> anisotropic XC          0.006605750669 Eh    ::
         :: -> dispersion             -0.011247539941 Eh    ::
         :: -> Gsolv                  -0.124315751598 Eh    ::
         ::    -> Gelec               -0.113442835347 Eh    ::
         ::    -> Gsasa                0.004262854792 Eh    ::
         ::    -> Ghb                 -0.016216530741 Eh    ::
         ::    -> Gshift               0.001080759698 Eh    ::
         :: repulsion energy           0.291508477607 Eh    ::
         :: add. restraining           0.000000000000 Eh    ::
         :: total charge              -0.000000000000 e     ::
         :::::::::::::::::::::::::::::::::::::::::::::::::::::


Property printout bound to 'properties.out'

           -------------------------------------------------
          | TOTAL ENERGY              -30.713728357317 Eh   |
          | GRADIENT NORM               0.000861952574 Eh/α |
          | HOMO-LUMO GAP               3.739602253873 eV   |
           -------------------------------------------------

------------------------------------------------------------------------
 * finished run on 2026/04/11 at 16:57:59.491     
------------------------------------------------------------------------
 total:
 * wall-time:     0 d,  0 h,  0 min,  0.014 sec
 *  cpu-time:     0 d,  0 h,  0 min,  0.012 sec
 * ratio c/w:     0.871 speedup
 SCF:
 * wall-time:     0 d,  0 h,  0 min,  0.008 sec
 *  cpu-time:     0 d,  0 h,  0 min,  0.007 sec
 * ratio c/w:     0.809 speedup


-------------------------   --------------------
FINAL SINGLE POINT ENERGY       -30.713728357320
-------------------------   --------------------


-------------
DIPOLE MOMENT
-------------
                                X             Y             Z
Total Dipole Moment    :      8.47500      -0.39300      -4.04400
                        -----------------------------------------
Magnitude (a.u.)       :      9.39862
Magnitude (Debye)      :     23.88939


------------------
CARTESIAN GRADIENT
------------------

   1   N   :   -0.000132878   -0.000041871   -0.000128237
   2   C   :   -0.000080206   -0.000028765    0.000106610
   3   C   :    0.000245239   -0.000137186    0.000091614
   4   O   :   -0.000081734    0.000074286   -0.000128172
   5   N   :    0.000374146   -0.000021769    0.000139071
   6   C   :   -0.000431061    0.000123911    0.000106880
   7   C   :    0.000057394    0.000106412    0.000094222
   8   O   :    0.000125541    0.000002108   -0.000091115
   9   O   :   -0.000116198   -0.000124071   -0.000046864
  10   H   :   -0.000048633   -0.000026670    0.000065048
  11   H   :    0.000049579    0.000045660    0.000010953
  12   H   :    0.000080908    0.000002093    0.000058008
  13   H   :   -0.000109952    0.000072910   -0.000055254
  14   H   :    0.000029862    0.000009796   -0.000113490
  15   H   :   -0.000146008    0.000019456    0.000055080
  16   H   :    0.000127384   -0.000071801   -0.000116805
  17   H   :    0.000056615   -0.000004498   -0.000047548

Difference to translation invariance:
           :    0.0000000000   -0.0000000000    0.0000000000

Difference to rotation invariance:
           :    0.0001807274    0.0002833285    0.0003575901

Norm of the Cartesian gradient     ...    0.0008619526
RMS gradient                       ...    0.0001206975
MAX gradient                       ...    0.0004310607
------------------------------------------------------------------------------
                         ORCA GEOMETRY RELAXATION STEP
------------------------------------------------------------------------------

Reading the OPT-File                    .... done
Getting information on internals        .... done
Copying old internal coords+grads       .... done
Making the new internal coordinates     .... (2022 redundants) done
Validating the new internal coordinates .... (2022 redundants) done
Calculating the B-matrix                .... done
Calculating the G,G- and P matrices     .... done
Transforming gradient to internals      .... done
Projecting the internal gradient        .... done
Number of atoms                         ....  17
Number of internal coordinates          ....  69
Current Energy                          ....   -30.713728357 Eh
Current gradient norm                   ....     0.000861953 Eh/bohr
Maximum allowed component of the step   ....  0.300
Current trust radius                    ....  0.311
Updating the Hessian (BFGS)             .... done
Forming the augmented Hessian           .... done
Diagonalizing the augmented Hessian     .... done
Last element of RFO vector              ....  0.766408724
Lowest eigenvalues of augmented Hessian:
 -0.000031751  0.000042235  0.002773599  0.008201889  0.010446299
Length of the computed step             ....  0.838134022
Warning: the length of the step is outside the trust region - taking restricted step instead
The input lambda is                     ....    -0.000988
   iter:   5  x=-106104494165181625008128.000000  g=   -0.000000 f(x)=    -0.096790
The lambda equations have not converged!
Evaluating lambda by bisection method.
   iter   5 best     0.001213 lambda    -0.156238
   iter  10 best     0.008055 lambda    -0.004871
   iter  15 best     0.238742 lambda    -0.000141
   iter  20 best     0.231510 lambda    -0.000146
   iter  25 best     0.238509 lambda    -0.000141
   iter  30 best     0.238735 lambda    -0.000141
   iter  35 best     0.238742 lambda    -0.000141
   iter  40 best     0.238742 lambda    -0.000141
   iter  45 best     0.238742 lambda    -0.000141
The output lambda is                    ....    -0.000141
The ideal lambda was not found, but a reduced step is possible.
The final length of the internal step   ....  0.238742140
Converting the step to Cartesian space:
 Initial RMS(Int)=    0.0287411762
Transforming coordinates:
 Iter   0:  RMS(Cart)=    0.0432521359 RMS(Int)=    0.0286988889
 Iter   5:  RMS(Cart)=    0.0000000302 RMS(Int)=    0.0000000248
done
Storing new coordinates                 .... done
The predicted energy change is          ....    -0.000008973
Previously predicted energy change      ....    -0.000002409
Actually observed energy change         ....    -0.000004357
Ratio of predicted to observed change   ....     1.808239730
New trust radius                        ....     0.207407407

                                .--------------------.
          ----------------------|Geometry convergence|-------------------------
          Item                value                   Tolerance       Converged
          ---------------------------------------------------------------------
          Energy change      -0.0000043567            0.0000050000      YES
          RMS gradient        0.0000849722            0.0001000000      YES
          MAX gradient        0.0002469108            0.0003000000      YES
          RMS step            0.0287411762            0.0020000000      NO
          MAX step            0.0937155937            0.0040000000      NO
          -------------------------------------------------------------------------
          ........................................................
          Max(Bonds)      0.0095      Max(Angles)    0.50
          Max(Dihed)        5.37      Max(Improp)    0.00
          ---------------------------------------------------------------------

The optimization has not yet converged - more geometry cycles are needed


    ---------------------------------------------------------------------------
                         Redundant Internal Coordinates
                            (Angstroem and degrees)

        Definition                    Value    dE/dq     Step     New-Value
    ----------------------------------------------------------------------------
     1. B(C   1,N   0)                1.4739 -0.000019 -0.0002    1.4737   
     2. B(C   2,C   1)                1.5378 -0.000117 -0.0001    1.5377   
     3. B(O   3,C   2)                1.2300 -0.000161 -0.0003    1.2296   
     4. B(N   4,C   2)                1.3337 -0.000076  0.0005    1.3342   
     5. B(C   5,N   4)                1.4418  0.000076  0.0005    1.4424   
     6. B(C   6,C   5)                1.5779 -0.000047  0.0002    1.5781   
     7. B(O   7,C   6)                1.2414 -0.000156 -0.0001    1.2413   
     8. B(O   8,C   6)                1.2433 -0.000166  0.0000    1.2433   
     9. B(H   9,N   0)                1.0232 -0.000025  0.0001    1.0233   
    10. B(H  10,N   0)                1.0536 -0.000030 -0.0008    1.0528   
    11. B(H  10,O   3)                1.8180 -0.000010  0.0095    1.8274   
    12. B(H  11,N   0)                1.0240  0.000029  0.0003    1.0243   
    13. B(H  12,C   1)                1.0885  0.000016 -0.0003    1.0882   
    14. B(H  13,C   1)                1.0901 -0.000002  0.0005    1.0906   
    15. B(H  14,N   4)                1.0110 -0.000009  0.0001    1.0111   
    16. B(H  15,C   5)                1.0913  0.000002  0.0001    1.0913   
    17. B(H  16,C   5)                1.0877 -0.000011 -0.0001    1.0876   
    18. A(H  10,N   0,H  11)          108.78 -0.000055   -0.50    108.29   
    19. A(H   9,N   0,H  11)          109.94 -0.000037    0.03    109.97   
    20. A(C   1,N   0,H  10)          102.66  0.000050    0.11    102.77   
    21. A(H   9,N   0,H  10)          109.11 -0.000079    0.43    109.54   
    22. A(C   1,N   0,H   9)          113.09 -0.000034    0.19    113.28   
    23. A(C   1,N   0,H  11)          112.90  0.000150   -0.27    112.64   
    24. A(N   0,C   1,H  13)          111.56  0.000009   -0.16    111.39   
    25. A(C   2,C   1,H  12)          110.04 -0.000012    0.39    110.42   
    26. A(H  12,C   1,H  13)          109.32 -0.000136    0.01    109.32   
    27. A(C   2,C   1,H  13)          107.19  0.000117   -0.41    106.78   
    28. A(N   0,C   1,C   2)          106.37 -0.000092    0.04    106.41   
    29. A(N   0,C   1,H  12)          112.21  0.000118    0.13    112.34   
    30. A(C   1,C   2,N   4)          116.13 -0.000183   -0.07    116.06   
    31. A(C   1,C   2,O   3)          117.91  0.000148    0.02    117.93   
    32. A(O   3,C   2,N   4)          125.76  0.000038    0.06    125.82   
    33. A(C   5,N   4,H  14)          114.27 -0.000238   -0.12    114.14   
    34. A(C   2,N   4,C   5)          119.28  0.000247   -0.11    119.17   
    35. A(C   2,N   4,H  14)          116.97  0.000000    0.02    116.99   
    36. A(C   6,C   5,H  16)          109.56  0.000069    0.06    109.62   
    37. A(N   4,C   5,H  16)          111.06 -0.000043   -0.01    111.05   
    38. A(C   6,C   5,H  15)          106.96  0.000176    0.11    107.08   
    39. A(N   4,C   5,C   6)          109.69 -0.000098   -0.08    109.61   
    40. A(N   4,C   5,H  15)          109.75 -0.000121   -0.07    109.68   
    41. A(H  15,C   5,H  16)          109.73  0.000026   -0.01    109.72   
    42. A(C   5,C   6,O   7)          116.15 -0.000001    0.02    116.17   
    43. A(O   7,C   6,O   8)          128.22  0.000025    0.01    128.23   
    44. A(C   5,C   6,O   8)          115.63 -0.000024   -0.03    115.60   
    45. D(H  12,C   1,N   0,H   9)    116.77  0.000057   -5.37    111.40   
    46. D(H  12,C   1,N   0,H  11)     -8.86  0.000011   -5.35    -14.22   
    47. D(C   2,C   1,N   0,H  10)     -5.44 -0.000030   -4.13     -9.57   
    48. D(H  12,C   1,N   0,H  10)   -125.81 -0.000023   -4.70   -130.51   
    49. D(C   2,C   1,N   0,H  11)    111.51  0.000005   -4.78    106.73   
    50. D(C   2,C   1,N   0,H   9)   -122.86  0.000051   -4.80   -127.66   
    51. D(O   3,C   2,C   1,N   0)      3.94 -0.000024    2.66      6.60   
    52. D(N   4,C   2,C   1,N   0)   -171.28 -0.000069    2.58   -168.70   
    53. D(O   3,C   2,C   1,H  13)   -115.52 -0.000047    3.04   -112.48   
    54. D(N   4,C   2,C   1,H  12)    -49.51  0.000010    2.98    -46.53   
    55. D(O   3,C   2,C   1,H  12)    125.71  0.000055    3.06    128.77   
    56. D(H  14,N   4,C   2,C   1)    -14.97 -0.000014   -0.12    -15.08   
    57. D(C   5,N   4,C   2,O   3)     25.77  0.000001    0.21     25.98   
    58. D(H  14,N   4,C   2,O   3)    170.24 -0.000068   -0.20    170.04   
    59. D(C   5,N   4,C   2,C   1)   -159.44  0.000055    0.30   -159.14   
    60. D(H  16,C   5,N   4,C   2)   -169.04  0.000028   -0.54   -169.58   
    61. D(H  15,C   5,N   4,H  14)    167.08 -0.000057   -0.26    166.83   
    62. D(H  15,C   5,N   4,C   2)    -47.53 -0.000049   -0.61    -48.14   
    63. D(C   6,C   5,N   4,H  14)    -75.68  0.000027   -0.21    -75.88   
    64. D(C   6,C   5,N   4,C   2)     69.71  0.000035   -0.56     69.15   
    65. D(O   8,C   6,C   5,H  15)    110.39  0.000001    0.03    110.42   
    66. D(O   8,C   6,C   5,N   4)     -8.58  0.000098    0.09     -8.48   
    67. D(O   7,C   6,C   5,H  16)     49.41  0.000060    0.07     49.48   
    68. D(O   7,C   6,C   5,H  15)    -69.47 -0.000110   -0.01    -69.48   
    69. D(O   7,C   6,C   5,N   4)    171.56 -0.000013    0.05    171.61   
    ----------------------------------------------------------------------------

Geometry step timings:
Preparation and reading OPT file:      0.000 s ( 0.809 %)
Internal coordinates            :      0.000 s ( 0.728 %)
B/P matrices and projection     :      0.000 s (25.485 %)
Hessian update/contruction      :      0.000 s ( 8.576 %)
Making the step                 :      0.001 s (49.272 %)
Converting the step to Cartesian:      0.000 s ( 2.346 %)
Storing new data                :      0.000 s ( 1.133 %)
Checking convergence            :      0.000 s ( 1.214 %)
Final printing                  :      0.000 s (10.194 %)
Total time                      :      0.001 s

Time for energy+gradient        :      0.019 s
Time for complete geometry iter :      0.020 s

         *************************************************************
         *                GEOMETRY OPTIMIZATION CYCLE  23            *
         *************************************************************
---------------------------------
CARTESIAN COORDINATES (ANGSTROEM)
---------------------------------
  N     2.638328    0.303269    0.021379
  C     1.395120    0.479592   -0.749777
  C     0.313910   -0.334109   -0.019729
  O     0.607147   -0.840788    1.061621
  N    -0.835459   -0.503666   -0.675689
  C    -2.026167   -0.836551    0.067148
  C    -2.469872    0.401526    0.939352
  O    -3.570965    0.306660    1.504554
  O    -1.666726    1.350036    0.973400
  H     3.087561    1.187800    0.272293
  H     2.303589   -0.181846    0.893850
  H     3.310742   -0.309498   -0.449329
  H     1.495056    0.141272   -1.779178
  H     1.065889    1.519276   -0.741951
  H    -1.000062    0.093567   -1.474788
  H    -1.812081   -1.654452    0.757224
  H    -2.836008   -1.122086   -0.600382

----------------------------
CARTESIAN COORDINATES (A.U.)
----------------------------
  NO LB    ZA    FRAG    MASS        X           Y           Z
   0 N   7.0000    0    14.007    4.985718    0.573095    0.040401
   1 C   6.0000    0    12.011    2.636394    0.906298   -1.416872
   2 C   6.0000    0    12.011    0.593203   -0.631374   -0.037283
   3 O   8.0000    0    15.999    1.147341   -1.588860    2.006173
   4 N   7.0000    0    14.007   -1.578789   -0.951791   -1.276867
   5 C   6.0000    0    12.011   -3.828900   -1.580853    0.126891
   6 C   6.0000    0    12.011   -4.667382    0.758773    1.775119
   7 O   8.0000    0    15.999   -6.748146    0.579503    2.843195
   8 O   8.0000    0    15.999   -3.149656    2.551198    1.839459
   9 H   1.0000    0     1.008    5.834644    2.244617    0.514560
  10 H   1.0000    0     1.008    4.353153   -0.343640    1.689131
  11 H   1.0000    0     1.008    6.256395   -0.584867   -0.849109
  12 H   1.0000    0     1.008    2.825246    0.266966   -3.362158
  13 H   1.0000    0     1.008    2.014238    2.871015   -1.402083
  14 H   1.0000    0     1.008   -1.889843    0.176817   -2.786946
  15 H   1.0000    0     1.008   -3.424337   -3.126462    1.430947
  16 H   1.0000    0     1.008   -5.359279   -2.120435   -1.134557

      -----------------------------------------------------------      
     |                   =====================                   |     
     |                           x T B                           |     
     |                   =====================                   |     
     |                         S. Grimme                         |     
     |          Mulliken Center for Theoretical Chemistry        |     
     |                    University of Bonn                     |     
      -----------------------------------------------------------      

   * xtb version 6.7.1 (edcfbbe) compiled by 'albert@albert-system' on 2024-07-22

   xtb is free software: you can redistribute it and/or modify it under
   the terms of the GNU Lesser General Public License as published by
   the Free Software Foundation, either version 3 of the License, or
   (at your option) any later version.
   
   xtb is distributed in the hope that it will be useful,
   but WITHOUT ANY WARRANTY; without even the implied warranty of
   MERCHANTABILITY or FITNESS FOR A PARTICULAR PURPOSE.  See the
   GNU Lesser General Public License for more details.
   
   Cite this work as:
   * C. Bannwarth, E. Caldeweyher, S. Ehlert, A. Hansen, P. Pracht,
     J. Seibert, S. Spicher, S. Grimme, WIREs Comput. Mol. Sci., 2020, 11,
     e01493. DOI: 10.1002/wcms.1493
   
   for GFN2-xTB:
   * C. Bannwarth, S. Ehlert and S. Grimme., J. Chem. Theory Comput., 2019,
     15, 1652-1671. DOI: 10.1021/acs.jctc.8b01176
   for GFN1-xTB:
   * S. Grimme, C. Bannwarth, P. Shushkov, J. Chem. Theory Comput., 2017,
     13, 1989-2009. DOI: 10.1021/acs.jctc.7b00118
   for GFN0-xTB:
   * P. Pracht, E. Caldeweyher, S. Ehlert, S. Grimme, ChemRxiv, 2019, preprint.
     DOI: 10.26434/chemrxiv.8326202.v1
   for GFN-FF:
   * S. Spicher and S. Grimme, Angew. Chem. Int. Ed., 2020, 59, 15665-15673.
     DOI: 10.1002/anie.202004239
   
   for ALPB and GBSA implicit solvation:
   * S. Ehlert, M. Stahn, S. Spicher, S. Grimme, J. Chem. Theory Comput.,
     2021, 17, 4250-4261. DOI: 10.1021/acs.jctc.1c00471
   
   for ddCOSMO and CPCM-X implicit solvation:
   * M. Stahn, S. Ehlert, S. Grimme, J. Phys. Chem. A,
     2023, XX, XXXX-XXXX. DOI: 10.1021/acs.jpca.3c04382
   
   for DFT-D4:
   * E. Caldeweyher, C. Bannwarth and S. Grimme, J. Chem. Phys., 2017,
     147, 034112. DOI: 10.1063/1.4993215
   * E. Caldeweyher, S. Ehlert, A. Hansen, H. Neugebauer, S. Spicher,
     C. Bannwarth and S. Grimme, J. Chem. Phys., 2019, 150, 154122.
     DOI: 10.1063/1.5090222
   * E. Caldeweyher, J.-M. Mewes, S. Ehlert and S. Grimme, Phys. Chem. Chem. Phys.
     2020, 22, 8499-8512. DOI: 10.1039/D0CP00502A
   
   for sTDA-xTB:
   * S. Grimme and C. Bannwarth, J. Chem. Phys., 2016, 145, 054103.
     DOI: 10.1063/1.4959605
   
   in the mass-spec context:
   * V. Asgeirsson, C. Bauer and S. Grimme, Chem. Sci., 2017, 8, 4879.
     DOI: 10.1039/c7sc00601b
   * J. Koopman and S. Grimme, ACS Omega 2019, 4, 12, 15120-15133.
     DOI: 10.1021/acsomega.9b02011
   
   for metadynamics refer to:
   * S. Grimme, J. Chem. Theory Comput., 2019, 155, 2847-2862
     DOI: 10.1021/acs.jctc.9b00143
   
   for SPH calculations refer to:
   * S. Spicher and S. Grimme, J. Chem. Theory Comput., 2021, 17, 1701-1714
     DOI: 10.1021/acs.jctc.0c01306
   
   for ONIOM refer to:
   * C. Plett, A. Katbashev, S. Ehlert, S. Grimme, M. Bursch,
     Phys. Chem. Chem. Phys., 2023, 25, 17860-17868. DOI: 10.1039/D3CP02178E
   
   for DIPRO refer to:
   * J. Kohn, N. Gildemeister, S. Grimme, D. Fazzi, A. Hansen,
     J. Chem. Phys., 2023, just accepted.
   
   for PTB refer to:
   * S. Grimme, M. Mueller, A. Hansen, J. Chem. Phys., 2023, 158, 124111.
     DOI: 10.1063/5.0137838
   
   with help from (in alphabetical order)
   P. Atkinson, C. Bannwarth, F. Bohle, G. Brandenburg, E. Caldeweyher
   M. Checinski, S. Dohm, S. Ehlert, S. Ehrlich, I. Gerasimov, C. Hölzer
   A. Katbashev, J. Kohn, J. Koopman, C. Lavigne, S. Lehtola, F. März, M. Müller,
   F. Musil, H. Neugebauer, J. Pisarek, C. Plett, P. Pracht, F. Pultar,
   J. Seibert, P. Shushkov, S. Spicher, M. Stahn, M. Steiner, T. Strunk,
   J. Stückrath, T. Rose, and J. Unsleber
   
 * started run on 2026/04/11 at 16:57:59.497     
   ID    Z sym.   atoms
    1    7 N      1, 5
    2    6 C      2, 3, 6, 7
    3    8 O      4, 8, 9
    4    1 H      10-17

           -------------------------------------------------
          |                Calculation Setup                |
           -------------------------------------------------

          program call               : /home/analima/Programs/orca-6.1.0-f.0_linux_x86-64/bin/otool_xtb geo_opt_XTB.xyz --grad -c 0 -u 0 -P 1 --namespace geo_opt --input geo_opt_XTB.input.tmp --alpb WATER --acc 0.200000
          calculation namespace      : geo_opt
          coordinate file            : geo_opt_XTB.xyz
          omp threads                :                     1


           -------------------------------------------------
          |                 G F N 2 - x T B                 |
           -------------------------------------------------

        Reference                      10.1021/acs.jctc.8b01176
      * Hamiltonian:
        H0-scaling (s, p, d)           1.850000    2.230000    2.230000
        zeta-weighting                 0.500000
      * Dispersion:
        s8                             2.700000
        a1                             0.520000
        a2                             5.000000
        s9                             5.000000
      * Repulsion:
        kExp                           1.500000    1.000000
        rExp                           1.000000
      * Coulomb:
        alpha                          2.000000
        third order                    shell-resolved
        anisotropic                    true
        a3                             3.000000
        a5                             4.000000
        cn-shift                       1.200000
        cn-exp                         4.000000
        max-rad                        5.000000

      * Solvation model:               ALPB
        Solvent                        WATER
        Parameter file                 internal GFN2-xTB/ALPB
        Dielectric constant                8.0200E+01
        Reference state                gsolv [1 M gas/solution]
        Free energy shift                  1.0808E-03 Eh       6.7819E-01 kcal/mol
        Temperature                        2.9815E+02 K
        Density                            1.0000E+00 kg/L
        Solvent mass                       1.8000E+01 g/mol
        Interaction kernel             P16
        Born radius scaling (c1)           1.4744E+00
        Born radii integrator          GBOBC
        Born offset                        0.0000E+00 a0       0.0000E+00 AA
        H-bond correction              true
        Ion screening                  false
        Surface tension                    1.0000E-05 Eh       1.5569E+01 dyn/cm
        Grid points                               230 per atom
q/qsh data taken from xtbrestart
CAMM data taken from xtbrestart

          ...................................................
          :                      SETUP                      :
          :.................................................:
          :  # basis functions                  44          :
          :  # atomic orbitals                  44          :
          :  # shells                           26          :
          :  # electrons                        52          :
          :  max. iterations                   250          :
          :  Hamiltonian                  GFN2-xTB          :
          :  restarted?                       true          :
          :  GBSA solvation                   true          :
          :  PC potential                    false          :
          :  electronic temp.          300.0000000     K    :
          :  accuracy                    0.2000000          :
          :  -> integral cutoff          0.3198970E+02      :
          :  -> integral neglect         0.2000000E-08      :
          :  -> SCF convergence          0.2000000E-06 Eh   :
          :  -> wf. convergence          0.2000000E-04 e    :
          :  Broyden damping             0.4000000          :
          :  net charge                          0          :
          :  unpaired electrons                  0          :
          ...................................................

 iter      E             dE          RMSdq      gap      omega  full diag
   1    -31.0052199 -0.310052E+02  0.918E-02    3.75       0.0  T
   2    -31.0052211 -0.120140E-05  0.535E-02    3.74       1.0  T
   3    -31.0052212 -0.923167E-07  0.512E-03    3.75       4.7  T
   4    -31.0052214 -0.237583E-06  0.205E-03    3.75      11.8  T
   5    -31.0052214 -0.692955E-08  0.753E-04    3.75      32.2  T
   6    -31.0052214 -0.503249E-09  0.157E-04    3.75     154.5  T
   7    -31.0052214 -0.415596E-10  0.714E-05    3.75     339.8  T

   *** convergence criteria satisfied after 7 iterations ***

         #    Occupation            Energy/Eh            Energy/eV
      -------------------------------------------------------------
         1        2.0000           -0.7252249             -19.7344
       ...           ...                  ...                  ...
        20        2.0000           -0.4829455             -13.1416
        21        2.0000           -0.4644800             -12.6391
        22        2.0000           -0.4399833             -11.9726
        23        2.0000           -0.4230177             -11.5109
        24        2.0000           -0.4055579             -11.0358
        25        2.0000           -0.3907251             -10.6322
        26        2.0000           -0.3640261              -9.9057 (HOMO)
        27                         -0.2263637              -6.1597 (LUMO)
        28                         -0.1762925              -4.7972
        29                         -0.0474618              -1.2915
        30                          0.0198352               0.5397
        31                          0.0481264               1.3096
       ...                                ...                  ...
        44                          0.6489874              17.6598
      -------------------------------------------------------------
                  HL-Gap            0.1376625 Eh            3.7460 eV
             Fermi-level           -0.2951949 Eh           -8.0327 eV

 SCC (total)                   0 d,  0 h,  0 min,  0.009 sec
 SCC setup                      ...        0 min,  0.000 sec (  3.517%)
 Dispersion                     ...        0 min,  0.000 sec (  0.804%)
 classical contributions        ...        0 min,  0.000 sec (  0.181%)
 integral evaluation            ...        0 min,  0.001 sec ( 13.937%)
 iterations                     ...        0 min,  0.004 sec ( 47.109%)
 molecular gradient             ...        0 min,  0.003 sec ( 33.515%)
 printout                       ...        0 min,  0.000 sec (  0.758%)

         :::::::::::::::::::::::::::::::::::::::::::::::::::::
         ::                     SUMMARY                     ::
         :::::::::::::::::::::::::::::::::::::::::::::::::::::
         :: total energy             -30.713712960754 Eh    ::
         :: total w/o Gsasa/hb       -30.702782825381 Eh    ::
         :: gradient norm              0.001666245587 Eh/a0 ::
         :: HOMO-LUMO gap              3.745986988725 eV    ::
         ::.................................................::
         :: SCC energy               -31.005206568638 Eh    ::
         :: -> isotropic ES            0.276369595468 Eh    ::
         :: -> anisotropic ES         -0.020357265416 Eh    ::
         :: -> anisotropic XC          0.006635403002 Eh    ::
         :: -> dispersion             -0.011258067487 Eh    ::
         :: -> Gsolv                  -0.124695923747 Eh    ::
         ::    -> Gelec               -0.113765788374 Eh    ::
         ::    -> Gsasa                0.004241499874 Eh    ::
         ::    -> Ghb                 -0.016252394946 Eh    ::
         ::    -> Gshift               0.001080759698 Eh    ::
         :: repulsion energy           0.291493607884 Eh    ::
         :: add. restraining           0.000000000000 Eh    ::
         :: total charge              -0.000000000000 e     ::
         :::::::::::::::::::::::::::::::::::::::::::::::::::::


Property printout bound to 'properties.out'

           -------------------------------------------------
          | TOTAL ENERGY              -30.713712960754 Eh   |
          | GRADIENT NORM               0.001666245587 Eh/α |
          | HOMO-LUMO GAP               3.745986988725 eV   |
           -------------------------------------------------

------------------------------------------------------------------------
 * finished run on 2026/04/11 at 16:57:59.512     
------------------------------------------------------------------------
 total:
 * wall-time:     0 d,  0 h,  0 min,  0.015 sec
 *  cpu-time:     0 d,  0 h,  0 min,  0.013 sec
 * ratio c/w:     0.899 speedup
 SCF:
 * wall-time:     0 d,  0 h,  0 min,  0.009 sec
 *  cpu-time:     0 d,  0 h,  0 min,  0.008 sec
 * ratio c/w:     0.852 speedup


-------------------------   --------------------
FINAL SINGLE POINT ENERGY       -30.713712960750
-------------------------   --------------------


-------------
DIPOLE MOMENT
-------------
                                X             Y             Z
Total Dipole Moment    :      8.50900      -0.42000      -4.03900
                        -----------------------------------------
Magnitude (a.u.)       :      9.42831
Magnitude (Debye)      :     23.96486


------------------
CARTESIAN GRADIENT
------------------

   1   N   :   -0.000359813   -0.000073338   -0.000318488
   2   C   :   -0.000015822   -0.000026751    0.000033954
   3   C   :    0.000232753   -0.000320552    0.000542857
   4   O   :    0.000069308    0.000261576   -0.000234716
   5   N   :    0.000796711    0.000066778   -0.000067740
   6   C   :   -0.000797762    0.000137906    0.000168229
   7   C   :    0.000044935    0.000258770    0.000196677
   8   O   :    0.000175881    0.000002594   -0.000143384
   9   O   :   -0.000101112   -0.000166944   -0.000087371
  10   H   :    0.000064532    0.000044921    0.000097194
  11   H   :    0.000037844    0.000045594    0.000138530
  12   H   :   -0.000015080   -0.000185966    0.000125670
  13   H   :   -0.000092669    0.000170717   -0.000078202
  14   H   :   -0.000040536    0.000014125   -0.000117903
  15   H   :   -0.000337041    0.000003511    0.000035297
  16   H   :    0.000242324   -0.000180892   -0.000236741
  17   H   :    0.000095549   -0.000052048   -0.000053862

Difference to translation invariance:
           :    0.0000000000    0.0000000000    0.0000000000

Difference to rotation invariance:
           :    0.0000002984    0.0001970182    0.0001574713

Norm of the Cartesian gradient     ...    0.0016662456
RMS gradient                       ...    0.0002333211
MAX gradient                       ...    0.0007977618
------------------------------------------------------------------------------
                         ORCA GEOMETRY RELAXATION STEP
------------------------------------------------------------------------------

Reading the OPT-File                    .... done
Getting information on internals        .... done
Copying old internal coords+grads       .... done
Making the new internal coordinates     .... (2022 redundants) done
Validating the new internal coordinates .... (2022 redundants) done
Calculating the B-matrix                .... done
Calculating the G,G- and P matrices     .... done
Transforming gradient to internals      .... done
Projecting the internal gradient        .... done
Number of atoms                         ....  17
Number of internal coordinates          ....  69
Current Energy                          ....   -30.713712961 Eh
Current gradient norm                   ....     0.001666246 Eh/bohr
Maximum allowed component of the step   ....  0.300
Current trust radius                    ....  0.207
Updating the Hessian (BFGS)             .... done
Forming the augmented Hessian           .... done
Diagonalizing the augmented Hessian     .... done
Last element of RFO vector              ....  0.982468951
Lowest eigenvalues of augmented Hessian:
 -0.000045742  0.001048925  0.002775685  0.007111252  0.010383355
Length of the computed step             ....  0.189752854
The final length of the internal step   ....  0.189752854
Converting the step to Cartesian space:
 Initial RMS(Int)=    0.0228435592
Transforming coordinates:
 Iter   0:  RMS(Cart)=    0.0344902893 RMS(Int)=    0.0228497225
 Iter   5:  RMS(Cart)=    0.0000000077 RMS(Int)=    0.0000000063
done
Storing new coordinates                 .... done
The predicted energy change is          ....    -0.000023695
Previously predicted energy change      ....    -0.000008973
Actually observed energy change         ....     0.000015397
Ratio of predicted to observed change   ....     1.715905207
New trust radius                        ....     0.138271605

                                .--------------------.
          ----------------------|Geometry convergence|-------------------------
          Item                value                   Tolerance       Converged
          ---------------------------------------------------------------------
          Energy change       0.0000153966            0.0000050000      NO
          RMS gradient        0.0001473677            0.0001000000      NO
          MAX gradient        0.0004295673            0.0003000000      NO
          RMS step            0.0228435592            0.0020000000      NO
          MAX step            0.0752094601            0.0040000000      NO
          -------------------------------------------------------------------------
          ........................................................
          Max(Bonds)      0.0054      Max(Angles)    0.43
          Max(Dihed)        4.31      Max(Improp)    0.00
          ---------------------------------------------------------------------

The optimization has not yet converged - more geometry cycles are needed


    ---------------------------------------------------------------------------
                         Redundant Internal Coordinates
                            (Angstroem and degrees)

        Definition                    Value    dE/dq     Step     New-Value
    ----------------------------------------------------------------------------
     1. B(C   1,N   0)                1.4735 -0.000068 -0.0000    1.4735   
     2. B(C   2,C   1)                1.5376 -0.000115  0.0004    1.5379   
     3. B(O   3,C   2)                1.2296 -0.000296  0.0004    1.2300   
     4. B(N   4,C   2)                1.3342 -0.000009 -0.0002    1.3340   
     5. B(C   5,N   4)                1.4424  0.000194 -0.0006    1.4418   
     6. B(C   6,C   5)                1.5781  0.000023  0.0001    1.5782   
     7. B(O   7,C   6)                1.2413 -0.000222  0.0002    1.2415   
     8. B(O   8,C   6)                1.2433 -0.000194  0.0001    1.2435   
     9. B(H   9,N   0)                1.0233  0.000090  0.0000    1.0233   
    10. B(H  10,N   0)                1.0529 -0.000001  0.0007    1.0536   
    11. B(H  10,O   3)                1.8276 -0.000160 -0.0054    1.8222   
    12. B(H  11,N   0)                1.0243  0.000044 -0.0003    1.0240   
    13. B(H  12,C   1)                1.0882  0.000011  0.0002    1.0883   
    14. B(H  13,C   1)                1.0906  0.000023 -0.0004    1.0902   
    15. B(H  14,N   4)                1.0111  0.000030 -0.0001    1.0110   
    16. B(H  15,C   5)                1.0913  0.000030 -0.0000    1.0913   
    17. B(H  16,C   5)                1.0876 -0.000023  0.0001    1.0877   
    18. A(H  10,N   0,H  11)          108.29 -0.000165    0.43    108.72   
    19. A(H   9,N   0,H  11)          109.97 -0.000006   -0.02    109.95   
    20. A(C   1,N   0,H  10)          102.74  0.000246   -0.09    102.65   
    21. A(H   9,N   0,H  10)          109.55 -0.000202   -0.30    109.25   
    22. A(C   1,N   0,H   9)          113.28  0.000056   -0.17    113.11   
    23. A(C   1,N   0,H  11)          112.64  0.000060    0.15    112.79   
    24. A(N   0,C   1,H  13)          111.41  0.000129    0.12    111.53   
    25. A(C   2,C   1,H  12)          110.44  0.000004   -0.26    110.18   
    26. A(H  12,C   1,H  13)          109.32 -0.000100    0.10    109.42   
    27. A(C   2,C   1,H  13)          106.79  0.000069    0.28    107.07   
    28. A(N   0,C   1,C   2)          106.35 -0.000242   -0.07    106.28   
    29. A(N   0,C   1,H  12)          112.36  0.000136   -0.17    112.19   
    30. A(C   1,C   2,N   4)          116.08 -0.000430    0.10    116.18   
    31. A(C   1,C   2,O   3)          117.90  0.000185   -0.09    117.80   
    32. A(O   3,C   2,N   4)          125.83  0.000242   -0.02    125.81   
    33. A(C   5,N   4,H  14)          114.14 -0.000354    0.20    114.34   
    34. A(C   2,N   4,C   5)          119.16  0.000230   -0.03    119.13   
    35. A(C   2,N   4,H  14)          116.98  0.000137    0.02    117.00   
    36. A(C   6,C   5,H  16)          109.62  0.000164   -0.05    109.57   
    37. A(N   4,C   5,H  16)          111.05 -0.000023    0.07    111.12   
    38. A(C   6,C   5,H  15)          107.08  0.000344   -0.17    106.91   
    39. A(N   4,C   5,C   6)          109.61 -0.000241    0.05    109.67   
    40. A(N   4,C   5,H  15)          109.67 -0.000235    0.10    109.77   
    41. A(H  15,C   5,H  16)          109.72  0.000003   -0.01    109.71   
    42. A(C   5,C   6,O   7)          116.17  0.000010   -0.01    116.17   
    43. A(O   7,C   6,O   8)          128.23  0.000082   -0.01    128.22   
    44. A(C   5,C   6,O   8)          115.60 -0.000092    0.02    115.62   
    45. D(H  12,C   1,N   0,H   9)    111.40  0.000001    4.26    115.67   
    46. D(H  12,C   1,N   0,H  11)    -14.21 -0.000088    4.31     -9.91   
    47. D(C   2,C   1,N   0,H  10)     -9.57 -0.000137    3.32     -6.25   
    48. D(H  12,C   1,N   0,H  10)   -130.51 -0.000063    3.78   -126.73   
    49. D(C   2,C   1,N   0,H  11)    106.73 -0.000161    3.85    110.58   
    50. D(C   2,C   1,N   0,H   9)   -127.66 -0.000073    3.81   -123.85   
    51. D(O   3,C   2,C   1,N   0)      6.60  0.000024   -2.09      4.51   
    52. D(N   4,C   2,C   1,N   0)   -168.70  0.000056   -1.92   -170.62   
    53. D(O   3,C   2,C   1,H  13)   -112.47 -0.000037   -2.34   -114.81   
    54. D(N   4,C   2,C   1,H  12)    -46.53  0.000072   -2.31    -48.85   
    55. D(O   3,C   2,C   1,H  12)    128.76  0.000040   -2.48    126.29   
    56. D(H  14,N   4,C   2,C   1)    -15.09 -0.000158    0.12    -14.96   
    57. D(C   5,N   4,C   2,O   3)     25.98 -0.000012   -0.06     25.92   
    58. D(H  14,N   4,C   2,O   3)    170.04 -0.000116    0.30    170.35   
    59. D(C   5,N   4,C   2,C   1)   -159.15 -0.000053   -0.24   -159.39   
    60. D(H  16,C   5,N   4,C   2)   -169.58  0.000059    0.30   -169.28   
    61. D(H  15,C   5,N   4,H  14)    166.83 -0.000169    0.10    166.93   
    62. D(H  15,C   5,N   4,C   2)    -48.14 -0.000109    0.40    -47.74   
    63. D(C   6,C   5,N   4,H  14)    -75.88 -0.000031   -0.01    -75.90   
    64. D(C   6,C   5,N   4,C   2)     69.15  0.000029    0.28     69.43   
    65. D(O   8,C   6,C   5,H  15)    110.42 -0.000055   -0.24    110.18   
    66. D(O   8,C   6,C   5,N   4)     -8.48  0.000159   -0.29     -8.77   
    67. D(O   7,C   6,C   5,H  16)     49.48  0.000093   -0.29     49.19   
    68. D(O   7,C   6,C   5,H  15)    -69.48 -0.000199   -0.15    -69.63   
    69. D(O   7,C   6,C   5,N   4)    171.61  0.000016   -0.20    171.41   
    ----------------------------------------------------------------------------

Geometry step timings:
Preparation and reading OPT file:      0.000 s ( 1.433 %)
Internal coordinates            :      0.000 s ( 1.535 %)
B/P matrices and projection     :      0.000 s (35.210 %)
Hessian update/contruction      :      0.000 s (10.440 %)
Making the step                 :      0.000 s (31.013 %)
Converting the step to Cartesian:      0.000 s ( 4.299 %)
Storing new data                :      0.000 s ( 1.842 %)
Checking convergence            :      0.000 s ( 1.535 %)
Final printing                  :      0.000 s (12.692 %)
Total time                      :      0.001 s

Time for energy+gradient        :      0.019 s
Time for complete geometry iter :      0.020 s

         *************************************************************
         *                GEOMETRY OPTIMIZATION CYCLE  24            *
         *************************************************************
---------------------------------
CARTESIAN COORDINATES (ANGSTROEM)
---------------------------------
  N     2.634112    0.311987    0.028986
  C     1.399010    0.464548   -0.760576
  C     0.312911   -0.342913   -0.029245
  O     0.607555   -0.860105    1.047198
  N    -0.841286   -0.499230   -0.679495
  C    -2.028830   -0.829708    0.068284
  C    -2.463569    0.406181    0.948168
  O    -3.563973    0.314287    1.515553
  O    -1.654509    1.349663    0.986924
  H     3.038021    1.206243    0.319498
  H     2.301815   -0.211585    0.880468
  H     3.342581   -0.252824   -0.448088
  H     1.515421    0.099241   -1.779155
  H     1.065015    1.502095   -0.783570
  H    -1.004273    0.101497   -1.476199
  H    -1.815707   -1.649740    0.756101
  H    -2.844296   -1.109637   -0.594852

----------------------------
CARTESIAN COORDINATES (A.U.)
----------------------------
  NO LB    ZA    FRAG    MASS        X           Y           Z
   0 N   7.0000    0    14.007    4.977751    0.589570    0.054776
   1 C   6.0000    0    12.011    2.643747    0.877869   -1.437281
   2 C   6.0000    0    12.011    0.591316   -0.648012   -0.055264
   3 O   8.0000    0    15.999    1.148113   -1.625362    1.978918
   4 N   7.0000    0    14.007   -1.589800   -0.943409   -1.284059
   5 C   6.0000    0    12.011   -3.833933   -1.567921    0.129038
   6 C   6.0000    0    12.011   -4.655471    0.767571    1.791777
   7 O   8.0000    0    15.999   -6.734933    0.593916    2.863980
   8 O   8.0000    0    15.999   -3.126569    2.550493    1.865016
   9 H   1.0000    0     1.008    5.741028    2.279470    0.603764
  10 H   1.0000    0     1.008    4.349800   -0.399837    1.663844
  11 H   1.0000    0     1.008    6.316563   -0.477768   -0.846764
  12 H   1.0000    0     1.008    2.863730    0.187539   -3.362116
  13 H   1.0000    0     1.008    2.012586    2.838548   -1.480732
  14 H   1.0000    0     1.008   -1.897801    0.191801   -2.789612
  15 H   1.0000    0     1.008   -3.431189   -3.117558    1.428824
  16 H   1.0000    0     1.008   -5.374940   -2.096909   -1.124108

      -----------------------------------------------------------      
     |                   =====================                   |     
     |                           x T B                           |     
     |                   =====================                   |     
     |                         S. Grimme                         |     
     |          Mulliken Center for Theoretical Chemistry        |     
     |                    University of Bonn                     |     
      -----------------------------------------------------------      

   * xtb version 6.7.1 (edcfbbe) compiled by 'albert@albert-system' on 2024-07-22

   xtb is free software: you can redistribute it and/or modify it under
   the terms of the GNU Lesser General Public License as published by
   the Free Software Foundation, either version 3 of the License, or
   (at your option) any later version.
   
   xtb is distributed in the hope that it will be useful,
   but WITHOUT ANY WARRANTY; without even the implied warranty of
   MERCHANTABILITY or FITNESS FOR A PARTICULAR PURPOSE.  See the
   GNU Lesser General Public License for more details.
   
   Cite this work as:
   * C. Bannwarth, E. Caldeweyher, S. Ehlert, A. Hansen, P. Pracht,
     J. Seibert, S. Spicher, S. Grimme, WIREs Comput. Mol. Sci., 2020, 11,
     e01493. DOI: 10.1002/wcms.1493
   
   for GFN2-xTB:
   * C. Bannwarth, S. Ehlert and S. Grimme., J. Chem. Theory Comput., 2019,
     15, 1652-1671. DOI: 10.1021/acs.jctc.8b01176
   for GFN1-xTB:
   * S. Grimme, C. Bannwarth, P. Shushkov, J. Chem. Theory Comput., 2017,
     13, 1989-2009. DOI: 10.1021/acs.jctc.7b00118
   for GFN0-xTB:
   * P. Pracht, E. Caldeweyher, S. Ehlert, S. Grimme, ChemRxiv, 2019, preprint.
     DOI: 10.26434/chemrxiv.8326202.v1
   for GFN-FF:
   * S. Spicher and S. Grimme, Angew. Chem. Int. Ed., 2020, 59, 15665-15673.
     DOI: 10.1002/anie.202004239
   
   for ALPB and GBSA implicit solvation:
   * S. Ehlert, M. Stahn, S. Spicher, S. Grimme, J. Chem. Theory Comput.,
     2021, 17, 4250-4261. DOI: 10.1021/acs.jctc.1c00471
   
   for ddCOSMO and CPCM-X implicit solvation:
   * M. Stahn, S. Ehlert, S. Grimme, J. Phys. Chem. A,
     2023, XX, XXXX-XXXX. DOI: 10.1021/acs.jpca.3c04382
   
   for DFT-D4:
   * E. Caldeweyher, C. Bannwarth and S. Grimme, J. Chem. Phys., 2017,
     147, 034112. DOI: 10.1063/1.4993215
   * E. Caldeweyher, S. Ehlert, A. Hansen, H. Neugebauer, S. Spicher,
     C. Bannwarth and S. Grimme, J. Chem. Phys., 2019, 150, 154122.
     DOI: 10.1063/1.5090222
   * E. Caldeweyher, J.-M. Mewes, S. Ehlert and S. Grimme, Phys. Chem. Chem. Phys.
     2020, 22, 8499-8512. DOI: 10.1039/D0CP00502A
   
   for sTDA-xTB:
   * S. Grimme and C. Bannwarth, J. Chem. Phys., 2016, 145, 054103.
     DOI: 10.1063/1.4959605
   
   in the mass-spec context:
   * V. Asgeirsson, C. Bauer and S. Grimme, Chem. Sci., 2017, 8, 4879.
     DOI: 10.1039/c7sc00601b
   * J. Koopman and S. Grimme, ACS Omega 2019, 4, 12, 15120-15133.
     DOI: 10.1021/acsomega.9b02011
   
   for metadynamics refer to:
   * S. Grimme, J. Chem. Theory Comput., 2019, 155, 2847-2862
     DOI: 10.1021/acs.jctc.9b00143
   
   for SPH calculations refer to:
   * S. Spicher and S. Grimme, J. Chem. Theory Comput., 2021, 17, 1701-1714
     DOI: 10.1021/acs.jctc.0c01306
   
   for ONIOM refer to:
   * C. Plett, A. Katbashev, S. Ehlert, S. Grimme, M. Bursch,
     Phys. Chem. Chem. Phys., 2023, 25, 17860-17868. DOI: 10.1039/D3CP02178E
   
   for DIPRO refer to:
   * J. Kohn, N. Gildemeister, S. Grimme, D. Fazzi, A. Hansen,
     J. Chem. Phys., 2023, just accepted.
   
   for PTB refer to:
   * S. Grimme, M. Mueller, A. Hansen, J. Chem. Phys., 2023, 158, 124111.
     DOI: 10.1063/5.0137838
   
   with help from (in alphabetical order)
   P. Atkinson, C. Bannwarth, F. Bohle, G. Brandenburg, E. Caldeweyher
   M. Checinski, S. Dohm, S. Ehlert, S. Ehrlich, I. Gerasimov, C. Hölzer
   A. Katbashev, J. Kohn, J. Koopman, C. Lavigne, S. Lehtola, F. März, M. Müller,
   F. Musil, H. Neugebauer, J. Pisarek, C. Plett, P. Pracht, F. Pultar,
   J. Seibert, P. Shushkov, S. Spicher, M. Stahn, M. Steiner, T. Strunk,
   J. Stückrath, T. Rose, and J. Unsleber
   
 * started run on 2026/04/11 at 16:57:59.517     
   ID    Z sym.   atoms
    1    7 N      1, 5
    2    6 C      2, 3, 6, 7
    3    8 O      4, 8, 9
    4    1 H      10-17

           -------------------------------------------------
          |                Calculation Setup                |
           -------------------------------------------------

          program call               : /home/analima/Programs/orca-6.1.0-f.0_linux_x86-64/bin/otool_xtb geo_opt_XTB.xyz --grad -c 0 -u 0 -P 1 --namespace geo_opt --input geo_opt_XTB.input.tmp --alpb WATER --acc 0.200000
          calculation namespace      : geo_opt
          coordinate file            : geo_opt_XTB.xyz
          omp threads                :                     1


           -------------------------------------------------
          |                 G F N 2 - x T B                 |
           -------------------------------------------------

        Reference                      10.1021/acs.jctc.8b01176
      * Hamiltonian:
        H0-scaling (s, p, d)           1.850000    2.230000    2.230000
        zeta-weighting                 0.500000
      * Dispersion:
        s8                             2.700000
        a1                             0.520000
        a2                             5.000000
        s9                             5.000000
      * Repulsion:
        kExp                           1.500000    1.000000
        rExp                           1.000000
      * Coulomb:
        alpha                          2.000000
        third order                    shell-resolved
        anisotropic                    true
        a3                             3.000000
        a5                             4.000000
        cn-shift                       1.200000
        cn-exp                         4.000000
        max-rad                        5.000000

      * Solvation model:               ALPB
        Solvent                        WATER
        Parameter file                 internal GFN2-xTB/ALPB
        Dielectric constant                8.0200E+01
        Reference state                gsolv [1 M gas/solution]
        Free energy shift                  1.0808E-03 Eh       6.7819E-01 kcal/mol
        Temperature                        2.9815E+02 K
        Density                            1.0000E+00 kg/L
        Solvent mass                       1.8000E+01 g/mol
        Interaction kernel             P16
        Born radius scaling (c1)           1.4744E+00
        Born radii integrator          GBOBC
        Born offset                        0.0000E+00 a0       0.0000E+00 AA
        H-bond correction              true
        Ion screening                  false
        Surface tension                    1.0000E-05 Eh       1.5569E+01 dyn/cm
        Grid points                               230 per atom
q/qsh data taken from xtbrestart
CAMM data taken from xtbrestart

          ...................................................
          :                      SETUP                      :
          :.................................................:
          :  # basis functions                  44          :
          :  # atomic orbitals                  44          :
          :  # shells                           26          :
          :  # electrons                        52          :
          :  max. iterations                   250          :
          :  Hamiltonian                  GFN2-xTB          :
          :  restarted?                       true          :
          :  GBSA solvation                   true          :
          :  PC potential                    false          :
          :  electronic temp.          300.0000000     K    :
          :  accuracy                    0.2000000          :
          :  -> integral cutoff          0.3198970E+02      :
          :  -> integral neglect         0.2000000E-08      :
          :  -> SCF convergence          0.2000000E-06 Eh   :
          :  -> wf. convergence          0.2000000E-04 e    :
          :  Broyden damping             0.4000000          :
          :  net charge                          0          :
          :  unpaired electrons                  0          :
          ...................................................

 iter      E             dE          RMSdq      gap      omega  full diag
   1    -31.0051022 -0.310051E+02  0.745E-02    3.74       0.0  T
   2    -31.0051029 -0.693401E-06  0.435E-02    3.74       1.0  T
   3    -31.0051030 -0.528657E-07  0.401E-03    3.74       6.1  T
   4    -31.0051031 -0.151976E-06  0.160E-03    3.74      15.2  T
   5    -31.0051031 -0.290990E-08  0.560E-04    3.74      43.3  T
   6    -31.0051031 -0.367304E-09  0.117E-04    3.74     207.2  T
   7    -31.0051031 -0.239702E-10  0.596E-05    3.74     406.7  T

   *** convergence criteria satisfied after 7 iterations ***

         #    Occupation            Energy/Eh            Energy/eV
      -------------------------------------------------------------
         1        2.0000           -0.7251758             -19.7330
       ...           ...                  ...                  ...
        20        2.0000           -0.4830036             -13.1432
        21        2.0000           -0.4644622             -12.6387
        22        2.0000           -0.4400567             -11.9746
        23        2.0000           -0.4232337             -11.5168
        24        2.0000           -0.4055309             -11.0351
        25        2.0000           -0.3906978             -10.6314
        26        2.0000           -0.3639937              -9.9048 (HOMO)
        27                         -0.2264463              -6.1619 (LUMO)
        28                         -0.1763420              -4.7985
        29                         -0.0475606              -1.2942
        30                          0.0195928               0.5331
        31                          0.0480022               1.3062
       ...                                ...                  ...
        44                          0.6484031              17.6439
      -------------------------------------------------------------
                  HL-Gap            0.1375474 Eh            3.7429 eV
             Fermi-level           -0.2952200 Eh           -8.0333 eV

 SCC (total)                   0 d,  0 h,  0 min,  0.008 sec
 SCC setup                      ...        0 min,  0.000 sec (  2.590%)
 Dispersion                     ...        0 min,  0.000 sec (  0.535%)
 classical contributions        ...        0 min,  0.000 sec (  0.137%)
 integral evaluation            ...        0 min,  0.001 sec (  8.012%)
 iterations                     ...        0 min,  0.004 sec ( 51.098%)
 molecular gradient             ...        0 min,  0.003 sec ( 36.767%)
 printout                       ...        0 min,  0.000 sec (  0.737%)

         :::::::::::::::::::::::::::::::::::::::::::::::::::::
         ::                     SUMMARY                     ::
         :::::::::::::::::::::::::::::::::::::::::::::::::::::
         :: total energy             -30.713732014621 Eh    ::
         :: total w/o Gsasa/hb       -30.702837412956 Eh    ::
         :: gradient norm              0.000591798224 Eh/a0 ::
         :: HOMO-LUMO gap              3.742855793239 eV    ::
         ::.................................................::
         :: SCC energy               -31.005087690097 Eh    ::
         :: -> isotropic ES            0.276068568811 Eh    ::
         :: -> anisotropic ES         -0.020312546560 Eh    ::
         :: -> anisotropic XC          0.006623877440 Eh    ::
         :: -> dispersion             -0.011253320859 Eh    ::
         :: -> Gsolv                  -0.124426862510 Eh    ::
         ::    -> Gelec               -0.113532260846 Eh    ::
         ::    -> Gsasa                0.004252641479 Eh    ::
         ::    -> Ghb                 -0.016228002841 Eh    ::
         ::    -> Gshift               0.001080759698 Eh    ::
         :: repulsion energy           0.291355675476 Eh    ::
         :: add. restraining           0.000000000000 Eh    ::
         :: total charge               0.000000000000 e     ::
         :::::::::::::::::::::::::::::::::::::::::::::::::::::


Property printout bound to 'properties.out'

           -------------------------------------------------
          | TOTAL ENERGY              -30.713732014621 Eh   |
          | GRADIENT NORM               0.000591798224 Eh/α |
          | HOMO-LUMO GAP               3.742855793239 eV   |
           -------------------------------------------------

------------------------------------------------------------------------
 * finished run on 2026/04/11 at 16:57:59.530     
------------------------------------------------------------------------
 total:
 * wall-time:     0 d,  0 h,  0 min,  0.012 sec
 *  cpu-time:     0 d,  0 h,  0 min,  0.011 sec
 * ratio c/w:     0.878 speedup
 SCF:
 * wall-time:     0 d,  0 h,  0 min,  0.008 sec
 *  cpu-time:     0 d,  0 h,  0 min,  0.007 sec
 * ratio c/w:     0.825 speedup


-------------------------   --------------------
FINAL SINGLE POINT ENERGY       -30.713732014620
-------------------------   --------------------


-------------
DIPOLE MOMENT
-------------
                                X             Y             Z
Total Dipole Moment    :      8.47800      -0.39800      -4.04600
                        -----------------------------------------
Magnitude (a.u.)       :      9.40239
Magnitude (Debye)      :     23.89899


------------------
CARTESIAN GRADIENT
------------------

   1   N   :   -0.000104465   -0.000074679   -0.000206481
   2   C   :    0.000107205    0.000032524   -0.000013145
   3   C   :   -0.000182247   -0.000095325    0.000206323
   4   O   :   -0.000000411   -0.000003406    0.000022272
   5   N   :    0.000262292    0.000079796   -0.000096013
   6   C   :   -0.000212861   -0.000002632    0.000062119
   7   C   :   -0.000015660    0.000042200    0.000016545
   8   O   :    0.000010048   -0.000003505    0.000001530
   9   O   :    0.000033179    0.000010890    0.000006272
  10   H   :   -0.000050905    0.000043659    0.000029685
  11   H   :    0.000081792    0.000012446    0.000029283
  12   H   :    0.000032118    0.000026186    0.000026122
  13   H   :    0.000063130    0.000004367   -0.000005390
  14   H   :    0.000015132    0.000042401    0.000007413
  15   H   :   -0.000127435   -0.000005260   -0.000011120
  16   H   :    0.000071241   -0.000073506   -0.000075333
  17   H   :    0.000017846   -0.000036155   -0.000000083

Difference to translation invariance:
           :    0.0000000000   -0.0000000000   -0.0000000000

Difference to rotation invariance:
           :    0.0001875322    0.0001936313    0.0004319627

Norm of the Cartesian gradient     ...    0.0005917982
RMS gradient                       ...    0.0000828683
MAX gradient                       ...    0.0002622920
------------------------------------------------------------------------------
                         ORCA GEOMETRY RELAXATION STEP
------------------------------------------------------------------------------

Reading the OPT-File                    .... done
Getting information on internals        .... done
Copying old internal coords+grads       .... done
Making the new internal coordinates     .... (2022 redundants) done
Validating the new internal coordinates .... (2022 redundants) done
Calculating the B-matrix                .... done
Calculating the G,G- and P matrices     .... done
Transforming gradient to internals      .... done
Projecting the internal gradient        .... done
Number of atoms                         ....  17
Number of internal coordinates          ....  69
Current Energy                          ....   -30.713732015 Eh
Current gradient norm                   ....     0.000591798 Eh/bohr
Maximum allowed component of the step   ....  0.300
Current trust radius                    ....  0.138
Updating the Hessian (BFGS)             .... done
Forming the augmented Hessian           .... done
Diagonalizing the augmented Hessian     .... done
Last element of RFO vector              ....  0.999690414
Lowest eigenvalues of augmented Hessian:
 -0.000001586  0.001197853  0.002774917  0.007284215  0.010384672
Length of the computed step             ....  0.024888939
The final length of the internal step   ....  0.024888939
Converting the step to Cartesian space:
 Initial RMS(Int)=    0.0029962762
Transforming coordinates:
 Iter   0:  RMS(Cart)=    0.0043933314 RMS(Int)=    0.0029957707
done
Storing new coordinates                 .... done
The predicted energy change is          ....    -0.000000793
Previously predicted energy change      ....    -0.000023695
Actually observed energy change         ....    -0.000019054
Ratio of predicted to observed change   ....     0.804146265
New trust radius                        ....     0.207407407

                                .--------------------.
          ----------------------|Geometry convergence|-------------------------
          Item                value                   Tolerance       Converged
          ---------------------------------------------------------------------
          Energy change      -0.0000190539            0.0000050000      NO
          RMS gradient        0.0000502231            0.0001000000      YES
          MAX gradient        0.0001367672            0.0003000000      YES
          RMS step            0.0029962762            0.0020000000      NO
          MAX step            0.0100712402            0.0040000000      NO
          -------------------------------------------------------------------------
          ........................................................
          Max(Bonds)      0.0003      Max(Angles)    0.05
          Max(Dihed)        0.58      Max(Improp)    0.00
          ---------------------------------------------------------------------

The optimization has not yet converged - more geometry cycles are needed


    ---------------------------------------------------------------------------
                         Redundant Internal Coordinates
                            (Angstroem and degrees)

        Definition                    Value    dE/dq     Step     New-Value
    ----------------------------------------------------------------------------
     1. B(C   1,N   0)                1.4738 -0.000132  0.0000    1.4739   
     2. B(C   2,C   1)                1.5383  0.000137 -0.0003    1.5381   
     3. B(O   3,C   2)                1.2301  0.000022 -0.0000    1.2300   
     4. B(N   4,C   2)                1.3340  0.000021  0.0000    1.3340   
     5. B(C   5,N   4)                1.4418  0.000088 -0.0000    1.4417   
     6. B(C   6,C   5)                1.5782  0.000057 -0.0001    1.5781   
     7. B(O   7,C   6)                1.2415 -0.000010 -0.0000    1.2415   
     8. B(O   8,C   6)                1.2435  0.000036 -0.0000    1.2434   
     9. B(H   9,N   0)                1.0233  0.000023 -0.0001    1.0233   
    10. B(H  10,N   0)                1.0534  0.000029 -0.0001    1.0533   
    11. B(H  10,O   3)                1.8218  0.000060 -0.0003    1.8215   
    12. B(H  11,N   0)                1.0240 -0.000002  0.0001    1.0241   
    13. B(H  12,C   1)                1.0883  0.000012 -0.0000    1.0883   
    14. B(H  13,C   1)                1.0902  0.000029  0.0000    1.0902   
    15. B(H  14,N   4)                1.0110  0.000025  0.0000    1.0110   
    16. B(H  15,C   5)                1.0913  0.000018 -0.0000    1.0913   
    17. B(H  16,C   5)                1.0877 -0.000004  0.0000    1.0877   
    18. A(H  10,N   0,H  11)          108.71 -0.000029   -0.05    108.65   
    19. A(H   9,N   0,H  11)          109.95  0.000006   -0.00    109.95   
    20. A(C   1,N   0,H  10)          102.72  0.000047   -0.01    102.70   
    21. A(H   9,N   0,H  10)          109.23 -0.000023    0.05    109.28   
    22. A(C   1,N   0,H   9)          113.10 -0.000085    0.03    113.14   
    23. A(C   1,N   0,H  11)          112.79  0.000083   -0.02    112.77   
    24. A(N   0,C   1,H  13)          111.50 -0.000031   -0.01    111.49   
    25. A(C   2,C   1,H  12)          110.14  0.000053    0.03    110.17   
    26. A(H  12,C   1,H  13)          109.42 -0.000005   -0.02    109.40   
    27. A(C   2,C   1,H  13)          107.05  0.000034   -0.04    107.02   
    28. A(N   0,C   1,C   2)          106.42  0.000015   -0.02    106.40   
    29. A(N   0,C   1,H  12)          112.15 -0.000059    0.05    112.19   
    30. A(C   1,C   2,N   4)          116.15 -0.000060    0.00    116.15   
    31. A(C   1,C   2,O   3)          117.88 -0.000036   -0.00    117.88   
    32. A(O   3,C   2,N   4)          125.77  0.000094   -0.00    125.77   
    33. A(C   5,N   4,H  14)          114.34 -0.000077   -0.02    114.32   
    34. A(C   2,N   4,C   5)          119.13 -0.000052    0.02    119.15   
    35. A(C   2,N   4,H  14)          117.00  0.000116   -0.02    116.98   
    36. A(C   6,C   5,H  16)          109.57  0.000057   -0.00    109.56   
    37. A(N   4,C   5,H  16)          111.12  0.000027   -0.01    111.11   
    38. A(C   6,C   5,H  15)          106.91  0.000111    0.00    106.91   
    39. A(N   4,C   5,C   6)          109.67 -0.000112    0.01    109.68   
    40. A(N   4,C   5,H  15)          109.77 -0.000058    0.00    109.78   
    41. A(H  15,C   5,H  16)          109.71 -0.000021    0.01    109.72   
    42. A(C   5,C   6,O   7)          116.17  0.000022   -0.00    116.16   
    43. A(O   7,C   6,O   8)          128.22  0.000004    0.00    128.22   
    44. A(C   5,C   6,O   8)          115.62 -0.000026    0.00    115.62   
    45. D(H  12,C   1,N   0,H   9)    115.66  0.000013   -0.57    115.09   
    46. D(H  12,C   1,N   0,H  11)     -9.90  0.000006   -0.58    -10.48   
    47. D(C   2,C   1,N   0,H  10)     -6.25  0.000014   -0.44     -6.69   
    48. D(H  12,C   1,N   0,H  10)   -126.74 -0.000026   -0.50   -127.24   
    49. D(C   2,C   1,N   0,H  11)    110.59  0.000046   -0.52    110.07   
    50. D(C   2,C   1,N   0,H   9)   -123.85  0.000053   -0.51   -124.36   
    51. D(O   3,C   2,C   1,N   0)      4.52  0.000002    0.25      4.77   
    52. D(N   4,C   2,C   1,N   0)   -170.62  0.000010    0.17   -170.45   
    53. D(O   3,C   2,C   1,H  13)   -114.83  0.000014    0.30   -114.53   
    54. D(N   4,C   2,C   1,H  12)    -48.84 -0.000022    0.24    -48.61   
    55. D(O   3,C   2,C   1,H  12)    126.30 -0.000029    0.32    126.62   
    56. D(H  14,N   4,C   2,C   1)    -14.96 -0.000052    0.04    -14.92   
    57. D(C   5,N   4,C   2,O   3)     25.91  0.000010    0.02     25.93   
    58. D(H  14,N   4,C   2,O   3)    170.34 -0.000036   -0.05    170.29   
    59. D(C   5,N   4,C   2,C   1)   -159.38 -0.000007    0.10   -159.28   
    60. D(H  16,C   5,N   4,C   2)   -169.28  0.000016    0.04   -169.25   
    61. D(H  15,C   5,N   4,H  14)    166.93 -0.000053    0.10    167.03   
    62. D(H  15,C   5,N   4,C   2)    -47.74 -0.000032    0.04    -47.71   
    63. D(C   6,C   5,N   4,H  14)    -75.90 -0.000018    0.10    -75.79   
    64. D(C   6,C   5,N   4,C   2)     69.43  0.000003    0.05     69.48   
    65. D(O   8,C   6,C   5,H  15)    110.18 -0.000041    0.06    110.24   
    66. D(O   8,C   6,C   5,N   4)     -8.77  0.000026    0.05     -8.72   
    67. D(O   7,C   6,C   5,H  16)     49.19  0.000021    0.06     49.25   
    68. D(O   7,C   6,C   5,H  15)    -69.63 -0.000048    0.05    -69.58   
    69. D(O   7,C   6,C   5,N   4)    171.41  0.000019    0.04    171.45   
    ----------------------------------------------------------------------------

Geometry step timings:
Preparation and reading OPT file:      0.000 s ( 1.168 %)
Internal coordinates            :      0.000 s ( 1.051 %)
B/P matrices and projection     :      0.000 s (37.150 %)
Hessian update/contruction      :      0.000 s (11.916 %)
Making the step                 :      0.000 s (28.855 %)
Converting the step to Cartesian:      0.000 s ( 2.921 %)
Storing new data                :      0.000 s ( 1.168 %)
Checking convergence            :      0.000 s ( 1.752 %)
Final printing                  :      0.000 s (13.902 %)
Total time                      :      0.001 s

Time for energy+gradient        :      0.017 s
Time for complete geometry iter :      0.018 s

         *************************************************************
         *                GEOMETRY OPTIMIZATION CYCLE  25            *
         *************************************************************
---------------------------------
CARTESIAN COORDINATES (ANGSTROEM)
---------------------------------
  N     2.634563    0.310930    0.028229
  C     1.398465    0.466463   -0.759266
  C     0.313550   -0.342825   -0.028780
  O     0.608383   -0.859317    1.047901
  N    -0.840529   -0.500040   -0.679044
  C    -2.028229   -0.830469    0.068492
  C    -2.464536    0.406045    0.946607
  O    -3.564830    0.313477    1.514071
  O    -1.656743    1.350628    0.984005
  H     3.044159    1.203989    0.314214
  H     2.301439   -0.208246    0.882018
  H     3.338788   -0.259839   -0.448192
  H     1.512855    0.105403   -1.779562
  H     1.064401    1.504092   -0.777587
  H    -1.003732    0.100921   -1.475549
  H    -1.814978   -1.649535    0.757386
  H    -2.843026   -1.111678   -0.594942

----------------------------
CARTESIAN COORDINATES (A.U.)
----------------------------
  NO LB    ZA    FRAG    MASS        X           Y           Z
   0 N   7.0000    0    14.007    4.978602    0.587573    0.053344
   1 C   6.0000    0    12.011    2.642715    0.881488   -1.434805
   2 C   6.0000    0    12.011    0.592524   -0.647845   -0.054386
   3 O   8.0000    0    15.999    1.149677   -1.623874    1.980246
   4 N   7.0000    0    14.007   -1.588369   -0.944939   -1.283207
   5 C   6.0000    0    12.011   -3.832798   -1.569359    0.129431
   6 C   6.0000    0    12.011   -4.657298    0.767314    1.788827
   7 O   8.0000    0    15.999   -6.736552    0.592387    2.861180
   8 O   8.0000    0    15.999   -3.130791    2.552318    1.859499
   9 H   1.0000    0     1.008    5.752626    2.275209    0.593778
  10 H   1.0000    0     1.008    4.349090   -0.393528    1.666773
  11 H   1.0000    0     1.008    6.309396   -0.491024   -0.846960
  12 H   1.0000    0     1.008    2.858882    0.199182   -3.362886
  13 H   1.0000    0     1.008    2.011427    2.842321   -1.469426
  14 H   1.0000    0     1.008   -1.896778    0.190714   -2.788383
  15 H   1.0000    0     1.008   -3.429812   -3.117170    1.431253
  16 H   1.0000    0     1.008   -5.372541   -2.100767   -1.124277

      -----------------------------------------------------------      
     |                   =====================                   |     
     |                           x T B                           |     
     |                   =====================                   |     
     |                         S. Grimme                         |     
     |          Mulliken Center for Theoretical Chemistry        |     
     |                    University of Bonn                     |     
      -----------------------------------------------------------      

   * xtb version 6.7.1 (edcfbbe) compiled by 'albert@albert-system' on 2024-07-22

   xtb is free software: you can redistribute it and/or modify it under
   the terms of the GNU Lesser General Public License as published by
   the Free Software Foundation, either version 3 of the License, or
   (at your option) any later version.
   
   xtb is distributed in the hope that it will be useful,
   but WITHOUT ANY WARRANTY; without even the implied warranty of
   MERCHANTABILITY or FITNESS FOR A PARTICULAR PURPOSE.  See the
   GNU Lesser General Public License for more details.
   
   Cite this work as:
   * C. Bannwarth, E. Caldeweyher, S. Ehlert, A. Hansen, P. Pracht,
     J. Seibert, S. Spicher, S. Grimme, WIREs Comput. Mol. Sci., 2020, 11,
     e01493. DOI: 10.1002/wcms.1493
   
   for GFN2-xTB:
   * C. Bannwarth, S. Ehlert and S. Grimme., J. Chem. Theory Comput., 2019,
     15, 1652-1671. DOI: 10.1021/acs.jctc.8b01176
   for GFN1-xTB:
   * S. Grimme, C. Bannwarth, P. Shushkov, J. Chem. Theory Comput., 2017,
     13, 1989-2009. DOI: 10.1021/acs.jctc.7b00118
   for GFN0-xTB:
   * P. Pracht, E. Caldeweyher, S. Ehlert, S. Grimme, ChemRxiv, 2019, preprint.
     DOI: 10.26434/chemrxiv.8326202.v1
   for GFN-FF:
   * S. Spicher and S. Grimme, Angew. Chem. Int. Ed., 2020, 59, 15665-15673.
     DOI: 10.1002/anie.202004239
   
   for ALPB and GBSA implicit solvation:
   * S. Ehlert, M. Stahn, S. Spicher, S. Grimme, J. Chem. Theory Comput.,
     2021, 17, 4250-4261. DOI: 10.1021/acs.jctc.1c00471
   
   for ddCOSMO and CPCM-X implicit solvation:
   * M. Stahn, S. Ehlert, S. Grimme, J. Phys. Chem. A,
     2023, XX, XXXX-XXXX. DOI: 10.1021/acs.jpca.3c04382
   
   for DFT-D4:
   * E. Caldeweyher, C. Bannwarth and S. Grimme, J. Chem. Phys., 2017,
     147, 034112. DOI: 10.1063/1.4993215
   * E. Caldeweyher, S. Ehlert, A. Hansen, H. Neugebauer, S. Spicher,
     C. Bannwarth and S. Grimme, J. Chem. Phys., 2019, 150, 154122.
     DOI: 10.1063/1.5090222
   * E. Caldeweyher, J.-M. Mewes, S. Ehlert and S. Grimme, Phys. Chem. Chem. Phys.
     2020, 22, 8499-8512. DOI: 10.1039/D0CP00502A
   
   for sTDA-xTB:
   * S. Grimme and C. Bannwarth, J. Chem. Phys., 2016, 145, 054103.
     DOI: 10.1063/1.4959605
   
   in the mass-spec context:
   * V. Asgeirsson, C. Bauer and S. Grimme, Chem. Sci., 2017, 8, 4879.
     DOI: 10.1039/c7sc00601b
   * J. Koopman and S. Grimme, ACS Omega 2019, 4, 12, 15120-15133.
     DOI: 10.1021/acsomega.9b02011
   
   for metadynamics refer to:
   * S. Grimme, J. Chem. Theory Comput., 2019, 155, 2847-2862
     DOI: 10.1021/acs.jctc.9b00143
   
   for SPH calculations refer to:
   * S. Spicher and S. Grimme, J. Chem. Theory Comput., 2021, 17, 1701-1714
     DOI: 10.1021/acs.jctc.0c01306
   
   for ONIOM refer to:
   * C. Plett, A. Katbashev, S. Ehlert, S. Grimme, M. Bursch,
     Phys. Chem. Chem. Phys., 2023, 25, 17860-17868. DOI: 10.1039/D3CP02178E
   
   for DIPRO refer to:
   * J. Kohn, N. Gildemeister, S. Grimme, D. Fazzi, A. Hansen,
     J. Chem. Phys., 2023, just accepted.
   
   for PTB refer to:
   * S. Grimme, M. Mueller, A. Hansen, J. Chem. Phys., 2023, 158, 124111.
     DOI: 10.1063/5.0137838
   
   with help from (in alphabetical order)
   P. Atkinson, C. Bannwarth, F. Bohle, G. Brandenburg, E. Caldeweyher
   M. Checinski, S. Dohm, S. Ehlert, S. Ehrlich, I. Gerasimov, C. Hölzer
   A. Katbashev, J. Kohn, J. Koopman, C. Lavigne, S. Lehtola, F. März, M. Müller,
   F. Musil, H. Neugebauer, J. Pisarek, C. Plett, P. Pracht, F. Pultar,
   J. Seibert, P. Shushkov, S. Spicher, M. Stahn, M. Steiner, T. Strunk,
   J. Stückrath, T. Rose, and J. Unsleber
   
 * started run on 2026/04/11 at 16:57:59.535     
   ID    Z sym.   atoms
    1    7 N      1, 5
    2    6 C      2, 3, 6, 7
    3    8 O      4, 8, 9
    4    1 H      10-17

           -------------------------------------------------
          |                Calculation Setup                |
           -------------------------------------------------

          program call               : /home/analima/Programs/orca-6.1.0-f.0_linux_x86-64/bin/otool_xtb geo_opt_XTB.xyz --grad -c 0 -u 0 -P 1 --namespace geo_opt --input geo_opt_XTB.input.tmp --alpb WATER --acc 0.200000
          calculation namespace      : geo_opt
          coordinate file            : geo_opt_XTB.xyz
          omp threads                :                     1


           -------------------------------------------------
          |                 G F N 2 - x T B                 |
           -------------------------------------------------

        Reference                      10.1021/acs.jctc.8b01176
      * Hamiltonian:
        H0-scaling (s, p, d)           1.850000    2.230000    2.230000
        zeta-weighting                 0.500000
      * Dispersion:
        s8                             2.700000
        a1                             0.520000
        a2                             5.000000
        s9                             5.000000
      * Repulsion:
        kExp                           1.500000    1.000000
        rExp                           1.000000
      * Coulomb:
        alpha                          2.000000
        third order                    shell-resolved
        anisotropic                    true
        a3                             3.000000
        a5                             4.000000
        cn-shift                       1.200000
        cn-exp                         4.000000
        max-rad                        5.000000

      * Solvation model:               ALPB
        Solvent                        WATER
        Parameter file                 internal GFN2-xTB/ALPB
        Dielectric constant                8.0200E+01
        Reference state                gsolv [1 M gas/solution]
        Free energy shift                  1.0808E-03 Eh       6.7819E-01 kcal/mol
        Temperature                        2.9815E+02 K
        Density                            1.0000E+00 kg/L
        Solvent mass                       1.8000E+01 g/mol
        Interaction kernel             P16
        Born radius scaling (c1)           1.4744E+00
        Born radii integrator          GBOBC
        Born offset                        0.0000E+00 a0       0.0000E+00 AA
        H-bond correction              true
        Ion screening                  false
        Surface tension                    1.0000E-05 Eh       1.5569E+01 dyn/cm
        Grid points                               230 per atom
q/qsh data taken from xtbrestart
CAMM data taken from xtbrestart

          ...................................................
          :                      SETUP                      :
          :.................................................:
          :  # basis functions                  44          :
          :  # atomic orbitals                  44          :
          :  # shells                           26          :
          :  # electrons                        52          :
          :  max. iterations                   250          :
          :  Hamiltonian                  GFN2-xTB          :
          :  restarted?                       true          :
          :  GBSA solvation                   true          :
          :  PC potential                    false          :
          :  electronic temp.          300.0000000     K    :
          :  accuracy                    0.2000000          :
          :  -> integral cutoff          0.3198970E+02      :
          :  -> integral neglect         0.2000000E-08      :
          :  -> SCF convergence          0.2000000E-06 Eh   :
          :  -> wf. convergence          0.2000000E-04 e    :
          :  Broyden damping             0.4000000          :
          :  net charge                          0          :
          :  unpaired electrons                  0          :
          ...................................................

 iter      E             dE          RMSdq      gap      omega  full diag
   1    -31.0051507 -0.310052E+02  0.103E-02    3.74       0.0  T
   2    -31.0051507 -0.867588E-08  0.603E-03    3.74       4.0  T
   3    -31.0051507 -0.284023E-08  0.350E-04    3.74      69.2  T
   4    -31.0051507 -0.317804E-09  0.191E-04    3.74     127.0  T
   5    -31.0051507 -0.331504E-10  0.547E-05    3.74     443.7  T

   *** convergence criteria satisfied after 5 iterations ***

         #    Occupation            Energy/Eh            Energy/eV
      -------------------------------------------------------------
         1        2.0000           -0.7252311             -19.7345
       ...           ...                  ...                  ...
        20        2.0000           -0.4830135             -13.1435
        21        2.0000           -0.4644586             -12.6386
        22        2.0000           -0.4400927             -11.9755
        23        2.0000           -0.4232475             -11.5171
        24        2.0000           -0.4055379             -11.0352
        25        2.0000           -0.3907056             -10.6316
        26        2.0000           -0.3639940              -9.9048 (HOMO)
        27                         -0.2264860              -6.1630 (LUMO)
        28                         -0.1763344              -4.7983
        29                         -0.0475837              -1.2948
        30                          0.0197224               0.5367
        31                          0.0480186               1.3067
       ...                                ...                  ...
        44                          0.6484866              17.6462
      -------------------------------------------------------------
                  HL-Gap            0.1375081 Eh            3.7418 eV
             Fermi-level           -0.2952400 Eh           -8.0339 eV

 SCC (total)                   0 d,  0 h,  0 min,  0.007 sec
 SCC setup                      ...        0 min,  0.000 sec (  2.900%)
 Dispersion                     ...        0 min,  0.000 sec (  0.615%)
 classical contributions        ...        0 min,  0.000 sec (  0.142%)
 integral evaluation            ...        0 min,  0.001 sec (  9.335%)
 iterations                     ...        0 min,  0.003 sec ( 50.500%)
 molecular gradient             ...        0 min,  0.002 sec ( 35.237%)
 printout                       ...        0 min,  0.000 sec (  1.122%)

         :::::::::::::::::::::::::::::::::::::::::::::::::::::
         ::                     SUMMARY                     ::
         :::::::::::::::::::::::::::::::::::::::::::::::::::::
         :: total energy             -30.713732980061 Eh    ::
         :: total w/o Gsasa/hb       -30.702834170069 Eh    ::
         :: gradient norm              0.000519669309 Eh/a0 ::
         :: HOMO-LUMO gap              3.741784672441 eV    ::
         ::.................................................::
         :: SCC energy               -31.005135353642 Eh    ::
         :: -> isotropic ES            0.276063642063 Eh    ::
         :: -> anisotropic ES         -0.020319184249 Eh    ::
         :: -> anisotropic XC          0.006621416425 Eh    ::
         :: -> dispersion             -0.011253295879 Eh    ::
         :: -> Gsolv                  -0.124427434026 Eh    ::
         ::    -> Gelec               -0.113528624034 Eh    ::
         ::    -> Gsasa                0.004251480243 Eh    ::
         ::    -> Ghb                 -0.016231049934 Eh    ::
         ::    -> Gshift               0.001080759698 Eh    ::
         :: repulsion energy           0.291402373581 Eh    ::
         :: add. restraining           0.000000000000 Eh    ::
         :: total charge               0.000000000000 e     ::
         :::::::::::::::::::::::::::::::::::::::::::::::::::::


Property printout bound to 'properties.out'

           -------------------------------------------------
          | TOTAL ENERGY              -30.713732980061 Eh   |
          | GRADIENT NORM               0.000519669309 Eh/α |
          | HOMO-LUMO GAP               3.741784672441 eV   |
           -------------------------------------------------

------------------------------------------------------------------------
 * finished run on 2026/04/11 at 16:57:59.548     
------------------------------------------------------------------------
 total:
 * wall-time:     0 d,  0 h,  0 min,  0.012 sec
 *  cpu-time:     0 d,  0 h,  0 min,  0.011 sec
 * ratio c/w:     0.881 speedup
 SCF:
 * wall-time:     0 d,  0 h,  0 min,  0.007 sec
 *  cpu-time:     0 d,  0 h,  0 min,  0.006 sec
 * ratio c/w:     0.809 speedup


-------------------------   --------------------
FINAL SINGLE POINT ENERGY       -30.713732980060
-------------------------   --------------------


-------------
DIPOLE MOMENT
-------------
                                X             Y             Z
Total Dipole Moment    :      8.48100      -0.40100      -4.04200
                        -----------------------------------------
Magnitude (a.u.)       :      9.40351
Magnitude (Debye)      :     23.90181


------------------
CARTESIAN GRADIENT
------------------

   1   N   :   -0.000123870   -0.000048499   -0.000117696
   2   C   :    0.000025801    0.000039068    0.000006071
   3   C   :   -0.000045427   -0.000144668    0.000163864
   4   O   :    0.000015283    0.000057867   -0.000042129
   5   N   :    0.000268510    0.000045926   -0.000064400
   6   C   :   -0.000211464    0.000033000    0.000071202
   7   C   :    0.000001759    0.000062470    0.000032011
   8   O   :    0.000026343   -0.000008773   -0.000012318
   9   O   :   -0.000002312   -0.000023013   -0.000007672
  10   H   :   -0.000040723    0.000009747    0.000038396
  11   H   :    0.000063258    0.000039813    0.000020643
  12   H   :    0.000041596   -0.000019169    0.000020324
  13   H   :    0.000007502    0.000024557   -0.000015205
  14   H   :    0.000008007    0.000010384   -0.000013638
  15   H   :   -0.000130021    0.000006278    0.000005566
  16   H   :    0.000070831   -0.000060848   -0.000073234
  17   H   :    0.000024927   -0.000024140   -0.000011785

Difference to translation invariance:
           :    0.0000000000   -0.0000000000   -0.0000000000

Difference to rotation invariance:
           :    0.0001607142    0.0001983707    0.0003771356

Norm of the Cartesian gradient     ...    0.0005196693
RMS gradient                       ...    0.0000727683
MAX gradient                       ...    0.0002685100
------------------------------------------------------------------------------
                         ORCA GEOMETRY RELAXATION STEP
------------------------------------------------------------------------------

Reading the OPT-File                    .... done
Getting information on internals        .... done
Copying old internal coords+grads       .... done
Making the new internal coordinates     .... (2022 redundants) done
Validating the new internal coordinates .... (2022 redundants) done
Calculating the B-matrix                .... done
Calculating the G,G- and P matrices     .... done
Transforming gradient to internals      .... done
Projecting the internal gradient        .... done
Number of atoms                         ....  17
Number of internal coordinates          ....  69
Current Energy                          ....   -30.713732980 Eh
Current gradient norm                   ....     0.000519669 Eh/bohr
Maximum allowed component of the step   ....  0.300
Current trust radius                    ....  0.207
Updating the Hessian (BFGS)             .... done
Forming the augmented Hessian           .... done
Diagonalizing the augmented Hessian     .... done
Last element of RFO vector              ....  0.999955251
Lowest eigenvalues of augmented Hessian:
 -0.000000480  0.001072777  0.002777019  0.007529048  0.010487708
Length of the computed step             ....  0.009460661
The final length of the internal step   ....  0.009460661
Converting the step to Cartesian space:
 Initial RMS(Int)=    0.0011389297
Transforming coordinates:
 Iter   0:  RMS(Cart)=    0.0018466129 RMS(Int)=    0.0011360498
done
Storing new coordinates                 .... done
The predicted energy change is          ....    -0.000000240
Previously predicted energy change      ....    -0.000000793
Actually observed energy change         ....    -0.000000965
Ratio of predicted to observed change   ....     1.216754320
New trust radius                        ....     0.311111111

                                .--------------------.
          ----------------------|Geometry convergence|-------------------------
          Item                value                   Tolerance       Converged
          ---------------------------------------------------------------------
          Energy change      -0.0000009654            0.0000050000      YES
          RMS gradient        0.0000404842            0.0001000000      YES
          MAX gradient        0.0001039380            0.0003000000      YES
          RMS step            0.0011389297            0.0020000000      YES
          MAX step            0.0038168779            0.0040000000      YES
          -------------------------------------------------------------------------
          ........................................................
          Max(Bonds)      0.0002      Max(Angles)    0.04
          Max(Dihed)        0.22      Max(Improp)    0.00
          ---------------------------------------------------------------------

                    ***********************HURRAY********************
                    ***        THE OPTIMIZATION HAS CONVERGED     ***
                    *************************************************


    ---------------------------------------------------------------------------
                         Redundant Internal Coordinates

                          --- Optimized Parameters ---  
                            (Angstroem and degrees)

        Definition                    OldVal   dE/dq     Step     FinalVal
    ----------------------------------------------------------------------------
     1. B(C   1,N   0)                1.4739 -0.000060 -0.0000    1.4739   
     2. B(C   2,C   1)                1.5380  0.000026 -0.0001    1.5379   
     3. B(O   3,C   2)                1.2300 -0.000056  0.0000    1.2300   
     4. B(N   4,C   2)                1.3340 -0.000007  0.0000    1.3340   
     5. B(C   5,N   4)                1.4417  0.000068 -0.0001    1.4417   
     6. B(C   6,C   5)                1.5781  0.000034 -0.0000    1.5781   
     7. B(O   7,C   6)                1.2415 -0.000031  0.0000    1.2415   
     8. B(O   8,C   6)                1.2434 -0.000014  0.0000    1.2435   
     9. B(H   9,N   0)                1.0233 -0.000000 -0.0000    1.0233   
    10. B(H  10,N   0)                1.0533 -0.000018  0.0000    1.0533   
    11. B(H  10,O   3)                1.8215  0.000002  0.0002    1.8217   
    12. B(H  11,N   0)                1.0241  0.000032 -0.0000    1.0240   
    13. B(H  12,C   1)                1.0883  0.000008 -0.0000    1.0883   
    14. B(H  13,C   1)                1.0902  0.000002  0.0000    1.0902   
    15. B(H  14,N   4)                1.0110  0.000020 -0.0000    1.0110   
    16. B(H  15,C   5)                1.0913  0.000010 -0.0000    1.0913   
    17. B(H  16,C   5)                1.0877 -0.000005  0.0000    1.0877   
    18. A(H  10,N   0,H  11)          108.66 -0.000042   -0.01    108.64   
    19. A(H   9,N   0,H  11)          109.95  0.000002   -0.00    109.95   
    20. A(C   1,N   0,H  10)          102.70  0.000079   -0.02    102.68   
    21. A(H   9,N   0,H  10)          109.28 -0.000060    0.04    109.32   
    22. A(C   1,N   0,H   9)          113.14 -0.000048    0.01    113.15   
    23. A(C   1,N   0,H  11)          112.77  0.000067   -0.02    112.74   
    24. A(N   0,C   1,H  13)          111.49 -0.000002   -0.00    111.49   
    25. A(C   2,C   1,H  12)          110.17  0.000021    0.02    110.19   
    26. A(H  12,C   1,H  13)          109.40 -0.000023    0.01    109.41   
    27. A(C   2,C   1,H  13)          107.02  0.000029   -0.02    106.99   
    28. A(N   0,C   1,C   2)          106.40 -0.000030   -0.02    106.37   
    29. A(N   0,C   1,H  12)          112.19  0.000006    0.01    112.21   
    30. A(C   1,C   2,N   4)          116.15 -0.000080    0.02    116.17   
    31. A(C   1,C   2,O   3)          117.88 -0.000006   -0.02    117.86   
    32. A(O   3,C   2,N   4)          125.77  0.000087   -0.00    125.77   
    33. A(C   5,N   4,H  14)          114.31 -0.000100    0.02    114.33   
    34. A(C   2,N   4,C   5)          119.14 -0.000015   -0.00    119.14   
    35. A(C   2,N   4,H  14)          116.98  0.000101   -0.01    116.96   
    36. A(C   6,C   5,H  16)          109.56  0.000050   -0.01    109.55   
    37. A(N   4,C   5,H  16)          111.11  0.000004    0.01    111.11   
    38. A(C   6,C   5,H  15)          106.91  0.000104   -0.02    106.89   
    39. A(N   4,C   5,C   6)          109.68 -0.000080    0.01    109.68   
    40. A(N   4,C   5,H  15)          109.78 -0.000065    0.02    109.79   
    41. A(H  15,C   5,H  16)          109.72 -0.000008    0.00    109.72   
    42. A(C   5,C   6,O   7)          116.16  0.000010   -0.00    116.16   
    43. A(O   7,C   6,O   8)          128.22  0.000014   -0.00    128.22   
    44. A(C   5,C   6,O   8)          115.62 -0.000024    0.00    115.62   
    45. D(H  12,C   1,N   0,H   9)    115.09  0.000017   -0.22    114.87   
    46. D(H  12,C   1,N   0,H  11)    -10.48 -0.000002   -0.21    -10.69   
    47. D(C   2,C   1,N   0,H  10)     -6.69 -0.000020   -0.15     -6.84   
    48. D(H  12,C   1,N   0,H  10)   -127.24 -0.000030   -0.17   -127.41   
    49. D(C   2,C   1,N   0,H  11)    110.07  0.000008   -0.19    109.88   
    50. D(C   2,C   1,N   0,H   9)   -124.36  0.000027   -0.20   -124.56   
    51. D(O   3,C   2,C   1,N   0)      4.77 -0.000001    0.10      4.88   
    52. D(N   4,C   2,C   1,N   0)   -170.45 -0.000018    0.09   -170.35   
    53. D(O   3,C   2,C   1,H  13)   -114.53  0.000002    0.13   -114.41   
    54. D(N   4,C   2,C   1,H  12)    -48.60 -0.000017    0.11    -48.49   
    55. D(O   3,C   2,C   1,H  12)    126.62  0.000001    0.12    126.73   
    56. D(H  14,N   4,C   2,C   1)    -14.92 -0.000038    0.05    -14.87   
    57. D(C   5,N   4,C   2,O   3)     25.93  0.000008    0.02     25.94   
    58. D(H  14,N   4,C   2,O   3)    170.29 -0.000051    0.04    170.33   
    59. D(C   5,N   4,C   2,C   1)   -159.28  0.000021    0.03   -159.26   
    60. D(H  16,C   5,N   4,C   2)   -169.25  0.000018    0.01   -169.24   
    61. D(H  15,C   5,N   4,H  14)    167.03 -0.000044    0.01    167.04   
    62. D(H  15,C   5,N   4,C   2)    -47.71 -0.000034    0.03    -47.68   
    63. D(C   6,C   5,N   4,H  14)    -75.79 -0.000003   -0.00    -75.79   
    64. D(C   6,C   5,N   4,C   2)     69.48  0.000007    0.02     69.49   
    65. D(O   8,C   6,C   5,H  15)    110.24 -0.000026    0.00    110.24   
    66. D(O   8,C   6,C   5,N   4)     -8.72  0.000036   -0.01     -8.74   
    67. D(O   7,C   6,C   5,H  16)     49.25  0.000027   -0.01     49.24   
    68. D(O   7,C   6,C   5,H  15)    -69.58 -0.000049    0.01    -69.58   
    69. D(O   7,C   6,C   5,N   4)    171.45  0.000012   -0.01    171.45   
    ----------------------------------------------------------------------------

Geometry step timings:
Preparation and reading OPT file:      0.000 s ( 1.171 %)
Internal coordinates            :      0.000 s ( 1.054 %)
B/P matrices and projection     :      0.000 s (36.885 %)
Hessian update/contruction      :      0.000 s (13.349 %)
Making the step                 :      0.000 s (28.571 %)
Converting the step to Cartesian:      0.000 s ( 3.162 %)
Storing new data                :      0.000 s ( 1.054 %)
Checking convergence            :      0.000 s ( 1.522 %)
Final printing                  :      0.000 s (13.232 %)
Total time                      :      0.001 s
                 *******************************************************
                 *** FINAL ENERGY EVALUATION AT THE STATIONARY POINT ***
                 ***               (AFTER   25 CYCLES)               ***
                 *******************************************************
---------------------------------
CARTESIAN COORDINATES (ANGSTROEM)
---------------------------------
  N     2.634903    0.310439    0.027897
  C     1.398327    0.467361   -0.758660
  C     0.313640   -0.342424   -0.028533
  O     0.608445   -0.858693    1.048295
  N    -0.840325   -0.500248   -0.678897
  C    -2.027942   -0.830759    0.068576
  C    -2.465107    0.405911    0.945962
  O    -3.565545    0.313051    1.513136
  O    -1.657762    1.350901    0.983317
  H     3.046899    1.202953    0.312094
  H     2.301506   -0.207314    0.882432
  H     3.337226   -0.262507   -0.448696
  H     1.511964    0.107927   -1.779595
  H     1.064362    1.505074   -0.774935
  H    -1.003275    0.100155   -1.475861
  H    -1.814724   -1.649176    0.758236
  H    -2.842593   -1.112652   -0.594769

----------------------------
CARTESIAN COORDINATES (A.U.)
----------------------------
  NO LB    ZA    FRAG    MASS        X           Y           Z
   0 N   7.0000    0    14.007    4.979245    0.586645    0.052717
   1 C   6.0000    0    12.011    2.642454    0.883185   -1.433659
   2 C   6.0000    0    12.011    0.592694   -0.647088   -0.053920
   3 O   8.0000    0    15.999    1.149794   -1.622694    1.980991
   4 N   7.0000    0    14.007   -1.587984   -0.945333   -1.282929
   5 C   6.0000    0    12.011   -3.832254   -1.569906    0.129590
   6 C   6.0000    0    12.011   -4.658377    0.767060    1.787610
   7 O   8.0000    0    15.999   -6.737904    0.591581    2.859413
   8 O   8.0000    0    15.999   -3.132716    2.552833    1.858200
   9 H   1.0000    0     1.008    5.757804    2.273252    0.589773
  10 H   1.0000    0     1.008    4.349216   -0.391767    1.667555
  11 H   1.0000    0     1.008    6.306443   -0.496066   -0.847913
  12 H   1.0000    0     1.008    2.857198    0.203952   -3.362947
  13 H   1.0000    0     1.008    2.011353    2.844177   -1.464416
  14 H   1.0000    0     1.008   -1.895914    0.189266   -2.788972
  15 H   1.0000    0     1.008   -3.429331   -3.116491    1.432858
  16 H   1.0000    0     1.008   -5.371722   -2.102608   -1.123950

      -----------------------------------------------------------      
     |                   =====================                   |     
     |                           x T B                           |     
     |                   =====================                   |     
     |                         S. Grimme                         |     
     |          Mulliken Center for Theoretical Chemistry        |     
     |                    University of Bonn                     |     
      -----------------------------------------------------------      

   * xtb version 6.7.1 (edcfbbe) compiled by 'albert@albert-system' on 2024-07-22

   xtb is free software: you can redistribute it and/or modify it under
   the terms of the GNU Lesser General Public License as published by
   the Free Software Foundation, either version 3 of the License, or
   (at your option) any later version.
   
   xtb is distributed in the hope that it will be useful,
   but WITHOUT ANY WARRANTY; without even the implied warranty of
   MERCHANTABILITY or FITNESS FOR A PARTICULAR PURPOSE.  See the
   GNU Lesser General Public License for more details.
   
   Cite this work as:
   * C. Bannwarth, E. Caldeweyher, S. Ehlert, A. Hansen, P. Pracht,
     J. Seibert, S. Spicher, S. Grimme, WIREs Comput. Mol. Sci., 2020, 11,
     e01493. DOI: 10.1002/wcms.1493
   
   for GFN2-xTB:
   * C. Bannwarth, S. Ehlert and S. Grimme., J. Chem. Theory Comput., 2019,
     15, 1652-1671. DOI: 10.1021/acs.jctc.8b01176
   for GFN1-xTB:
   * S. Grimme, C. Bannwarth, P. Shushkov, J. Chem. Theory Comput., 2017,
     13, 1989-2009. DOI: 10.1021/acs.jctc.7b00118
   for GFN0-xTB:
   * P. Pracht, E. Caldeweyher, S. Ehlert, S. Grimme, ChemRxiv, 2019, preprint.
     DOI: 10.26434/chemrxiv.8326202.v1
   for GFN-FF:
   * S. Spicher and S. Grimme, Angew. Chem. Int. Ed., 2020, 59, 15665-15673.
     DOI: 10.1002/anie.202004239
   
   for ALPB and GBSA implicit solvation:
   * S. Ehlert, M. Stahn, S. Spicher, S. Grimme, J. Chem. Theory Comput.,
     2021, 17, 4250-4261. DOI: 10.1021/acs.jctc.1c00471
   
   for ddCOSMO and CPCM-X implicit solvation:
   * M. Stahn, S. Ehlert, S. Grimme, J. Phys. Chem. A,
     2023, XX, XXXX-XXXX. DOI: 10.1021/acs.jpca.3c04382
   
   for DFT-D4:
   * E. Caldeweyher, C. Bannwarth and S. Grimme, J. Chem. Phys., 2017,
     147, 034112. DOI: 10.1063/1.4993215
   * E. Caldeweyher, S. Ehlert, A. Hansen, H. Neugebauer, S. Spicher,
     C. Bannwarth and S. Grimme, J. Chem. Phys., 2019, 150, 154122.
     DOI: 10.1063/1.5090222
   * E. Caldeweyher, J.-M. Mewes, S. Ehlert and S. Grimme, Phys. Chem. Chem. Phys.
     2020, 22, 8499-8512. DOI: 10.1039/D0CP00502A
   
   for sTDA-xTB:
   * S. Grimme and C. Bannwarth, J. Chem. Phys., 2016, 145, 054103.
     DOI: 10.1063/1.4959605
   
   in the mass-spec context:
   * V. Asgeirsson, C. Bauer and S. Grimme, Chem. Sci., 2017, 8, 4879.
     DOI: 10.1039/c7sc00601b
   * J. Koopman and S. Grimme, ACS Omega 2019, 4, 12, 15120-15133.
     DOI: 10.1021/acsomega.9b02011
   
   for metadynamics refer to:
   * S. Grimme, J. Chem. Theory Comput., 2019, 155, 2847-2862
     DOI: 10.1021/acs.jctc.9b00143
   
   for SPH calculations refer to:
   * S. Spicher and S. Grimme, J. Chem. Theory Comput., 2021, 17, 1701-1714
     DOI: 10.1021/acs.jctc.0c01306
   
   for ONIOM refer to:
   * C. Plett, A. Katbashev, S. Ehlert, S. Grimme, M. Bursch,
     Phys. Chem. Chem. Phys., 2023, 25, 17860-17868. DOI: 10.1039/D3CP02178E
   
   for DIPRO refer to:
   * J. Kohn, N. Gildemeister, S. Grimme, D. Fazzi, A. Hansen,
     J. Chem. Phys., 2023, just accepted.
   
   for PTB refer to:
   * S. Grimme, M. Mueller, A. Hansen, J. Chem. Phys., 2023, 158, 124111.
     DOI: 10.1063/5.0137838
   
   with help from (in alphabetical order)
   P. Atkinson, C. Bannwarth, F. Bohle, G. Brandenburg, E. Caldeweyher
   M. Checinski, S. Dohm, S. Ehlert, S. Ehrlich, I. Gerasimov, C. Hölzer
   A. Katbashev, J. Kohn, J. Koopman, C. Lavigne, S. Lehtola, F. März, M. Müller,
   F. Musil, H. Neugebauer, J. Pisarek, C. Plett, P. Pracht, F. Pultar,
   J. Seibert, P. Shushkov, S. Spicher, M. Stahn, M. Steiner, T. Strunk,
   J. Stückrath, T. Rose, and J. Unsleber
   
 * started run on 2026/04/11 at 16:57:59.553     
   ID    Z sym.   atoms
    1    7 N      1, 5
    2    6 C      2, 3, 6, 7
    3    8 O      4, 8, 9
    4    1 H      10-17

           -------------------------------------------------
          |                Calculation Setup                |
           -------------------------------------------------

          program call               : /home/analima/Programs/orca-6.1.0-f.0_linux_x86-64/bin/otool_xtb geo_opt_XTB.xyz --grad -c 0 -u 0 -P 1 --namespace geo_opt --input geo_opt_XTB.input.tmp --alpb WATER --acc 0.200000
          calculation namespace      : geo_opt
          coordinate file            : geo_opt_XTB.xyz
          omp threads                :                     1


           -------------------------------------------------
          |                 G F N 2 - x T B                 |
           -------------------------------------------------

        Reference                      10.1021/acs.jctc.8b01176
      * Hamiltonian:
        H0-scaling (s, p, d)           1.850000    2.230000    2.230000
        zeta-weighting                 0.500000
      * Dispersion:
        s8                             2.700000
        a1                             0.520000
        a2                             5.000000
        s9                             5.000000
      * Repulsion:
        kExp                           1.500000    1.000000
        rExp                           1.000000
      * Coulomb:
        alpha                          2.000000
        third order                    shell-resolved
        anisotropic                    true
        a3                             3.000000
        a5                             4.000000
        cn-shift                       1.200000
        cn-exp                         4.000000
        max-rad                        5.000000

      * Solvation model:               ALPB
        Solvent                        WATER
        Parameter file                 internal GFN2-xTB/ALPB
        Dielectric constant                8.0200E+01
        Reference state                gsolv [1 M gas/solution]
        Free energy shift                  1.0808E-03 Eh       6.7819E-01 kcal/mol
        Temperature                        2.9815E+02 K
        Density                            1.0000E+00 kg/L
        Solvent mass                       1.8000E+01 g/mol
        Interaction kernel             P16
        Born radius scaling (c1)           1.4744E+00
        Born radii integrator          GBOBC
        Born offset                        0.0000E+00 a0       0.0000E+00 AA
        H-bond correction              true
        Ion screening                  false
        Surface tension                    1.0000E-05 Eh       1.5569E+01 dyn/cm
        Grid points                               230 per atom
q/qsh data taken from xtbrestart
CAMM data taken from xtbrestart

          ...................................................
          :                      SETUP                      :
          :.................................................:
          :  # basis functions                  44          :
          :  # atomic orbitals                  44          :
          :  # shells                           26          :
          :  # electrons                        52          :
          :  max. iterations                   250          :
          :  Hamiltonian                  GFN2-xTB          :
          :  restarted?                       true          :
          :  GBSA solvation                   true          :
          :  PC potential                    false          :
          :  electronic temp.          300.0000000     K    :
          :  accuracy                    0.2000000          :
          :  -> integral cutoff          0.3198970E+02      :
          :  -> integral neglect         0.2000000E-08      :
          :  -> SCF convergence          0.2000000E-06 Eh   :
          :  -> wf. convergence          0.2000000E-04 e    :
          :  Broyden damping             0.4000000          :
          :  net charge                          0          :
          :  unpaired electrons                  0          :
          ...................................................

 iter      E             dE          RMSdq      gap      omega  full diag
   1    -31.0051501 -0.310052E+02  0.432E-03    3.74       0.0  T
   2    -31.0051501 -0.455176E-08  0.250E-03    3.74       9.7  T
   3    -31.0051501 -0.412534E-09  0.275E-04    3.74      88.2  T
   4    -31.0051501 -0.493895E-09  0.103E-04    3.74     236.1  T
   5    -31.0051501 -0.195719E-10  0.500E-05    3.74     485.3  T

   *** convergence criteria satisfied after 5 iterations ***

         #    Occupation            Energy/Eh            Energy/eV
      -------------------------------------------------------------
         1        2.0000           -0.7252285             -19.7345
       ...           ...                  ...                  ...
        20        2.0000           -0.4830183             -13.1436
        21        2.0000           -0.4644581             -12.6385
        22        2.0000           -0.4400869             -11.9754
        23        2.0000           -0.4232432             -11.5170
        24        2.0000           -0.4055332             -11.0351
        25        2.0000           -0.3907008             -10.6315
        26        2.0000           -0.3639881              -9.9046 (HOMO)
        27                         -0.2264931              -6.1632 (LUMO)
        28                         -0.1763364              -4.7984
        29                         -0.0475980              -1.2952
        30                          0.0197382               0.5371
        31                          0.0480042               1.3063
       ...                                ...                  ...
        44                          0.6484243              17.6445
      -------------------------------------------------------------
                  HL-Gap            0.1374951 Eh            3.7414 eV
             Fermi-level           -0.2952406 Eh           -8.0339 eV

 SCC (total)                   0 d,  0 h,  0 min,  0.008 sec
 SCC setup                      ...        0 min,  0.000 sec (  4.142%)
 Dispersion                     ...        0 min,  0.000 sec (  0.961%)
 classical contributions        ...        0 min,  0.000 sec (  0.232%)
 integral evaluation            ...        0 min,  0.001 sec ( 15.994%)
 iterations                     ...        0 min,  0.004 sec ( 51.602%)
 molecular gradient             ...        0 min,  0.002 sec ( 26.070%)
 printout                       ...        0 min,  0.000 sec (  0.816%)

         :::::::::::::::::::::::::::::::::::::::::::::::::::::
         ::                     SUMMARY                     ::
         :::::::::::::::::::::::::::::::::::::::::::::::::::::
         :: total energy             -30.713733335696 Eh    ::
         :: total w/o Gsasa/hb       -30.702831712987 Eh    ::
         :: gradient norm              0.000357198349 Eh/a0 ::
         :: HOMO-LUMO gap              3.741431515204 eV    ::
         ::.................................................::
         :: SCC energy               -31.005134778020 Eh    ::
         :: -> isotropic ES            0.276097689939 Eh    ::
         :: -> anisotropic ES         -0.020324412134 Eh    ::
         :: -> anisotropic XC          0.006620510191 Eh    ::
         :: -> dispersion             -0.011253033623 Eh    ::
         :: -> Gsolv                  -0.124451344552 Eh    ::
         ::    -> Gelec               -0.113549721843 Eh    ::
         ::    -> Gsasa                0.004251290980 Eh    ::
         ::    -> Ghb                 -0.016233673387 Eh    ::
         ::    -> Gshift               0.001080759698 Eh    ::
         :: repulsion energy           0.291401442324 Eh    ::
         :: add. restraining           0.000000000000 Eh    ::
         :: total charge              -0.000000000000 e     ::
         :::::::::::::::::::::::::::::::::::::::::::::::::::::


Property printout bound to 'properties.out'

           -------------------------------------------------
          | TOTAL ENERGY              -30.713733335696 Eh   |
          | GRADIENT NORM               0.000357198349 Eh/α |
          | HOMO-LUMO GAP               3.741431515204 eV   |
           -------------------------------------------------

------------------------------------------------------------------------
 * finished run on 2026/04/11 at 16:57:59.567     
------------------------------------------------------------------------
 total:
 * wall-time:     0 d,  0 h,  0 min,  0.014 sec
 *  cpu-time:     0 d,  0 h,  0 min,  0.012 sec
 * ratio c/w:     0.864 speedup
 SCF:
 * wall-time:     0 d,  0 h,  0 min,  0.008 sec
 *  cpu-time:     0 d,  0 h,  0 min,  0.007 sec
 * ratio c/w:     0.785 speedup


-------------------------   --------------------
FINAL SINGLE POINT ENERGY       -30.713733335700
-------------------------   --------------------


-------------
DIPOLE MOMENT
-------------
                                X             Y             Z
Total Dipole Moment    :      8.48400      -0.40200      -4.04200
                        -----------------------------------------
Magnitude (a.u.)       :      9.40625
Magnitude (Debye)      :     23.90880

                                *** OPTIMIZATION RUN DONE ***


--------------------------------
SUGGESTED CITATIONS FOR THIS RUN
--------------------------------

Below you find a list of papers that are relevant to this ORCA run
We neither can nor want to force you to cite these papers, but we appreciate if you do
You receive ORCA, which is the product of decades of hard work by many enthusiastic individuals, for free
The only thing we kindly ask in return is that you cite our papers,
We deeply appreciate it, if you show your appreciation for ORCA by not just citing the generic ORCA reference.

Please note that relegating all ORCA citations to the supporting information does *not* help us.
SI sections are not indexed - citations you put there will not count into any citation statistics
But we need these citations in order to attract the funding resources that allow us to do what we are doing

Therefore, if you are a happy ORCA user, please consider citing a few of the papers listed below in the main body of your paper

In addition to the list printed below, the program has created the file geo_opt.bibtex that contains the list in bibtex format
You can import this file easily into all common literature databanks and citation aid programs


List of essential papers. We consider these as the minimum necessary citations

  1. Bannwarth, C.; Ehlert, S.; Grimme, S.
     GFN2-xTB—An Accurate and Broadly Parametrized Self-Consistent Tight-Binding Quantum Chemical Method with Multipole Electrostatics and Density-Dependent Dispersion Contributions
     J. Chem. Theory Comput. 2019 15(3), 1652-1671
     doi.org/10.1021/acs.jctc.8b01176
  2. Neese, F.
     Software update: the ORCA program system, version 6.0
     WIRES Comput. Molec. Sci. 2025 15(1), e70019
     doi.org/10.1002/wcms.7019

List of papers to cite with high priority. The work reported in these papers was absolutely
necessary for this run to complete.
Our perspective: the developers of density functionals and basis sets usually get cited in chemistry papers
Good! But without the algorithms to do something with them, the functionals or basis sets would not do anything.
Hence, in our opinion, the algorithm design and method developments papers are equally worthy of getting cited

  1. Bannwarth, C.; Caldeweyher, E.; Ehlert, S.; Hansen, A.; Pracht, P.; Seibert, J.; Spicher, S.; Grimme, S.
     Extended tight-binding quantum chemistry methods
     WIRES Comput. Molec. Sci. 2020 11(2), e1493
     doi.org/10.1002/wcms.1493

List of suggested additional citations. These are papers that are important in the 'surrounding' of 
of this run, or papers that preceded the highly important papers. If you like your results we are grateful for a citation.

  1. Neese, F.
     The ORCA program system
     WIRES Comput. Molec. Sci. 2012 2(1), 73-78
     doi.org/10.1002/wcms.81
  2. Neese, F.
     Software update: the ORCA program system, version 4.0
     WIRES Comput. Molec. Sci. 2018 8(1), 1-6
     doi.org/10.1002/wcms.1327
  3. Neese, F.; Wennmohs, F.; Becker, U.; Riplinger, C.
     The ORCA quantum chemistry program package
     J. Chem. Phys. 2020 152(22), 224108
     doi.org/10.1063/5.0004608
  4. Neese, F.
     Software update: The ORCA program system—Version 5.0
     WIRES Comput. Molec. Sci. 2022 12(1), e1606
     doi.org/10.1002/wcms.1606

List of optional additional citations

  1. Neese, F.
     Approximate second-order SCF convergence for spin unrestricted wavefunctions
     Chem. Phys. Lett. 2000 325(1-3), 93-98
     doi.org/10.1016/s0009-2614(00)00662-x

Timings for individual modules:

Sum of individual times          ...        0.455 sec (=   0.008 min)
Geometry relaxation              ...        0.033 sec (=   0.001 min)   7.2 %
XTB module                       ...        0.423 sec (=   0.007 min)  92.8 %
                             ****ORCA TERMINATED NORMALLY****
TOTAL RUN TIME: 0 days 0 hours 0 minutes 0 seconds 532 msec
