17
Coordinates from ORCA-job geo_opt E -28.295925950460
  C           1.95003634575058     -0.24667604168882     -0.12576304864661
  C           0.66758866546931      0.41270305546425      0.35379446858776
  O           0.65519524215133      1.81228432455632      0.15829041638135
  C          -0.56517017727118     -0.21187549516232     -0.34140221079636
  N          -1.72227723157645      0.67771932501235     -0.13789405310762
  C          -0.92747255370248     -1.57762262577863      0.37572516785572
  O          -0.18058744292446     -2.54121867606495      0.19312704404795
  O          -1.95746341237692     -1.50386758702614      1.07733081097900
  H           2.80212762441290      0.12146491945599      0.43840792011081
  H           1.86597860462665     -1.32159601860305      0.01486512944458
  H           2.10730159682573     -0.04831629618873     -1.18382078158829
  H           0.56213055707932      0.27213324596713      1.43647649374949
  H           1.05320677848845      2.02026899388576     -0.70004363737393
  H          -0.35736066963680     -0.39965595691182     -1.39420502183631
  H          -1.38519709569776      1.58424387690973      0.22216845642669
  H          -2.29188896005739      0.81273430451665     -0.97454817749566
  H          -2.27614789156083      0.13727663165626      0.58749104326143
