17
Coordinates from ORCA-job geo_opt E -28.244549691140
  C       1.921655     -0.389879     -0.087898
  C       0.738335      0.477922      0.218927
  O       0.912989      1.790772     -0.196927
  C      -0.540164     -0.115338     -0.333210
  N      -1.666011      0.697378      0.147704
  C      -0.791770     -1.465192      0.232962
  O      -0.163212     -1.980530      1.161284
  O      -1.828125     -2.201484     -0.341909
  H       2.854738      0.229936     -0.067522
  H       1.974561     -1.162736      0.704151
  H       1.822158     -0.898783     -1.067602
  H       0.628609      0.525953      1.321291
  H       0.411431      2.014862     -1.018368
  H      -0.556144     -0.184234     -1.421565
  H      -1.458179      0.860562      1.152698
  H      -1.699171      1.596536     -0.378007
  H      -2.561700      0.204257     -0.026010
17
Coordinates from ORCA-job geo_opt E -28.267543510710
  C       1.964593     -0.387079     -0.105339
  C       0.754395      0.474492      0.233595
  O       0.930245      1.802891     -0.185567
  C      -0.547337     -0.126305     -0.313604
  N      -1.709825      0.701661      0.135420
  C      -0.812419     -1.516156      0.242919
  O      -0.213916     -2.014028      1.198546
  O      -1.837211     -2.121497     -0.299000
  H       2.867110      0.227514     -0.083269
  H       2.052626     -1.176654      0.640609
  H       1.869477     -0.856739     -1.084783
  H       0.660964      0.518991      1.333042
  H       0.461352      2.001899     -1.013401
  H      -0.539263     -0.198416     -1.404179
  H      -1.566525      0.880937      1.138428
  H      -1.746630      1.594239     -0.380766
  H      -2.587638      0.194250     -0.052652
17
Coordinates from ORCA-job geo_opt E -28.274481345640
  C       1.960896     -0.394512     -0.106830
  C       0.752291      0.482240      0.249315
  O       0.945161      1.815088     -0.191249
  C      -0.554282     -0.119881     -0.289130
  N      -1.728940      0.712961      0.134140
  C      -0.843013     -1.549392      0.266595
  O      -0.178915     -2.034128      1.189754
  O      -1.771750     -2.089919     -0.315644
  H       2.855000      0.208967     -0.086280
  H       2.056837     -1.196576      0.612996
  H       1.854384     -0.837518     -1.089632
  H       0.670951      0.535987      1.342392
  H       0.521067      1.970152     -1.041184
  H      -0.540495     -0.189237     -1.379408
  H      -1.638733      0.906289      1.135525
  H      -1.773294      1.601171     -0.376390
  H      -2.587164      0.178307     -0.054972
17
Coordinates from ORCA-job geo_opt E -28.277438896640
  C       1.966201     -0.376807     -0.121179
  C       0.752961      0.480372      0.260710
  O       0.931788      1.821606     -0.166434
  C      -0.543094     -0.126573     -0.282667
  N      -1.724242      0.699939      0.119926
  C      -0.842519     -1.583218      0.258821
  O      -0.188800     -2.016983      1.217277
  O      -1.868576     -2.059738     -0.238581
  H       2.860193      0.232741     -0.066253
  H       2.057726     -1.213088      0.562276
  H       1.866362     -0.772056     -1.127798
  H       0.679675      0.520215      1.353298
  H       0.570851      1.949643     -1.051783
  H      -0.513835     -0.192083     -1.372095
  H      -1.671021      0.885707      1.127162
  H      -1.761734      1.594940     -0.380952
  H      -2.571937      0.155383     -0.091727
17
Coordinates from ORCA-job geo_opt E -28.279105624590
  C       1.960851     -0.365858     -0.125225
  C       0.750573      0.485773      0.272706
  O       0.918063      1.825464     -0.163303
  C      -0.545932     -0.121500     -0.256825
  N      -1.725028      0.711660      0.120180
  C      -0.874404     -1.590559      0.296552
  O      -0.153854     -2.039811      1.196754
  O      -1.885950     -2.110808     -0.259383
  H       2.860460      0.241625     -0.049394
  H       2.043781     -1.223149      0.535566
  H       1.861468     -0.729513     -1.146289
  H       0.693571      0.534786      1.365820
  H       0.631756      1.912572     -1.084536
  H      -0.515879     -0.200389     -1.346414
  H      -1.699133      0.905199      1.129169
  H      -1.752586      1.605689     -0.385940
  H      -2.567757      0.158819     -0.099438
17
Coordinates from ORCA-job geo_opt E -28.281694694540
  C       1.960115     -0.349435     -0.137849
  C       0.744809      0.482979      0.280478
  O       0.887194      1.829144     -0.144535
  C      -0.545406     -0.128136     -0.247565
  N      -1.727335      0.704302      0.106620
  C      -0.884329     -1.601389      0.316189
  O      -0.131746     -2.054770      1.182581
  O      -1.932929     -2.070035     -0.173325
  H       2.859527      0.249928     -0.009242
  H       2.025756     -1.243010      0.475326
  H       1.879353     -0.653084     -1.180405
  H       0.698278      0.525581      1.373435
  H       0.711792      1.886030     -1.096152
  H      -0.507134     -0.220196     -1.336579
  H      -1.731289      0.896584      1.116425
  H      -1.744642      1.600601     -0.396043
  H      -2.562012      0.144909     -0.129359
17
Coordinates from ORCA-job geo_opt E -28.284125976920
  C       1.960728     -0.326051     -0.150247
  C       0.736845      0.479838      0.281938
  O       0.837669      1.832155     -0.129327
  C      -0.549347     -0.140716     -0.241881
  N      -1.731084      0.693630      0.090652
  C      -0.896464     -1.604957      0.342737
  O      -0.103928     -2.099660      1.141903
  O      -1.991747     -2.009426     -0.056939
  H       2.857599      0.256729      0.044417
  H       2.001775     -1.255311      0.409283
  H       1.910344     -0.563394     -1.211226
  H       0.700993      0.519259      1.375582
  H       0.822545      1.866039     -1.098209
  H      -0.506805     -0.254647     -1.329644
  H      -1.751542      0.890980      1.098573
  H      -1.736705      1.587730     -0.415956
  H      -2.560879      0.127802     -0.151655
17
Coordinates from ORCA-job geo_opt E -28.285983671630
  C       1.961277     -0.302781     -0.161537
  C       0.729572      0.478463      0.281320
  O       0.790341      1.835094     -0.121115
  C      -0.554082     -0.156225     -0.236865
  N      -1.734815      0.683708      0.072238
  C      -0.909389     -1.606460      0.370880
  O      -0.077960     -2.156021      1.087317
  O      -2.053027     -1.953136      0.064146
  H       2.855757      0.258782      0.093380
  H       1.978867     -1.262128      0.346218
  H       1.940108     -0.478550     -1.235164
  H       0.702244      0.516005      1.375868
  H       0.932727      1.864611     -1.079706
  H      -0.506882     -0.295132     -1.321811
  H      -1.761733      0.897938      1.076047
  H      -1.732041      1.568859     -0.449332
  H      -2.560965      0.106971     -0.161886
17
Coordinates from ORCA-job geo_opt E -28.288095273000
  C       1.960994     -0.271282     -0.175749
  C       0.719708      0.478035      0.280102
  O       0.729153      1.839232     -0.115706
  C      -0.560401     -0.182304     -0.231771
  N      -1.739951      0.669802      0.037504
  C      -0.926083     -1.605363      0.410957
  O      -0.051267     -2.254435      0.976877
  O      -2.130309     -1.862580      0.264997
  H       2.852282      0.249165      0.161540
  H       1.944078     -1.268659      0.253345
  H       1.981546     -0.358546     -1.259902
  H       0.699571      0.509170      1.376373
  H       1.078529      1.892744     -1.017432
  H      -0.501886     -0.360606     -1.310192
  H      -1.757488      0.936080      1.028253
  H      -1.737371      1.524817     -0.530237
  H      -2.561105      0.064732     -0.148961
17
Coordinates from ORCA-job geo_opt E -28.289404793440
  C       1.956613     -0.251867     -0.183732
  C       0.710472      0.478773      0.282929
  O       0.690365      1.843193     -0.110476
  C      -0.565020     -0.201196     -0.229451
  N      -1.744436      0.662677      0.001332
  C      -0.934091     -1.603209      0.438630
  O      -0.038875     -2.333978      0.858605
  O      -2.165358     -1.794950      0.441220
  H       2.846533      0.224670      0.216032
  H       1.909857     -1.276236      0.175378
  H       2.009901     -0.265529     -1.270164
  H       0.690354      0.496541      1.380542
  H       1.178701      1.934450     -0.940179
  H      -0.489145     -0.410299     -1.301003
  H      -1.732145      1.007327      0.967342
  H      -1.765365      1.467565     -0.632841
  H      -2.558361      0.022069     -0.094165
17
Coordinates from ORCA-job geo_opt E -28.290389760830
  C       1.950178     -0.243014     -0.184694
  C       0.701662      0.479411      0.290084
  O       0.669968      1.846250     -0.099858
  C      -0.568654     -0.210240     -0.232177
  N      -1.750261      0.659573     -0.032192
  C      -0.935734     -1.598546      0.449686
  O      -0.033989     -2.386886      0.739519
  O      -2.169915     -1.748437      0.583155
  H       2.839393      0.192985      0.260769
  H       1.879038     -1.285213      0.116223
  H       2.029439     -0.199276     -1.268716
  H       0.675102      0.476908      1.388252
  H       1.246090      1.973800     -0.864401
  H      -0.470869     -0.438365     -1.297889
  H      -1.688924      1.104615      0.890527
  H      -1.825088      1.390883     -0.743773
  H      -2.547436     -0.014447      0.005486
17
Coordinates from ORCA-job geo_opt E -28.291475274080
  C       1.946813     -0.237200     -0.184706
  C       0.694487      0.474103      0.302149
  O       0.658349      1.845635     -0.067123
  C      -0.570038     -0.214894     -0.242950
  N      -1.756758      0.653694     -0.069588
  C      -0.940779     -1.587525      0.449947
  O      -0.050172     -2.426243      0.620714
  O      -2.160416     -1.691410      0.715288
  H       2.833425      0.162010      0.299650
  H       1.859802     -1.293861      0.057578
  H       2.047808     -0.137249     -1.263165
  H       0.657554      0.436869      1.399518
  H       1.292534      2.014143     -0.774447
  H      -0.444174     -0.456618     -1.302408
  H      -1.627476      1.231079      0.769870
  H      -1.927419      1.268712     -0.866394
  H      -2.513540     -0.041244      0.156068
17
Coordinates from ORCA-job geo_opt E -28.292582916330
  C       1.944722     -0.235917     -0.183130
  C       0.687400      0.460279      0.318145
  O       0.654304      1.839080     -0.007219
  C      -0.570492     -0.214493     -0.263375
  N      -1.761156      0.651041     -0.106336
  C      -0.945228     -1.574052      0.440493
  O      -0.073895     -2.448770      0.516521
  O      -2.134653     -1.633795      0.827882
  H       2.826664      0.139864      0.328523
  H       1.854669     -1.302528      0.010545
  H       2.058804     -0.088848     -1.254993
  H       0.637388      0.376294      1.412286
  H       1.307650      2.043219     -0.686888
  H      -0.413558     -0.460151     -1.317063
  H      -1.563768      1.365890      0.604990
  H      -2.056919      1.116266     -0.963452
  H      -2.451933     -0.033379      0.323071
17
Coordinates from ORCA-job geo_opt E -28.293779243450
  C       1.944106     -0.237567     -0.180353
  C       0.680410      0.438209      0.334586
  O       0.651616      1.825142      0.071336
  C      -0.570220     -0.213206     -0.289616
  N      -1.757392      0.655599     -0.136024
  C      -0.946180     -1.563290      0.428625
  O      -0.098597     -2.463628      0.439886
  O      -2.093211     -1.574810      0.924584
  H       2.819542      0.134316      0.345369
  H       1.864486     -1.309733     -0.016404
  H       2.060569     -0.059546     -1.247481
  H       0.618305      0.306421      1.423255
  H       1.276144      2.055064     -0.627929
  H      -0.385668     -0.452444     -1.339053
  H      -1.512152      1.468606      0.443592
  H      -2.161755      0.987004     -1.009861
  H      -2.390003      0.003864      0.435487
17
Coordinates from ORCA-job geo_opt E -28.295043726000
  C       1.946829     -0.238397     -0.177786
  C       0.673942      0.406471      0.350740
  O       0.645492      1.801802      0.171355
  C      -0.568588     -0.216315     -0.321656
  N      -1.739151      0.667352     -0.162275
  C      -0.947043     -1.556703      0.421134
  O      -0.135430     -2.485092      0.380885
  O      -2.038953     -1.503620      1.018357
  H       2.812352      0.144623      0.356037
  H       1.888746     -1.314106     -0.033294
  H       2.058706     -0.037057     -1.241441
  H       0.602429      0.227212      1.431632
  H       1.187096      2.057885     -0.587736
  H      -0.360690     -0.443243     -1.367760
  H      -1.453047      1.548495      0.285850
  H      -2.238951      0.880209     -1.024964
  H      -2.333740      0.060484      0.500921
17
Coordinates from ORCA-job geo_opt E -28.295514567860
  C       1.949470     -0.237173     -0.169352
  C       0.669957      0.392882      0.357349
  O       0.639394      1.792840      0.214455
  C      -0.567759     -0.221258     -0.339032
  N      -1.721666      0.675828     -0.168236
  C      -0.945258     -1.560966      0.413138
  O      -0.165059     -2.510701      0.332436
  O      -2.011562     -1.478802      1.052887
  H       2.808238      0.154030      0.368746
  H       1.900099     -1.313271     -0.026645
  H       2.062969     -0.032228     -1.231936
  H       0.591223      0.200932      1.435516
  H       1.115904      2.056284     -0.586068
  H      -0.352897     -0.436791     -1.385075
  H      -1.403874      1.582589      0.202836
  H      -2.274304      0.826676     -1.013031
  H      -2.294877      0.109130      0.542013
17
Coordinates from ORCA-job geo_opt E -28.295719246390
  C       1.949877     -0.239949     -0.154649
  C       0.669608      0.401033      0.353918
  O       0.645143      1.802905      0.192523
  C      -0.568398     -0.219673     -0.340364
  N      -1.716779      0.677820     -0.149983
  C      -0.937523     -1.573175      0.400776
  O      -0.166379     -2.526323      0.293709
  O      -2.001688     -1.492941      1.048207
  H       2.807657      0.158377      0.379533
  H       1.893945     -1.312712      0.009964
  H       2.069734     -0.057323     -1.220300
  H       0.584699      0.234472      1.435420
  H       1.086891      2.040736     -0.636384
  H      -0.361700     -0.419341     -1.391023
  H      -1.387746      1.571729      0.245412
  H      -2.261685      0.845967     -0.997839
  H      -2.305655      0.108399      0.531083
17
Coordinates from ORCA-job geo_opt E -28.295840304800
  C       1.949614     -0.238410     -0.141750
  C       0.666656      0.405336      0.356702
  O       0.643019      1.809054      0.186414
  C      -0.568312     -0.219647     -0.342784
  N      -1.718913      0.677185     -0.151549
  C      -0.933853     -1.577882      0.390089
  O      -0.191908     -2.546724      0.223363
  O      -1.972427     -1.494003      1.082244
  H       2.805565      0.145583      0.405954
  H       1.881558     -1.312687      0.011172
  H       2.084865     -0.047523     -1.203895
  H       0.571699      0.244687      1.437961
  H       1.083794      2.039264     -0.644716
  H      -0.356077     -0.415665     -1.392780
  H      -1.376237      1.586635      0.195205
  H      -2.291568      0.803488     -0.987647
  H      -2.277477      0.141310      0.576017
17
Coordinates from ORCA-job geo_opt E -28.295896370490
  C       1.949118     -0.243622     -0.133927
  C       0.667260      0.409886      0.355585
  O       0.651152      1.812179      0.170365
  C      -0.566947     -0.214237     -0.341792
  N      -1.722480      0.677490     -0.141840
  C      -0.929665     -1.577837      0.380077
  O      -0.176059     -2.539002      0.214961
  O      -1.972405     -1.505163      1.065815
  H       2.805379      0.137844      0.415018
  H       1.874618     -1.317096      0.022899
  H       2.090581     -0.058897     -1.196406
  H       0.566280      0.259294      1.437385
  H       1.073261      2.029353     -0.673625
  H      -0.356852     -0.403895     -1.393595
  H      -1.380620      1.583572      0.215190
  H      -2.292762      0.810581     -0.978388
  H      -2.279859      0.139550      0.582277
17
Coordinates from ORCA-job geo_opt E -28.295918771600
  C       1.949438     -0.244698     -0.128771
  C       0.666970      0.411350      0.355197
  O       0.651488      1.811850      0.160947
  C      -0.565683     -0.212777     -0.340447
  N      -1.723088      0.677504     -0.139412
  C      -0.929551     -1.578387      0.376496
  O      -0.179849     -2.540739      0.197669
  O      -1.960738     -1.504944      1.076469
  H       2.803674      0.129764      0.428042
  H       1.869990     -1.319080      0.019546
  H       2.099343     -0.053354     -1.189072
  H       0.562713      0.267481      1.437266
  H       1.064382      2.022073     -0.689471
  H      -0.355756     -0.400840     -1.392745
  H      -1.382692      1.582833      0.221266
  H      -2.290692      0.812284     -0.977351
  H      -2.279950      0.139680      0.584371
17
Coordinates from ORCA-job geo_opt E -28.295923036190
  C       1.949813     -0.245622     -0.127098
  C       0.667191      0.411267      0.354912
  O       0.653004      1.811467      0.160779
  C      -0.565360     -0.212436     -0.341054
  N      -1.722252      0.678067     -0.138535
  C      -0.928859     -1.578195      0.375655
  O      -0.180061     -2.540836      0.194950
  O      -1.959166     -1.504754      1.076058
  H       2.802991      0.127015      0.432465
  H       1.869163     -1.320246      0.018358
  H       2.102481     -0.051775     -1.186605
  H       0.562242      0.268668      1.437214
  H       1.056274      2.020621     -0.694719
  H      -0.356176     -0.399826     -1.393636
  H      -1.381854      1.584256      0.219934
  H      -2.291742      0.811411     -0.975539
  H      -2.277691      0.140918      0.586860
17
Coordinates from ORCA-job geo_opt E -28.295925286940
  C       1.950003     -0.246132     -0.126101
  C       0.667379      0.411890      0.354210
  O       0.654128      1.811687      0.159470
  C      -0.565326     -0.212338     -0.341194
  N      -1.722104      0.677945     -0.138263
  C      -0.928186     -1.577934      0.375902
  O      -0.181106     -2.541401      0.192903
  O      -1.957694     -1.504258      1.077424
  H       2.802163      0.123380      0.437025
  H       1.867384     -1.321093      0.015244
  H       2.105961     -0.048481     -1.184489
  H       0.562347      0.270656      1.436873
  H       1.053722      2.020282     -0.698027
  H      -0.357147     -0.400106     -1.393949
  H      -1.383233      1.584734      0.219812
  H      -2.292094      0.811274     -0.974957
  H      -2.276196      0.139895      0.588118
17
Coordinates from ORCA-job geo_opt E -28.295925801500
  C       1.949988     -0.246570     -0.125774
  C       0.667475      0.412392      0.353887
  O       0.654925      1.812055      0.158799
  C      -0.565286     -0.212034     -0.341396
  N      -1.722212      0.677840     -0.138055
  C      -0.927645     -1.577726      0.375780
  O      -0.180707     -2.541239      0.192735
  O      -1.957255     -1.504062      1.077654
  H       2.801985      0.121855      0.438339
  H       1.866355     -1.321546      0.014729
  H       2.107057     -0.048132     -1.183861
  H       0.562197      0.271629      1.436597
  H       1.053142      2.020311     -0.699410
  H      -0.357437     -0.399787     -1.394209
  H      -1.384426      1.584634      0.220818
  H      -2.292191      0.811888     -0.974622
  H      -2.275965      0.138493      0.587989
17
Coordinates from ORCA-job geo_opt E -28.295925950460
  C       1.950036     -0.246676     -0.125763
  C       0.667589      0.412703      0.353794
  O       0.655195      1.812284      0.158290
  C      -0.565170     -0.211875     -0.341402
  N      -1.722277      0.677719     -0.137894
  C      -0.927473     -1.577623      0.375725
  O      -0.180587     -2.541219      0.193127
  O      -1.957463     -1.503868      1.077331
  H       2.802128      0.121465      0.438408
  H       1.865979     -1.321596      0.014865
  H       2.107302     -0.048316     -1.183821
  H       0.562131      0.272133      1.436476
  H       1.053207      2.020269     -0.700044
  H      -0.357361     -0.399656     -1.394205
  H      -1.385197      1.584244      0.222168
  H      -2.291889      0.812734     -0.974548
  H      -2.276148      0.137277      0.587491
