17
zwitterion conformer 1
C       1.92165450    -0.38987908    -0.08789823
C       0.73833492     0.47792168     0.21892705
O       0.91298931     1.79077175    -0.19692709
C      -0.54016437    -0.11533808    -0.33320954
N      -1.66601103     0.69737790     0.14770447
C      -0.79176998    -1.46519249     0.23296247
O      -0.16321224    -1.98053033     1.16128355
O      -1.82812466    -2.20148359    -0.34190912
H       2.85473846     0.22993558    -0.06752187
H       1.97456092    -1.16273613     0.70415146
H       1.82215790    -0.89878281    -1.06760207
H       0.62860941     0.52595296     1.32129144
H       0.41143130     2.01486213    -1.01836833
H      -0.55614423    -0.18423446    -1.42156455
H      -1.45817930     0.86056243     1.15269751
H      -1.69917109     1.59653580    -0.37800689
H      -2.56169984     0.20425672    -0.02601024
