20
Coordinates from ORCA-job geo_opt E -549.025685612495
  N          -1.35794272654605     -0.26573116219356      1.84803746519720
  C          -1.59849973323101     -0.50811563442430      0.42433355922751
  C          -0.41439681698071     -1.18204040849018     -0.35253580239302
  C           0.85269963025490     -0.38708100492872     -0.36871584688944
  C           1.93923273908431     -0.48383256347313      0.48066702223987
  N           2.83084804272961      0.47981721695540      0.05995355682069
  C           2.27511483061513      1.12029005692838     -1.00570121278672
  N           1.07687841228800      0.62464889943767     -1.29611963152641
  C          -2.00243729901165      0.79359903069428     -0.25308181714208
  O          -1.81772931920801      1.91457268129359      0.19538707618124
  O          -2.59460404018623      0.56965496699202     -1.45274616890155
  H          -1.12282534062315     -1.16044925814277      2.28781483352659
  H          -0.52203762607583      0.31936803371746      1.95180477379272
  H          -2.45757203768751     -1.19110102947524      0.33379542833860
  H          -0.73907464708817     -1.38906934297020     -1.38337725744946
  H          -0.23779297484882     -2.15089727386392      0.13699530736773
  H           2.15593231131351     -1.14271533225526      1.31457646347531
  H           3.74397802034213      0.66838382987524      0.46496811425255
  H           2.78093491071169      1.92581995489765     -1.53115694031623
  H          -2.79070635585213      1.44487835942559     -1.85489893301510
