20
Coordinates from ORCA-job geo_opt E -549.018027144458
  N      -1.329179     -0.479425      1.827367
  C      -1.573664     -0.595311      0.404759
  C      -0.432597     -1.283223     -0.403166
  C       0.801458     -0.448751     -0.406524
  C       1.739510     -0.282083      0.577494
  N       2.629359      0.639599      0.102094
  C       2.199382      0.992537     -1.127310
  N       1.108555      0.359877     -1.466017
  C      -1.748648      0.786055     -0.194138
  O      -1.235742      1.788709      0.253994
  O      -2.493072      0.774463     -1.280444
  H      -0.886398     -1.322968      2.173329
  H      -0.703134      0.302495      1.994463
  H      -2.495754     -1.164999      0.248430
  H      -0.765992     -1.422664     -1.430842
  H      -0.235027     -2.256315      0.049636
  H       1.849282     -0.738123      1.538996
  H       3.439132      0.990154      0.587348
  H       2.700831      1.706111     -1.748601
  H      -2.568300      1.653862     -1.700868
20
Coordinates from ORCA-job geo_opt E -549.023819453184
  N      -1.382336     -0.459713      1.840513
  C      -1.602803     -0.584429      0.403960
  C      -0.413629     -1.228623     -0.405859
  C       0.851009     -0.421207     -0.408622
  C       1.814196     -0.304169      0.573118
  N       2.742929      0.592606      0.089491
  C       2.327617      0.979624     -1.146229
  N       1.193687      0.386115     -1.481128
  C      -1.902175      0.793117     -0.171318
  O      -1.524681      1.840439      0.333530
  O      -2.602372      0.724654     -1.306327
  H      -0.892766     -1.285312      2.191111
  H      -0.786668      0.354112      2.016674
  H      -2.487566     -1.216533      0.234028
  H      -0.740241     -1.370897     -1.444940
  H      -0.230477     -2.220027      0.031402
  H       1.921348     -0.781414      1.540149
  H       3.580549      0.903835      0.573814
  H       2.873904      1.682204     -1.769265
  H      -2.739527      1.615618     -1.694100
20
Coordinates from ORCA-job geo_opt E -549.024616497443
  N      -1.383616     -0.432207      1.846531
  C      -1.606541     -0.577492      0.408500
  C      -0.415148     -1.210534     -0.400198
  C       0.851965     -0.409394     -0.403345
  C       1.834255     -0.328433      0.567594
  N       2.769812      0.563209      0.083906
  C       2.334994      0.999799     -1.131476
  N       1.176221      0.437046     -1.458864
  C      -1.944775      0.787575     -0.173218
  O      -1.608548      1.851604      0.331422
  O      -2.609606      0.689402     -1.338307
  H      -0.892425     -1.255863      2.202877
  H      -0.770420      0.373666      2.003506
  H      -2.476704     -1.232126      0.242088
  H      -0.743107     -1.359452     -1.440271
  H      -0.239264     -2.204522      0.038458
  H       1.957602     -0.833877      1.520314
  H       3.626602      0.842636      0.555603
  H       2.887298      1.713213     -1.739105
  H      -2.748596      1.585750     -1.716018
20
Coordinates from ORCA-job geo_opt E -549.024958551531
  N      -1.380185     -0.380884      1.841961
  C      -1.602158     -0.560169      0.405197
  C      -0.410193     -1.194440     -0.392818
  C       0.860122     -0.403840     -0.395436
  C       1.869969     -0.379482      0.551868
  N       2.796424      0.530678      0.087349
  C       2.340334      1.023627     -1.098984
  N       1.167778      0.481720     -1.427747
  C      -1.971706      0.784691     -0.198757
  O      -1.704763      1.867531      0.306943
  O      -2.648909      0.650077     -1.363820
  H      -0.903383     -1.207290      2.213517
  H      -0.733748      0.404402      1.971109
  H      -2.458333     -1.236054      0.248940
  H      -0.735685     -1.358364     -1.432063
  H      -0.245909     -2.186199      0.056548
  H       2.016051     -0.926525      1.477957
  H       3.668015      0.781497      0.547639
  H       2.893310      1.757465     -1.680287
  H      -2.817031      1.551560     -1.719116
20
Coordinates from ORCA-job geo_opt E -549.025179069927
  N      -1.378298     -0.354317      1.849406
  C      -1.605217     -0.551011      0.415063
  C      -0.415691     -1.190434     -0.380062
  C       0.852950     -0.400590     -0.387817
  C       1.888714     -0.415734      0.529783
  N       2.799570      0.515298      0.079470
  C       2.312232      1.053874     -1.072544
  N       1.133086      0.522876     -1.393120
  C      -1.991124      0.781702     -0.203553
  O      -1.732445      1.875330      0.278349
  O      -2.616768      0.627199     -1.398733
  H      -0.918306     -1.187596      2.227821
  H      -0.706659      0.411845      1.964639
  H      -2.457193     -1.234561      0.272770
  H      -0.743388     -1.366168     -1.416061
  H      -0.250902     -2.177778      0.077760
  H       2.061059     -0.997585      1.428660
  H       3.684215      0.747857      0.523321
  H       2.852513      1.810484     -1.634608
  H      -2.768347      1.529309     -1.760544
20
Coordinates from ORCA-job geo_opt E -549.025348696542
  N      -1.377607     -0.336591      1.847415
  C      -1.604172     -0.543408      0.414868
  C      -0.413883     -1.192938     -0.373077
  C       0.852683     -0.399863     -0.381243
  C       1.900445     -0.433931      0.520046
  N       2.807876      0.501863      0.073769
  C       2.297446      1.072023     -1.051412
  N       1.111536      0.554815     -1.359668
  C      -1.987942      0.782704     -0.219038
  O      -1.736519      1.882315      0.249335
  O      -2.618813      0.615882     -1.409389
  H      -0.939341     -1.177676      2.234356
  H      -0.688250      0.413927      1.960165
  H      -2.458414     -1.225803      0.282391
  H      -0.739513     -1.378538     -1.407407
  H      -0.246133     -2.174544      0.094735
  H       2.086448     -1.036502      1.401938
  H       3.703077      0.719243      0.503586
  H       2.827396      1.843056     -1.603296
  H      -2.776320      1.513968     -1.778073
20
Coordinates from ORCA-job geo_opt E -549.025480514464
  N      -1.375857     -0.306986      1.844897
  C      -1.603650     -0.531026      0.415701
  C      -0.413073     -1.195471     -0.362057
  C       0.852126     -0.399378     -0.373038
  C       1.922122     -0.468152      0.498274
  N       2.816658      0.488432      0.069309
  C       2.277755      1.098206     -1.021217
  N       1.087786      0.590242     -1.319522
  C      -1.984991      0.785025     -0.239423
  O      -1.746025      1.893054      0.213472
  O      -2.618175      0.598486     -1.425135
  H      -0.976627     -1.160082      2.247240
  H      -0.655882      0.414827      1.952838
  H      -2.461822     -1.211258      0.298704
  H      -0.736787     -1.395839     -1.394138
  H      -0.240855     -2.168635      0.120527
  H       2.128506     -1.103345      1.352459
  H       3.722361      0.690930      0.483888
  H       2.791910      1.891884     -1.556102
  H      -2.785479      1.489084     -1.806677
20
Coordinates from ORCA-job geo_opt E -549.025556593352
  N      -1.376165     -0.280775      1.843704
  C      -1.604301     -0.520661      0.417432
  C      -0.412381     -1.192654     -0.352628
  C       0.852097     -0.394574     -0.366221
  C       1.940270     -0.493392      0.479437
  N       2.828520      0.474872      0.062231
  C       2.267956      1.118996     -0.998318
  N       1.071735      0.621836     -1.287702
  C      -1.992114      0.785950     -0.252013
  O      -1.776301      1.900658      0.196608
  O      -2.610759      0.580934     -1.442393
  H      -1.017782     -1.144168      2.262320
  H      -0.625555      0.409834      1.946957
  H      -2.462427     -1.202906      0.312846
  H      -0.734491     -1.405207     -1.383066
  H      -0.235761     -2.159250      0.141100
  H       2.161046     -1.154507      1.310320
  H       3.743917      0.661870      0.462498
  H       2.772191      1.928371     -1.519278
  H      -2.789697      1.464774     -1.833833
20
Coordinates from ORCA-job geo_opt E -549.025621390510
  N      -1.377545     -0.256219      1.844487
  C      -1.604951     -0.510139      0.420577
  C      -0.411554     -1.186159     -0.342860
  C       0.852787     -0.386654     -0.360116
  C       1.957941     -0.513989      0.460060
  N       2.842296      0.462419      0.052413
  C       2.264215      1.136671     -0.981052
  N       1.059536      0.652824     -1.259559
  C      -2.004808      0.787498     -0.261076
  O      -1.822256      1.907884      0.189712
  O      -2.595139      0.563851     -1.461888
  H      -1.075217     -1.131204      2.282995
  H      -0.590015      0.392142      1.946461
  H      -2.461207     -1.196434      0.327254
  H      -0.732291     -1.409788     -1.371741
  H      -0.229587     -2.146852      0.160370
  H       2.189988     -1.197889      1.269438
  H       3.766474      0.634353      0.439117
  H       2.760693      1.958285     -1.490449
  H      -2.789362      1.439401     -1.864143
20
Coordinates from ORCA-job geo_opt E -549.025646281440
  N      -1.376327     -0.250945      1.846692
  C      -1.604491     -0.506437      0.423016
  C      -0.411886     -1.181482     -0.340141
  C       0.853125     -0.382747     -0.359047
  C       1.961605     -0.516060      0.456125
  N       2.846926      0.459170      0.048122
  C       2.265999      1.140363     -0.979286
  N       1.058629      0.660126     -1.255733
  C      -2.011483      0.788948     -0.262129
  O      -1.843727      1.911228      0.190487
  O      -2.586507      0.558541     -1.468468
  H      -1.100724     -1.131456      2.291446
  H      -0.572396      0.376600      1.950314
  H      -2.459237     -1.195123      0.332303
  H      -0.732818     -1.406001     -1.368849
  H      -0.228829     -2.141901      0.163432
  H       2.194547     -1.203757      1.262083
  H       3.773023      0.627058      0.432162
  H       2.761634      1.963335     -1.487325
  H      -2.787064      1.430541     -1.875203
20
Coordinates from ORCA-job geo_opt E -549.025663448864
  N      -1.371863     -0.253144      1.848740
  C      -1.602910     -0.505281      0.424959
  C      -0.412910     -1.178297     -0.341445
  C       0.853280     -0.381633     -0.360843
  C       1.958458     -0.509973      0.459789
  N       2.845760      0.461718      0.048659
  C       2.270191      1.136467     -0.985383
  N       1.062355      0.656218     -1.263078
  C      -2.014195      0.790694     -0.259856
  O      -1.852544      1.913475      0.193885
  O      -2.582554      0.558426     -1.468462
  H      -1.112592     -1.138382      2.293599
  H      -0.556737      0.359627      1.953596
  H      -2.457133     -1.194703      0.334064
  H      -0.734944     -1.398494     -1.370698
  H      -0.231243     -2.141266      0.157973
  H       2.187601     -1.192630      1.271054
  H       3.769675      0.632295      0.436882
  H       2.768219      1.955585     -1.497185
  H      -2.785914      1.429297     -1.876252
20
Coordinates from ORCA-job geo_opt E -549.025674251381
  N      -1.366757     -0.258128      1.849493
  C      -1.600911     -0.505811      0.425660
  C      -0.413767     -1.178264     -0.344761
  C       0.853343     -0.383369     -0.363810
  C       1.951970     -0.500361      0.467220
  N       2.841242      0.467237      0.051406
  C       2.272728      1.130446     -0.993202
  N       1.067798      0.644943     -1.275656
  C      -2.011794      0.792312     -0.256812
  O      -1.847585      1.914613      0.196800
  O      -2.582970      0.561949     -1.464296
  H      -1.117035     -1.147278      2.292037
  H      -0.543675      0.344128      1.954735
  H      -2.456326     -1.193588      0.333575
  H      -0.736902     -1.392937     -1.374731
  H      -0.234487     -2.144200      0.149833
  H       2.176089     -1.173897      1.287378
  H       3.761278      0.644087      0.446020
  H       2.773547      1.944375     -1.510424
  H      -2.785788      1.433742     -1.870464
20
Coordinates from ORCA-job geo_opt E -549.025681262894
  N      -1.360706     -0.267688      1.849618
  C      -1.598461     -0.508096      0.425392
  C      -0.414557     -1.180848     -0.350415
  C       0.853116     -0.387014     -0.368333
  C       1.941047     -0.484609      0.479081
  N       2.832277      0.478418      0.057039
  C       2.275698      1.119813     -1.006837
  N       1.075904      0.625434     -1.295509
  C      -2.004460      0.794433     -0.251774
  O      -1.829366      1.914982      0.201602
  O      -2.585994      0.570461     -1.455651
  H      -1.120706     -1.161784      2.287885
  H      -0.528959      0.322829      1.955753
  H      -2.456897     -1.191645      0.331003
  H      -0.738935     -1.388432     -1.381297
  H      -0.238119     -2.150184      0.138461
  H       2.157715     -1.143130      1.313240
  H       3.745601      0.666884      0.461725
  H       2.780799      1.925161     -1.533188
  H      -2.784997      1.445018     -1.857796
20
Coordinates from ORCA-job geo_opt E -549.025684160208
  N      -1.359388     -0.265098      1.848773
  C      -1.598273     -0.507518      0.425029
  C      -0.414456     -1.181598     -0.350763
  C       0.852968     -0.387301     -0.368084
  C       1.941319     -0.485913      0.478662
  N       2.832072      0.478252      0.057791
  C       2.274229      1.121396     -1.004625
  N       1.074972      0.626644     -1.293619
  C      -2.003560      0.794067     -0.253149
  O      -1.825558      1.915157      0.197566
  O      -2.588896      0.569152     -1.455511
  H      -1.123425     -1.159587      2.288583
  H      -0.524452      0.321201      1.953560
  H      -2.457220     -1.190626      0.332870
  H      -0.738867     -1.389555     -1.381529
  H      -0.238079     -2.150500      0.138864
  H       2.159121     -1.146082      1.311233
  H       3.745814      0.666148      0.461769
  H       2.778843      1.927902     -1.529694
  H      -2.787163      1.443857     -1.857727
20
Coordinates from ORCA-job geo_opt E -549.025685396256
  N      -1.358058     -0.265211      1.848038
  C      -1.598413     -0.507928      0.424391
  C      -0.414429     -1.182193     -0.352170
  C       0.852758     -0.387374     -0.368411
  C       1.939904     -0.484920      0.480064
  N       2.831117      0.479239      0.059669
  C       2.274523      1.120842     -1.004750
  N       1.076143      0.625342     -1.294874
  C      -2.002539      0.793620     -0.253423
  O      -1.818991      1.914744      0.195091
  O      -2.593848      0.569294     -1.453401
  H      -1.121525     -1.159593      2.287756
  H      -0.522971      0.321076      1.951755
  H      -2.457629     -1.190762      0.333691
  H      -0.739017     -1.389412     -1.383005
  H      -0.238025     -2.151092      0.137355
  H       2.157168     -1.144583      1.313203
  H       3.744443      0.667578      0.464347
  H       2.779870      1.926902     -1.529842
  H      -2.790481      1.444432     -1.855482
20
Coordinates from ORCA-job geo_opt E -549.025685612495
  N      -1.357943     -0.265731      1.848037
  C      -1.598500     -0.508116      0.424334
  C      -0.414397     -1.182040     -0.352536
  C       0.852700     -0.387081     -0.368716
  C       1.939233     -0.483833      0.480667
  N       2.830848      0.479817      0.059954
  C       2.275115      1.120290     -1.005701
  N       1.076878      0.624649     -1.296120
  C      -2.002437      0.793599     -0.253082
  O      -1.817729      1.914573      0.195387
  O      -2.594604      0.569655     -1.452746
  H      -1.122825     -1.160449      2.287815
  H      -0.522038      0.319368      1.951805
  H      -2.457572     -1.191101      0.333795
  H      -0.739075     -1.389069     -1.383377
  H      -0.237793     -2.150897      0.136995
  H       2.155932     -1.142715      1.314576
  H       3.743978      0.668384      0.464968
  H       2.780935      1.925820     -1.531157
  H      -2.790706      1.444878     -1.854899
