20
neutral_epsilon conformer 2
N      -1.32917875    -0.47942505     1.82736735
C      -1.57366439    -0.59531112     0.40475878
C      -0.43259745    -1.28322324    -0.40316597
C       0.80145767    -0.44875063    -0.40652352
C       1.73950982    -0.28208340     0.57749411
N       2.62935875     0.63959926     0.10209437
C       2.19938205     0.99253656    -1.12730965
N       1.10855462     0.35987713    -1.46601726
C      -1.74864829     0.78605530    -0.19413841
O      -1.23574220     1.78870855     0.25399430
O      -2.49307187     0.77446304    -1.28044390
H      -0.88639800    -1.32296777     2.17332948
H      -0.70313400     0.30249485     1.99446314
H      -2.49575403    -1.16499946     0.24842999
H      -0.76599169    -1.42266401    -1.43084250
H      -0.23502697    -2.25631466     0.04963573
H       1.84928193    -0.73812279     1.53899591
H       3.43913247     0.99015396     0.58734750
H       2.70083080     1.70611133    -1.74860134
H      -2.56830049     1.65386217    -1.70086812
