24
Coordinates from ORCA-job geo_opt E -43.539597396210
  N          -4.60532759862295     -0.44454734450312     -0.16443355184068
  C          -3.34873030542532     -0.72596085726096      0.55452209966058
  C          -2.23522426195074     -0.00960592326819     -0.22589763255209
  O          -2.54416685167873      0.63328181046621     -1.22776351244869
  N          -1.01045725612063     -0.13800003192330      0.25315405047979
  C           0.16242202318306      0.44258293291116     -0.35422182218760
  C           1.37814986071730     -0.06739203685675      0.41941269924115
  O           1.22523395013865     -0.80782632990616      1.39027387477257
  N           2.54965623130663      0.34906474090213     -0.03542841543640
  C           3.83102717501307      0.01235714719658      0.52103420270015
  C           4.92618973057345      0.73157772323849     -0.33707805915283
  O           4.50136515597411      1.42010302877799     -1.28638579403927
  O           6.10629871309972      0.55429303642043      0.00070198711789
  H          -5.04766477891596     -1.28786753595384     -0.53976478440764
  H          -4.29530442374851      0.16312808005422     -0.96631145436819
  H          -5.28329377062892      0.07235009640962      0.40220508899993
  H          -3.13031111778283     -1.79211041273493      0.58945510978373
  H          -3.37073420426184     -0.34215639209709      1.57332653631148
  H          -0.78379734528524     -0.69927162912450      1.07244365214582
  H           0.13120518129411      1.53543285810939     -0.30449663426346
  H           0.24123372873635      0.15447204049211     -1.40646972653490
  H           2.66133413189292      0.96532804605277     -0.84297277886715
  H           3.92466810588707      0.34601062262540      1.55843196832556
  H           4.01622794660521     -1.06524367002767      0.49287044656025
