24
Coordinates from ORCA-job geo_opt E -43.490512944410
  N      -4.630661     -0.273460     -0.267461
  C      -3.499619     -0.788544      0.501666
  C      -2.277945     -0.152126     -0.090580
  O      -2.447659      0.631145     -1.048438
  N      -0.979831     -0.434192      0.423617
  C       0.140221      0.230853     -0.216696
  C       1.422767     -0.161006      0.426754
  O       1.485472     -0.963187      1.392657
  N       2.609188      0.433575     -0.120132
  C       3.920511      0.147351      0.401269
  C       4.986622      0.883020     -0.330305
  O       4.737881      1.661340     -1.292829
  O       6.295929      0.701328      0.065751
  H      -5.518043     -0.772308     -0.041959
  H      -4.399909     -0.356596     -1.294672
  H      -4.685575      0.739306     -0.071851
  H      -3.437054     -1.910265      0.425446
  H      -3.641401     -0.462578      1.555679
  H      -0.856265     -1.099114      1.233965
  H       0.052579      1.331403     -0.123019
  H       0.129759      0.011290     -1.300124
  H       2.547952      1.103729     -0.928312
  H       3.943155      0.451413      1.475954
  H       4.101926     -0.952377      0.360229
24
Coordinates from ORCA-job geo_opt E -43.524746353050
  N      -4.598804     -0.295984     -0.238411
  C      -3.425586     -0.784422      0.507013
  C      -2.225082     -0.122743     -0.118139
  O      -2.403101      0.641182     -1.068268
  N      -0.982732     -0.382841      0.371550
  C       0.144433      0.265334     -0.250833
  C       1.420318     -0.146414      0.410858
  O       1.472576     -0.931507      1.359483
  N       2.556548      0.413766     -0.101929
  C       3.862046      0.121491      0.426600
  C       4.935981      0.860132     -0.314822
  O       4.674754      1.627621     -1.262936
  O       6.161356      0.665357      0.075055
  H      -5.455961     -0.814106     -0.003489
  H      -4.385988     -0.362878     -1.251857
  H      -4.695484      0.709777     -0.047550
  H      -3.334233     -1.877614      0.430493
  H      -3.529424     -0.483413      1.556928
  H      -0.857381     -1.018193      1.155044
  H       0.059193      1.359615     -0.161977
  H       0.152770      0.039933     -1.325447
  H       2.506393      1.061682     -0.885163
  H       3.897798      0.417344      1.489499
  H       4.049610     -0.963121      0.384906
24
Coordinates from ORCA-job geo_opt E -43.533158407010
  N      -4.606088     -0.333068     -0.194086
  C      -3.377145     -0.777249      0.502646
  C      -2.206202     -0.076175     -0.173222
  O      -2.419479      0.665829     -1.126231
  N      -0.997097     -0.314715      0.303819
  C       0.156499      0.312359     -0.292138
  C       1.423273     -0.134160      0.405951
  O       1.423905     -0.915735      1.348166
  N       2.536831      0.394555     -0.076982
  C       3.840621      0.092970      0.460776
  C       4.939214      0.837311     -0.299459
  O       4.631834      1.596213     -1.236753
  O       6.092759      0.631456      0.087312
  H      -5.425420     -0.887681      0.066020
  H      -4.428607     -0.381237     -1.207057
  H      -4.759335      0.663434      0.003145
  H      -3.251530     -1.853011      0.419231
  H      -3.428829     -0.501935      1.554902
  H      -0.860452     -0.934114      1.083823
  H       0.079266      1.403571     -0.210955
  H       0.197196      0.075702     -1.360008
  H       2.513920      1.035456     -0.853999
  H       3.891256      0.382697      1.515852
  H       4.033608     -0.982473      0.415852
24
Coordinates from ORCA-job geo_opt E -43.535764830780
  N      -4.628339     -0.356453     -0.164887
  C      -3.367516     -0.777887      0.488263
  C      -2.216863     -0.050465     -0.209964
  O      -2.453648      0.677188     -1.169257
  N      -1.001423     -0.273585      0.270659
  C       0.163037      0.345353     -0.314254
  C       1.416798     -0.119776      0.409305
  O       1.371732     -0.901225      1.353602
  N       2.548269      0.392319     -0.062097
  C       3.845773      0.081198      0.484843
  C       4.957716      0.822533     -0.291227
  O       4.614272      1.563241     -1.233680
  O       6.120156      0.605155      0.086583
  H      -5.422589     -0.941545      0.108126
  H      -4.481670     -0.382233     -1.183852
  H      -4.814512      0.629592      0.056475
  H      -3.223401     -1.850714      0.388114
  H      -3.386393     -0.522805      1.546249
  H      -0.850217     -0.887005      1.057443
  H       0.091234      1.436186     -0.239075
  H       0.223285      0.097076     -1.378147
  H       2.554813      1.032201     -0.844482
  H       3.902521      0.375858      1.537066
  H       4.036965     -0.994208      0.440801
24
Coordinates from ORCA-job geo_opt E -43.536758191370
  N      -4.641490     -0.372751     -0.104010
  C      -3.342341     -0.778140      0.469698
  C      -2.229307     -0.029679     -0.278434
  O      -2.507090      0.676822     -1.241245
  N      -1.004758     -0.221895      0.204177
  C       0.173945      0.383129     -0.368749
  C       1.400675     -0.106114      0.401139
  O       1.279894     -0.877790      1.349912
  N       2.558094      0.373286     -0.044443
  C       3.840730      0.049582      0.521267
  C       4.965234      0.783744     -0.288030
  O       4.563747      1.536052     -1.197925
  O       6.124230      0.641068      0.135039
  H      -5.401511     -0.994861      0.189902
  H      -4.550552     -0.365898     -1.131854
  H      -4.860539      0.595480      0.163618
  H      -3.188169     -1.850474      0.340531
  H      -3.295167     -0.546360      1.533117
  H      -0.823173     -0.819684      1.004616
  H       0.112720      1.474331     -0.309307
  H       0.268122      0.108861     -1.424092
  H       2.620050      1.007731     -0.836488
  H       3.905681      0.360556      1.568287
  H       4.030973     -1.026997      0.479882
24
Coordinates from ORCA-job geo_opt E -43.536191269500
  N      -4.638505     -0.396748     -0.057106
  C      -3.312572     -0.788277      0.445972
  C      -2.239770     -0.008092     -0.334064
  O      -2.555524      0.679245     -1.296735
  N      -1.007920     -0.168955      0.147193
  C       0.180777      0.434062     -0.408477
  C       1.379086     -0.078401      0.402872
  O       1.189414     -0.848315      1.344058
  N       2.556851      0.378952     -0.004800
  C       3.823922      0.049699      0.581329
  C       4.953245      0.796876     -0.247466
  O       4.514248      1.432499     -1.225134
  O       6.124361      0.545218      0.068180
  H      -5.365270     -1.059820      0.237421
  H      -4.592194     -0.346243     -1.088917
  H      -4.890030      0.545906      0.268129
  H      -3.145762     -1.857309      0.277471
  H      -3.211158     -0.585402      1.512708
  H      -0.792221     -0.758496      0.952539
  H       0.126491      1.524891     -0.353115
  H       0.310300      0.146049     -1.456952
  H       2.674530      1.018232     -0.794462
  H       3.890729      0.370652      1.625112
  H       4.026972     -1.026222      0.540851
24
Coordinates from ORCA-job geo_opt E -43.537826919230
  N      -4.635695     -0.378128     -0.082526
  C      -3.327083     -0.788587      0.458963
  C      -2.231722     -0.020935     -0.294244
  O      -2.523321      0.663684     -1.267421
  N      -1.003393     -0.194590      0.183497
  C       0.176193      0.405765     -0.390941
  C       1.386940     -0.089802      0.401183
  O       1.233972     -0.856014      1.350720
  N       2.555445      0.372943     -0.023214
  C       3.829270      0.047854      0.553991
  C       4.946276      0.790008     -0.269320
  O       4.534329      1.487461     -1.217027
  O       6.118045      0.602654      0.094188
  H      -5.382910     -1.024612      0.193739
  H      -4.558137     -0.331050     -1.110894
  H      -4.870494      0.572537      0.229724
  H      -3.168772     -1.856962      0.300884
  H      -3.259632     -0.578353      1.525826
  H      -0.799452     -0.787308      0.984993
  H       0.121593      1.497397     -0.339013
  H       0.284621      0.120204     -1.442024
  H       2.651379      1.005436     -0.818056
  H       3.895155      0.368119      1.598058
  H       4.027395     -1.027722      0.515524
24
Coordinates from ORCA-job geo_opt E -43.537974092570
  N      -4.634106     -0.352178     -0.066233
  C      -3.328455     -0.796605      0.456860
  C      -2.228378     -0.048635     -0.307288
  O      -2.519840      0.640516     -1.277880
  N      -1.000340     -0.215300      0.171048
  C       0.176854      0.384710     -0.407741
  C       1.386468     -0.099461      0.391526
  O       1.234471     -0.859747      1.346221
  N       2.555278      0.366553     -0.026166
  C       3.828584      0.054155      0.560522
  C       4.938048      0.803966     -0.259069
  O       4.527252      1.500173     -1.207821
  O       6.109470      0.639925      0.114830
  H      -5.390729     -0.991636      0.199481
  H      -4.560524     -0.283784     -1.093815
  H      -4.850067      0.595012      0.268531
  H      -3.194990     -1.866013      0.288075
  H      -3.243848     -0.594866      1.523965
  H      -0.792028     -0.802037      0.975428
  H       0.119887      1.476621     -0.364231
  H       0.287708      0.092834     -1.456605
  H       2.656076      0.994963     -0.823614
  H       3.885823      0.379905      1.603085
  H       4.037389     -1.019071      0.527496
24
Coordinates from ORCA-job geo_opt E -43.538190429540
  N      -4.628043     -0.329952     -0.050021
  C      -3.327378     -0.813014      0.452092
  C      -2.228097     -0.060597     -0.304898
  O      -2.519967      0.608539     -1.290454
  N      -0.999339     -0.213238      0.170550
  C       0.175501      0.373357     -0.425015
  C       1.380412     -0.093576      0.389404
  O       1.222868     -0.836574      1.357630
  N       2.553876      0.357525     -0.025062
  C       3.826273      0.058241      0.572513
  C       4.922514      0.802483     -0.258417
  O       4.510523      1.485956     -1.215495
  O       6.095323      0.668824      0.119573
  H      -5.388189     -0.987287      0.153607
  H      -4.535983     -0.184584     -1.069140
  H      -4.849432      0.588155      0.353545
  H      -3.209923     -1.877056      0.245960
  H      -3.232156     -0.643491      1.523316
  H      -0.776040     -0.791659      0.977239
  H       0.123041      1.466173     -0.405308
  H       0.287470      0.060877     -1.467437
  H       2.672985      0.970074     -0.833538
  H       3.880648      0.403802      1.608308
  H       4.043111     -1.012975      0.557654
24
Coordinates from ORCA-job geo_opt E -43.538381899470
  N      -4.622438     -0.307471     -0.033986
  C      -3.328274     -0.827730      0.447057
  C      -2.227603     -0.080610     -0.312202
  O      -2.522103      0.577037     -1.305764
  N      -0.999865     -0.217180      0.167000
  C       0.174751      0.360785     -0.437170
  C       1.376147     -0.090587      0.390692
  O       1.212672     -0.818847      1.369948
  N       2.551721      0.352389     -0.022102
  C       3.823949      0.067846      0.583792
  C       4.913041      0.806501     -0.257808
  O       4.497771      1.467812     -1.229909
  O       6.088655      0.687565      0.117735
  H      -5.385983     -0.978151      0.101446
  H      -4.505376     -0.084165     -1.038213
  H      -4.853304      0.575743      0.435665
  H      -3.231278     -1.887465      0.210289
  H      -3.217740     -0.686348      1.520434
  H      -0.766100     -0.784946      0.979633
  H       0.122897      1.453859     -0.437523
  H       0.291269      0.031074     -1.473688
  H       2.683900      0.954204     -0.838627
  H       3.875235      0.430527      1.613899
  H       4.048058     -1.001844      0.586009
24
Coordinates from ORCA-job geo_opt E -43.538681024510
  N      -4.614312     -0.287224     -0.027687
  C      -3.333286     -0.839340      0.451856
  C      -2.227931     -0.104248     -0.313696
  O      -2.526028      0.522847     -1.327455
  N      -1.003484     -0.215900      0.175323
  C       0.172010      0.350712     -0.438766
  C       1.372751     -0.085881      0.398433
  O       1.205496     -0.800954      1.387662
  N       2.548120      0.350905     -0.018302
  C       3.823059      0.077819      0.588096
  C       4.906385      0.810206     -0.264848
  O       4.483743      1.448773     -1.250807
  O       6.085963      0.693293      0.099571
  H      -5.372605     -0.976620     -0.016935
  H      -4.430914      0.049232     -0.994723
  H      -4.889020      0.533231      0.523471
  H      -3.253182     -1.895701      0.192730
  H      -3.214918     -0.719524      1.526174
  H      -0.760319     -0.764063      1.000412
  H       0.120898      1.443677     -0.461742
  H       0.290565      0.001665     -1.468837
  H       2.689727      0.946250     -0.840420
  H       3.876082      0.452057      1.614321
  H       4.051201     -0.991211      0.602774
24
Coordinates from ORCA-job geo_opt E -43.538918027700
  N      -4.614288     -0.292339     -0.041319
  C      -3.339029     -0.834005      0.465344
  C      -2.227528     -0.107046     -0.304270
  O      -2.527727      0.509113     -1.325114
  N      -1.006313     -0.208854      0.192227
  C       0.170180      0.353601     -0.425250
  C       1.375079     -0.084721      0.405717
  O       1.211205     -0.797490      1.397029
  N       2.547117      0.353115     -0.020995
  C       3.824829      0.080513      0.579632
  C       4.911664      0.807092     -0.276504
  O       4.485531      1.439608     -1.266026
  O       6.092272      0.677056      0.081351
  H      -5.350216     -1.000258     -0.121354
  H      -4.373887      0.108427     -0.976047
  H      -4.947562      0.483634      0.540729
  H      -3.252413     -1.893338      0.217318
  H      -3.229930     -0.705112      1.539075
  H      -0.765404     -0.749691      1.023222
  H       0.119773      1.446569     -0.451630
  H       0.283625      0.000972     -1.454999
  H       2.682742      0.948947     -0.843965
  H       3.881438      0.454225      1.606348
  H       4.048844     -0.990018      0.596090
24
Coordinates from ORCA-job geo_opt E -43.539150578780
  N      -4.623498     -0.342372     -0.084376
  C      -3.343261     -0.803685      0.487964
  C      -2.226595     -0.074124     -0.279615
  O      -2.523330      0.547572     -1.298101
  N      -1.008449     -0.181834      0.223807
  C       0.168968      0.386866     -0.387663
  C       1.381705     -0.074731      0.419698
  O       1.228123     -0.804680      1.398771
  N       2.548975      0.364957     -0.024642
  C       3.829849      0.064504      0.554022
  C       4.928902      0.784299     -0.298615
  O       4.503383      1.441775     -1.271896
  O       6.108142      0.615764      0.048839
  H      -5.312814     -1.090845     -0.195852
  H      -4.350534      0.058298     -1.013768
  H      -5.032364      0.420162      0.466014
  H      -3.210571     -1.871328      0.300804
  H      -3.271734     -0.619935      1.556884
  H      -0.782564     -0.730655      1.052595
  H       0.119936      1.480130     -0.391587
  H       0.270096      0.052583     -1.425179
  H       2.663739      0.972238     -0.839786
  H       3.901460      0.416282      1.587957
  H       4.032434     -1.011237      0.550334
24
Coordinates from ORCA-job geo_opt E -43.539309682510
  N      -4.614002     -0.351409     -0.104777
  C      -3.346492     -0.794461      0.506121
  C      -2.227551     -0.070485     -0.260499
  O      -2.527748      0.536818     -1.286817
  N      -1.009611     -0.173057      0.242926
  C       0.165158      0.391747     -0.376987
  C       1.381885     -0.076815      0.419772
  O       1.234109     -0.803942      1.401168
  N       2.547520      0.361911     -0.031500
  C       3.829259      0.057077      0.542834
  C       4.926450      0.775752     -0.311507
  O       4.500299      1.445092     -1.275295
  O       6.104844      0.613565      0.040040
  H      -5.267021     -1.115009     -0.296315
  H      -4.297201      0.104905     -0.996710
  H      -5.082495      0.366131      0.457431
  H      -3.200509     -1.864878      0.349604
  H      -3.293515     -0.582789      1.570776
  H      -0.785956     -0.718871      1.073033
  H       0.120005      1.485042     -0.377538
  H       0.255107      0.058990     -1.415897
  H       2.655323      0.967909     -0.846616
  H       3.903980      0.405958      1.577265
  H       4.028163     -1.019180      0.536096
24
Coordinates from ORCA-job geo_opt E -43.539398773320
  N      -4.612278     -0.355391     -0.106379
  C      -3.345228     -0.792087      0.508558
  C      -2.227588     -0.069610     -0.259773
  O      -2.530248      0.547231     -1.279551
  N      -1.008217     -0.174384      0.239410
  C       0.164791      0.394675     -0.379662
  C       1.381243     -0.077140      0.415779
  O       1.234093     -0.806256      1.395481
  N       2.548267      0.359000     -0.034005
  C       3.828297      0.053564      0.543702
  C       4.924906      0.771583     -0.312356
  O       4.502126      1.441836     -1.275620
  O       6.102252      0.617862      0.045706
  H      -5.254240     -1.124875     -0.311394
  H      -4.296346      0.111523     -0.994325
  H      -5.094440      0.350079      0.459485
  H      -3.195929     -1.863994      0.371409
  H      -3.294109     -0.562933      1.570105
  H      -0.785597     -0.723508      1.067144
  H       0.119790      1.487816     -0.372095
  H       0.253663      0.068328     -1.420413
  H       2.655240      0.962830     -0.850376
  H       3.901758      0.406008      1.576644
  H       4.027793     -1.022159      0.539132
24
Coordinates from ORCA-job geo_opt E -43.539471735110
  N      -4.611201     -0.366962     -0.112303
  C      -3.344689     -0.783657      0.515897
  C      -2.228852     -0.062999     -0.256604
  O      -2.534976      0.563743     -1.269437
  N      -1.007240     -0.172572      0.235277
  C       0.164571      0.401206     -0.381335
  C       1.380403     -0.078537      0.411141
  O       1.231611     -0.808387      1.390036
  N       2.549329      0.355288     -0.035382
  C       3.827919      0.046786      0.543470
  C       4.924207      0.767017     -0.313717
  O       4.503586      1.436895     -1.277026
  O       6.101440      0.614734      0.045393
  H      -5.226387     -1.149970     -0.347180
  H      -4.293205      0.122184     -0.989016
  H      -5.125879      0.311627      0.457154
  H      -3.185878     -1.857174      0.413562
  H      -3.299941     -0.523211      1.571263
  H      -0.784732     -0.726841      1.059762
  H       0.121860      1.494245     -0.360969
  H       0.251736      0.085010     -1.424922
  H       2.656100      0.959832     -0.851390
  H       3.901851      0.400040      1.575789
  H       4.028367     -1.028296      0.537146
24
Coordinates from ORCA-job geo_opt E -43.539514109290
  N      -4.609375     -0.387986     -0.125803
  C      -3.344715     -0.772554      0.525511
  C      -2.230740     -0.052082     -0.250436
  O      -2.540275      0.579028     -1.259878
  N      -1.007778     -0.162983      0.236963
  C       0.163516      0.416862     -0.374333
  C       1.378318     -0.068743      0.416950
  O       1.226824     -0.805079      1.390842
  N       2.549302      0.357016     -0.031254
  C       3.828318      0.036758      0.539697
  C       4.924328      0.754621     -0.322129
  O       4.502203      1.428345     -1.281781
  O       6.102827      0.592083      0.028195
  H      -5.184433     -1.188437     -0.401271
  H      -4.286331      0.131698     -0.984225
  H      -5.169432      0.252553      0.444197
  H      -3.170278     -1.846060      0.462737
  H      -3.313307     -0.476698      1.572553
  H      -0.784032     -0.719439      1.060116
  H       0.121495      1.509701     -0.342278
  H       0.251842      0.110743     -1.420547
  H       2.657132      0.962973     -0.846495
  H       3.911388      0.386708      1.572313
  H       4.023205     -1.039027      0.526964
24
Coordinates from ORCA-job geo_opt E -43.539538767480
  N      -4.610963     -0.401855     -0.131630
  C      -3.345305     -0.757429      0.534521
  C      -2.232987     -0.038570     -0.246127
  O      -2.544276      0.597924     -1.251867
  N      -1.007818     -0.159223      0.233423
  C       0.164687      0.419639     -0.375828
  C       1.378579     -0.077783      0.409837
  O       1.223116     -0.811637      1.385378
  N       2.550525      0.350313     -0.033155
  C       3.829532      0.029787      0.537189
  C       4.925027      0.755011     -0.319975
  O       4.501099      1.430405     -1.278052
  O       6.103883      0.591289      0.028865
  H      -5.155460     -1.216697     -0.427278
  H      -4.292364      0.133855     -0.981610
  H      -5.200771      0.212740      0.436524
  H      -3.159239     -1.830133      0.502800
  H      -3.323725     -0.433402      1.573755
  H      -0.782295     -0.719856      1.053785
  H       0.129002      1.512633     -0.334498
  H       0.249708      0.121499     -1.424475
  H       2.660247      0.961820     -0.844548
  H       3.912060      0.374954      1.571502
  H       4.027737     -1.045284      0.518072
24
Coordinates from ORCA-job geo_opt E -43.539564881020
  N      -4.608837     -0.418315     -0.144961
  C      -3.346929     -0.746616      0.542509
  C      -2.234453     -0.027877     -0.237722
  O      -2.546341      0.609479     -1.242875
  N      -1.009247     -0.150602      0.240728
  C       0.163700      0.428990     -0.366679
  C       1.377849     -0.072556      0.415518
  O       1.222220     -0.809574      1.388853
  N       2.549843      0.350769     -0.031534
  C       3.830560      0.023416      0.531023
  C       4.925375      0.746031     -0.327561
  O       4.499730      1.426248     -1.282148
  O       6.105152      0.574652      0.014412
  H      -5.118311     -1.244159     -0.470646
  H      -4.287735      0.142379     -0.977822
  H      -5.231956      0.164187      0.420995
  H      -3.148586     -1.817514      0.534942
  H      -3.341056     -0.400987      1.574996
  H      -0.782476     -0.711020      1.061122
  H       0.130034      1.522062     -0.321670
  H       0.247439      0.135147     -1.416746
  H       2.660210      0.964310     -0.841617
  H       3.919943      0.364174      1.566357
  H       4.023872     -1.052622      0.507136
24
Coordinates from ORCA-job geo_opt E -43.539586045250
  N      -4.603606     -0.448805     -0.167403
  C      -3.348923     -0.727916      0.554800
  C      -2.236867     -0.006575     -0.223013
  O      -2.549332      0.635656     -1.224849
  N      -1.011670     -0.133526      0.254086
  C       0.161874      0.447534     -0.350628
  C       1.376462     -0.063242      0.424188
  O       1.220799     -0.804727      1.394201
  N       2.548662      0.350861     -0.030490
  C       3.831287      0.011618      0.520648
  C       4.925583      0.727577     -0.341204
  O       4.498355      1.416055     -1.289978
  O       6.106328      0.545864     -0.008175
  H      -5.049035     -1.291864     -0.539024
  H      -4.286065      0.153002     -0.972432
  H      -5.280936      0.075510      0.392679
  H      -3.128228     -1.793798      0.587820
  H      -3.372444     -0.346904      1.574630
  H      -0.783370     -0.695047      1.073312
  H       0.132110      1.540550     -0.298801
  H       0.242340      0.161507     -1.403307
  H       2.660475      0.966835     -0.838673
  H       3.931299      0.346094      1.557233
  H       4.014902     -1.066260      0.490986
24
Coordinates from ORCA-job geo_opt E -43.539591823250
  N      -4.605464     -0.443818     -0.164071
  C      -3.348678     -0.729916      0.552324
  C      -2.235759     -0.010153     -0.225784
  O      -2.546340      0.632672     -1.227580
  N      -1.010894     -0.137249      0.252580
  C       0.162390      0.444063     -0.352723
  C       1.377284     -0.064856      0.422647
  O       1.222820     -0.806072      1.392913
  N       2.549153      0.350513     -0.031860
  C       3.831455      0.013802      0.521930
  C       4.925668      0.730165     -0.338935
  O       4.499557      1.417605     -1.288857
  O       6.106214      0.551619     -0.003411
  H      -5.058924     -1.285417     -0.529587
  H      -4.290515      0.153828     -0.972316
  H      -5.275277      0.086882      0.399456
  H      -3.131425     -1.796705      0.579308
  H      -3.368692     -0.353563      1.573893
  H      -0.783058     -0.698368      1.072017
  H       0.131387      1.537041     -0.302794
  H       0.243129      0.156648     -1.405061
  H       2.661051      0.965874     -0.840365
  H       3.928735      0.349366      1.558428
  H       4.016185     -1.063961      0.494458
24
Coordinates from ORCA-job geo_opt E -43.539595656060
  N      -4.604514     -0.446341     -0.167718
  C      -3.349575     -0.725097      0.555472
  C      -2.235191     -0.008700     -0.223314
  O      -2.544032      0.636201     -1.223920
  N      -1.010566     -0.137834      0.255577
  C       0.162131      0.443606     -0.351330
  C       1.378219     -0.067564      0.420521
  O       1.226093     -0.807529      1.391823
  N       2.549400      0.348281     -0.035607
  C       3.831440      0.012590      0.519988
  C       4.925465      0.729413     -0.339845
  O       4.500641      1.417150     -1.289912
  O       6.105905      0.553481     -0.002371
  H      -5.041054     -1.289988     -0.549071
  H      -4.293038      0.166581     -0.965267
  H      -5.287318      0.065047      0.398344
  H      -3.129878     -1.790883      0.593092
  H      -3.375492     -0.339133      1.573321
  H      -0.783425     -0.699308      1.074598
  H       0.131450      1.536424     -0.300647
  H       0.240151      0.157182     -1.404192
  H       2.660848      0.963920     -0.843682
  H       3.926302      0.347762      1.556841
  H       4.016038     -1.065263      0.493909
24
Coordinates from ORCA-job geo_opt E -43.539597082890
  N      -4.605257     -0.445481     -0.165372
  C      -3.348832     -0.725671      0.554492
  C      -2.235162     -0.009070     -0.225434
  O      -2.543934      0.634568     -1.226861
  N      -1.010460     -0.137843      0.253588
  C       0.162405      0.443393     -0.353164
  C       1.378118     -0.067154      0.420015
  O       1.225222     -0.807677      1.390795
  N       2.549589      0.349063     -0.035078
  C       3.831190      0.012233      0.520771
  C       4.925921      0.730604     -0.338041
  O       4.500901      1.419269     -1.287234
  O       6.106206      0.553455     -0.000750
  H      -5.046555     -1.289338     -0.540650
  H      -4.295317      0.162265     -0.967191
  H      -5.283921      0.071103      0.400769
  H      -3.129796     -1.791659      0.590267
  H      -3.372085     -0.341190      1.573005
  H      -0.783609     -0.699180      1.072775
  H       0.131254      1.536206     -0.302796
  H       0.241257      0.156212     -1.405703
  H       2.661337      0.965274     -0.842660
  H       3.925603      0.346110      1.558046
  H       4.015924     -1.065495      0.493018
24
Coordinates from ORCA-job geo_opt E -43.539597396210
  N      -4.605328     -0.444547     -0.164434
  C      -3.348730     -0.725961      0.554522
  C      -2.235224     -0.009606     -0.225898
  O      -2.544167      0.633282     -1.227764
  N      -1.010457     -0.138000      0.253154
  C       0.162422      0.442583     -0.354222
  C       1.378150     -0.067392      0.419413
  O       1.225234     -0.807826      1.390274
  N       2.549656      0.349065     -0.035428
  C       3.831027      0.012357      0.521034
  C       4.926190      0.731578     -0.337078
  O       4.501365      1.420103     -1.286386
  O       6.106299      0.554293      0.000702
  H      -5.047665     -1.287868     -0.539765
  H      -4.295304      0.163128     -0.966311
  H      -5.283294      0.072350      0.402205
  H      -3.130311     -1.792110      0.589455
  H      -3.370734     -0.342156      1.573327
  H      -0.783797     -0.699272      1.072444
  H       0.131205      1.535433     -0.304497
  H       0.241234      0.154472     -1.406470
  H       2.661334      0.965328     -0.842973
  H       3.924668      0.346011      1.558432
  H       4.016228     -1.065244      0.492870
