24
zwitterion conformer 11
N      -4.63066079    -0.27346022    -0.26746090
C      -3.49961864    -0.78854446     0.50166604
C      -2.27794472    -0.15212627    -0.09058034
O      -2.44765865     0.63114508    -1.04843798
N      -0.97983082    -0.43419174     0.42361685
C       0.14022085     0.23085266    -0.21669634
C       1.42276664    -0.16100556     0.42675365
O       1.48547239    -0.96318711     1.39265659
N       2.60918825     0.43357458    -0.12013173
C       3.92051100     0.14735086     0.40126910
C       4.98662202     0.88302022    -0.33030473
O       4.73788135     1.66134035    -1.29282910
O       6.29592931     0.70132760     0.06575095
H      -5.51804316    -0.77230751    -0.04195916
H      -4.39990941    -0.35659617    -1.29467248
H      -4.68557540     0.73930604    -0.07185124
H      -3.43705431    -1.91026503     0.42544608
H      -3.64140106    -0.46257766     1.55567949
H      -0.85626543    -1.09911378     1.23396478
H       0.05257870     1.33140326    -0.12301935
H       0.12975903     0.01128994    -1.30012371
H       2.54795163     1.10372930    -0.92831197
H       3.94315522     0.45141294     1.47595388
H       4.10192602    -0.95237732     0.36022917
