17
Coordinates from ORCA-job geo_opt E -28.245633920780
  C       1.927660      0.351328      0.012585
  C       0.676243     -0.466871      0.178960
  O       0.423521     -0.915336      1.440606
  C      -0.534244      0.144762     -0.489636
  N      -1.559593     -0.893896     -0.553676
  C      -1.020790      1.351252      0.212714
  O      -0.625635      1.683297      1.373903
  O      -1.953159      2.144924     -0.445441
  H       2.795198     -0.347302      0.194801
  H       1.996569      0.571448     -1.087498
  H       2.002502      1.238346      0.638295
  H       0.881655     -1.395860     -0.432806
  H       0.653529     -0.314653      2.178101
  H      -0.304219      0.411425     -1.525394
  H      -2.505117     -0.497867     -0.489870
  H      -1.462751     -1.599191      0.219789
  H      -1.391370     -1.465804     -1.425434
17
Coordinates from ORCA-job geo_opt E -28.272371037410
  C       1.956571      0.360051      0.014468
  C       0.706554     -0.501101      0.152763
  O       0.427432     -0.952512      1.428788
  C      -0.532463      0.129064     -0.512905
  N      -1.602333     -0.899900     -0.550897
  C      -1.011026      1.367071      0.205876
  O      -0.597121      1.690220      1.336413
  O      -1.916331      2.069359     -0.411497
  H       2.829924     -0.270642      0.231192
  H       2.058296      0.623010     -1.044684
  H       1.963330      1.236854      0.647993
  H       0.922810     -1.421504     -0.439609
  H       0.626719     -0.317374      2.131832
  H      -0.305031      0.406315     -1.547559
  H      -2.532894     -0.471376     -0.482678
  H      -1.502672     -1.567396      0.239102
  H      -1.491766     -1.480139     -1.398598
17
Coordinates from ORCA-job geo_opt E -28.281881941690
  C       1.955439      0.363524      0.013154
  C       0.729949     -0.543021      0.123508
  O       0.429433     -0.980986      1.418089
  C      -0.519195      0.104396     -0.531343
  N      -1.621426     -0.901665     -0.546596
  C      -0.999854      1.377401      0.211465
  O      -0.526912      1.674613      1.315048
  O      -1.873382      2.005413     -0.380480
  H       2.842148     -0.201719      0.278257
  H       2.076387      0.670925     -1.018262
  H       1.872425      1.233528      0.653426
  H       0.958708     -1.458076     -0.443782
  H       0.590816     -0.289150      2.069281
  H      -0.296066      0.391267     -1.561007
  H      -2.530542     -0.429287     -0.475436
  H      -1.517645     -1.534412      0.261530
  H      -1.570282     -1.482751     -1.386852
17
Coordinates from ORCA-job geo_opt E -28.285781062390
  C       1.950974      0.367610      0.023359
  C       0.750243     -0.575089      0.089487
  O       0.433692     -1.019363      1.385769
  C      -0.501181      0.086195     -0.547797
  N      -1.627175     -0.894330     -0.531312
  C      -0.969400      1.390655      0.204674
  O      -0.425872      1.681922      1.279099
  O      -1.924219      1.961926     -0.336664
  H       2.846320     -0.155135      0.339431
  H       2.097381      0.703225     -0.995484
  H       1.792178      1.230297      0.662705
  H       0.994861     -1.482356     -0.477216
  H       0.530941     -0.291355      2.010986
  H      -0.289643      0.370449     -1.579541
  H      -2.519208     -0.386559     -0.480980
  H      -1.533361     -1.485709      0.307259
  H      -1.606529     -1.502382     -1.353774
17
Coordinates from ORCA-job geo_opt E -28.286497732420
  C       1.950960      0.360962      0.027980
  C       0.765427     -0.599741      0.055957
  O       0.440526     -1.058837      1.353008
  C      -0.489198      0.072949     -0.547848
  N      -1.617328     -0.894828     -0.517704
  C      -0.992337      1.373619      0.248301
  O      -0.314853      1.738941      1.218200
  O      -1.961837      1.932081     -0.297571
  H       2.845080     -0.129070      0.402054
  H       2.126105      0.717964     -0.981863
  H       1.726454      1.219714      0.656969
  H       1.014135     -1.500186     -0.514485
  H       0.442243     -0.290610      1.941979
  H      -0.300183      0.385108     -1.575668
  H      -2.497866     -0.361169     -0.498707
  H      -1.526152     -1.439204      0.353804
  H      -1.611176     -1.527694     -1.324405
17
Coordinates from ORCA-job geo_opt E -28.288626858970
  C       1.986361      0.323048      0.005703
  C       0.770828     -0.594684      0.047741
  O       0.431883     -1.019529      1.357032
  C      -0.466396      0.091937     -0.553581
  N      -1.592710     -0.866114     -0.531563
  C      -1.012408      1.382994      0.261759
  O      -0.359302      1.738673      1.249281
  O      -2.115743      1.773855     -0.160259
  H       2.857670     -0.172554      0.431127
  H       2.192744      0.642584     -1.014274
  H       1.765387      1.213168      0.593434
  H       0.989039     -1.516406     -0.499680
  H       0.382253     -0.213022      1.896523
  H      -0.270084      0.426518     -1.572774
  H      -2.465255     -0.316307     -0.560187
  H      -1.518339     -1.368245      0.369554
  H      -1.575927     -1.525914     -1.319836
17
Coordinates from ORCA-job geo_opt E -28.289664423360
  C       1.990593      0.319684      0.002531
  C       0.762931     -0.580941      0.059984
  O       0.430375     -0.998241      1.371281
  C      -0.471771      0.100543     -0.549226
  N      -1.592027     -0.869344     -0.548530
  C      -1.020775      1.367917      0.277503
  O      -0.351304      1.766696      1.236722
  O      -2.134279      1.745799     -0.122839
  H       2.851395     -0.186597      0.430217
  H       2.205201      0.601653     -1.024122
  H       1.796075      1.227189      0.571607
  H       0.972369     -1.509560     -0.485913
  H       0.385206     -0.198063      1.918344
  H      -0.271288      0.449569     -1.563345
  H      -2.470752     -0.326928     -0.572590
  H      -1.522064     -1.390949      0.341029
  H      -1.559886     -1.518426     -1.342652
17
Coordinates from ORCA-job geo_opt E -28.290979480880
  C       2.005245      0.304402     -0.004086
  C       0.757754     -0.565614      0.073745
  O       0.431903     -0.959947      1.393252
  C      -0.469927      0.113608     -0.543484
  N      -1.586320     -0.861773     -0.583243
  C      -1.038816      1.334023      0.314021
  O      -0.316913      1.851811      1.170954
  O      -2.213988      1.603386      0.021041
  H       2.841559     -0.206860      0.460418
  H       2.249828      0.510379     -1.040285
  H       1.836282      1.246820      0.512780
  H       0.948881     -1.508719     -0.458745
  H       0.355476     -0.154125      1.926656
  H      -0.265197      0.499812     -1.543211
  H      -2.461548     -0.307006     -0.604864
  H      -1.531994     -1.405469      0.292280
  H      -1.542226     -1.494728     -1.387230
17
Coordinates from ORCA-job geo_opt E -28.291691973050
  C       2.014081      0.294374     -0.007201
  C       0.757768     -0.561997      0.085516
  O       0.438490     -0.939051      1.412021
  C      -0.467393      0.116954     -0.538647
  N      -1.584180     -0.855608     -0.607158
  C      -1.052501      1.315959      0.328534
  O      -0.311785      1.912540      1.114645
  O      -2.261093      1.506633      0.110447
  H       2.838654     -0.214260      0.482029
  H       2.273738      0.457331     -1.047764
  H       1.853453      1.254559      0.476954
  H       0.939689     -1.513557     -0.433644
  H       0.353691     -0.128952      1.935941
  H      -0.255517      0.522650     -1.528922
  H      -2.449974     -0.278915     -0.602501
  H      -1.536679     -1.425569      0.250237
  H      -1.550444     -1.463092     -1.430485
17
Coordinates from ORCA-job geo_opt E -28.292672884140
  C       2.017788      0.286980     -0.005316
  C       0.759061     -0.566002      0.104714
  O       0.450884     -0.923524      1.440022
  C      -0.464052      0.111085     -0.532697
  N      -1.584511     -0.851409     -0.641266
  C      -1.063460      1.298950      0.332500
  O      -0.304376      2.004029      1.002121
  O      -2.302832      1.389163      0.229763
  H       2.832695     -0.207925      0.516961
  H       2.294964      0.403463     -1.048717
  H       1.851715      1.264406      0.438648
  H       0.936687     -1.525677     -0.395270
  H       0.367550     -0.111361      1.957613
  H      -0.233725      0.533673     -1.511461
  H      -2.426943     -0.232407     -0.557024
  H      -1.539969     -1.474751      0.175020
  H      -1.591476     -1.398692     -1.505611
17
Coordinates from ORCA-job geo_opt E -28.293281632070
  C       2.012466      0.284628      0.001015
  C       0.757966     -0.575471      0.122430
  O       0.456780     -0.919185      1.463229
  C      -0.461650      0.099838     -0.528740
  N      -1.585475     -0.852853     -0.669194
  C      -1.064689      1.296087      0.323297
  O      -0.295156      2.075917      0.889928
  O      -2.314067      1.322182      0.314430
  H       2.824108     -0.189422      0.548706
  H       2.301410      0.375953     -1.041927
  H       1.828038      1.271573      0.415324
  H       0.936444     -1.540532     -0.363323
  H       0.390036     -0.106903      1.980960
  H      -0.204201      0.526957     -1.498957
  H      -2.404400     -0.208649     -0.476206
  H      -1.530384     -1.537685      0.093505
  H      -1.647225     -1.322436     -1.574479
17
Coordinates from ORCA-job geo_opt E -28.293528647730
  C       2.007557      0.283116      0.006796
  C       0.755324     -0.580462      0.129736
  O       0.452452     -0.918461      1.471147
  C      -0.459419      0.094972     -0.529667
  N      -1.586136     -0.852812     -0.677397
  C      -1.061210      1.301820      0.312420
  O      -0.287364      2.105879      0.837093
  O      -2.310308      1.299092      0.341347
  H       2.818793     -0.177793      0.564768
  H       2.300942      0.371083     -1.034568
  H       1.810554      1.273290      0.409602
  H       0.934090     -1.548456     -0.352170
  H       0.403475     -0.105714      1.990785
  H      -0.182605      0.517173     -1.497169
  H      -2.399467     -0.213700     -0.418883
  H      -1.514300     -1.575497      0.048221
  H      -1.682379     -1.273530     -1.602061
17
Coordinates from ORCA-job geo_opt E -28.293647114930
  C       2.005127      0.280746      0.013248
  C       0.751808     -0.581083      0.132246
  O       0.445156     -0.920967      1.471622
  C      -0.458734      0.094669     -0.533327
  N      -1.585504     -0.851705     -0.677737
  C      -1.059216      1.309769      0.303854
  O      -0.284133      2.132531      0.794712
  O      -2.306730      1.284254      0.364831
  H       2.815629     -0.175111      0.574993
  H       2.301271      0.372225     -1.026693
  H       1.803688      1.272149      0.413086
  H       0.930069     -1.549574     -0.351779
  H       0.411933     -0.110479      1.996646
  H      -0.168886      0.508347     -1.500766
  H      -2.401253     -0.224364     -0.386435
  H      -1.498854     -1.596404      0.023520
  H      -1.701369     -1.245003     -1.612020
17
Coordinates from ORCA-job geo_opt E -28.293722276210
  C       2.002084      0.280845      0.024246
  C       0.748562     -0.580972      0.132957
  O       0.436116     -0.929435      1.467979
  C      -0.459093      0.093936     -0.540331
  N      -1.585647     -0.850929     -0.675079
  C      -1.055335      1.318387      0.290585
  O      -0.279954      2.166578      0.733258
  O      -2.299401      1.271499      0.395011
  H       2.811339     -0.173330      0.588932
  H       2.303580      0.378767     -1.013734
  H       1.797098      1.271767      0.424890
  H       0.930034     -1.546834     -0.356567
  H       0.417673     -0.126029      2.004029
  H      -0.159608      0.494933     -1.509665
  H      -2.398795     -0.236247     -0.347645
  H      -1.480817     -1.617762     -0.001238
  H      -1.727836     -1.215173     -1.617628
17
Coordinates from ORCA-job geo_opt E -28.293769234020
  C       1.999207      0.283943      0.036878
  C       0.747461     -0.581132      0.129427
  O       0.426528     -0.942267      1.458719
  C      -0.458831      0.092908     -0.549601
  N      -1.587150     -0.850361     -0.669056
  C      -1.048451      1.325328      0.276149
  O      -0.273804      2.196846      0.671757
  O      -2.286915      1.260136      0.425257
  H       2.805913     -0.171048      0.604561
  H       2.308782      0.390302     -0.997964
  H       1.789801      1.272556      0.441386
  H       0.935510     -1.542114     -0.367793
  H       0.413624     -0.147059      2.006546
  H      -0.156617      0.481448     -1.522593
  H      -2.393422     -0.242741     -0.314965
  H      -1.466434     -1.630872     -0.014055
  H      -1.755201     -1.195872     -1.614655
17
Coordinates from ORCA-job geo_opt E -28.293815353500
  C       1.994425      0.291319      0.056054
  C       0.747143     -0.581340      0.120871
  O       0.412345     -0.966103      1.439816
  C      -0.459101      0.091819     -0.563297
  N      -1.589472     -0.851747     -0.656796
  C      -1.036043      1.336512      0.253541
  O      -0.261495      2.233041      0.589669
  O      -2.266324      1.258748      0.456867
  H       2.797195     -0.168272      0.626326
  H       2.316185      0.413207     -0.973635
  H       1.777925      1.274117      0.470402
  H       0.947477     -1.532460     -0.389997
  H       0.401324     -0.184793      2.006711
  H      -0.159283      0.462429     -1.543212
  H      -2.384238     -0.252328     -0.269188
  H      -1.444890     -1.644599     -0.021880
  H      -1.793171     -1.179549     -1.602251
17
Coordinates from ORCA-job geo_opt E -28.293843866620
  C       1.993412      0.295455      0.067141
  C       0.748906     -0.581779      0.112389
  O       0.403981     -0.982686      1.424304
  C      -0.457938      0.092256     -0.571284
  N      -1.590471     -0.851561     -0.647633
  C      -1.029560      1.341735      0.240995
  O      -0.258511      2.253682      0.543328
  O      -2.253519      1.252795      0.475508
  H       2.791502     -0.168160      0.640779
  H       2.324635      0.425936     -0.958362
  H       1.771949      1.274573      0.486874
  H       0.956698     -1.526209     -0.407545
  H       0.385545     -0.208507      2.000641
  H      -0.164347      0.455322     -1.555666
  H      -2.376581     -0.250723     -0.247268
  H      -1.433332     -1.644086     -0.014958
  H      -1.812370     -1.178043     -1.589243
17
Coordinates from ORCA-job geo_opt E -28.293881130400
  C       1.991688      0.302603      0.077398
  C       0.752173     -0.582300      0.099351
  O       0.396915     -1.005224      1.402144
  C      -0.457864      0.093208     -0.578016
  N      -1.591847     -0.853528     -0.633233
  C      -1.020523      1.348401      0.228313
  O      -0.245041      2.260505      0.520740
  O      -2.243599      1.265912      0.470998
  H       2.785932     -0.167903      0.651176
  H       2.331019      0.446314     -0.943694
  H       1.763920      1.275232      0.507511
  H       0.969637     -1.517000     -0.433125
  H       0.363471     -0.238940      1.988394
  H      -0.177879      0.449457     -1.568804
  H      -2.373825     -0.246768     -0.236358
  H      -1.423614     -1.632597      0.013890
  H      -1.820564     -1.197373     -1.566685
17
Coordinates from ORCA-job geo_opt E -28.293904916630
  C       1.992040      0.304827      0.085134
  C       0.753670     -0.581956      0.090286
  O       0.391551     -1.023571      1.385237
  C      -0.458190      0.095951     -0.580764
  N      -1.590576     -0.854217     -0.623689
  C      -1.017930      1.355918      0.218670
  O      -0.245003      2.275863      0.492370
  O      -2.238831      1.271081      0.474350
  H       2.782078     -0.171518      0.659847
  H       2.337576      0.457141     -0.932575
  H       1.760894      1.273655      0.521423
  H       0.975649     -1.509404     -0.452843
  H       0.349683     -0.264875      1.980804
  H      -0.185837      0.448325     -1.575248
  H      -2.371319     -0.243758     -0.225850
  H      -1.413222     -1.622772      0.034131
  H      -1.822234     -1.210692     -1.551281
17
Coordinates from ORCA-job geo_opt E -28.293918624830
  C       1.991087      0.306828      0.089830
  C       0.754569     -0.582367      0.084304
  O       0.390240     -1.037809      1.373836
  C      -0.458691      0.096898     -0.582072
  N      -1.590382     -0.853529     -0.615751
  C      -1.016107      1.361513      0.210963
  O      -0.241741      2.280597      0.481949
  O      -2.237429      1.279271      0.465448
  H       2.780831     -0.171855      0.662735
  H       2.338158      0.468742     -0.925877
  H       1.755963      1.271939      0.532622
  H       0.979734     -1.504320     -0.467263
  H       0.346516     -0.285359      1.977293
  H      -0.189682      0.444981     -1.579250
  H      -2.372794     -0.240331     -0.222946
  H      -1.410703     -1.612528      0.053054
  H      -1.819570     -1.222672     -1.538875
17
Coordinates from ORCA-job geo_opt E -28.293925141860
  C       1.989813      0.307634      0.093297
  C       0.754493     -0.582862      0.081494
  O       0.389884     -1.047078      1.367546
  C      -0.459507      0.097138     -0.582765
  N      -1.590448     -0.852717     -0.611496
  C      -1.015508      1.365826      0.205451
  O      -0.241125      2.286126      0.470860
  O      -2.236641      1.284616      0.461320
  H       2.780411     -0.171629      0.664247
  H       2.337067      0.476850     -0.921146
  H       1.752112      1.270201      0.540713
  H       0.981201     -1.501198     -0.475941
  H       0.350661     -0.300112      1.978142
  H      -0.189718      0.441546     -1.581164
  H      -2.374055     -0.238829     -0.220917
  H      -1.410686     -1.607354      0.062759
  H      -1.817955     -1.228159     -1.532401
17
Coordinates from ORCA-job geo_opt E -28.293926894200
  C       1.989416      0.307699      0.093654
  C       0.754542     -0.583218      0.080978
  O       0.390446     -1.048721      1.366606
  C      -0.459860      0.096978     -0.582744
  N      -1.590886     -0.852271     -0.610803
  C      -1.015814      1.366342      0.204891
  O      -0.241104      2.285996      0.471555
  O      -2.237451      1.286267      0.458241
  H       2.780945     -0.171524      0.663270
  H       2.336007      0.479393     -0.920600
  H       1.751398      1.269395      0.542902
  H       0.981225     -1.500796     -0.477761
  H       0.354836     -0.303159      1.979131
  H      -0.189457      0.440941     -1.581157
  H      -2.375192     -0.237438     -0.224316
  H      -1.413249     -1.604367      0.066992
  H      -1.815800     -1.231518     -1.530840
17
Coordinates from ORCA-job geo_opt E -28.293927741080
  C       1.988954      0.307809      0.094227
  C       0.754462     -0.583394      0.080582
  O       0.389987     -1.049482      1.365818
  C      -0.460170      0.096931     -0.583158
  N      -1.591208     -0.852182     -0.610473
  C      -1.015857      1.366719      0.204292
  O      -0.240962      2.286316      0.470878
  O      -2.237637      1.287488      0.457025
  H       2.780996     -0.171793      0.662877
  H       2.335426      0.481287     -0.919787
  H       1.751002      1.268824      0.544953
  H       0.981257     -1.500422     -0.478918
  H       0.358362     -0.305156      1.979997
  H      -0.189613      0.440557     -1.581603
  H      -2.375564     -0.237046     -0.225936
  H      -1.414162     -1.602871      0.069089
  H      -1.815273     -1.233584     -1.529864
17
Coordinates from ORCA-job geo_opt E -28.293928091600
  C       1.988786      0.307779      0.094370
  C       0.754407     -0.583428      0.080422
  O       0.389393     -1.049340      1.365588
  C      -0.460264      0.096996     -0.583398
  N      -1.591329     -0.852180     -0.610562
  C      -1.016000      1.366686      0.204229
  O      -0.240971      2.286065      0.471359
  O      -2.237893      1.287765      0.456410
  H       2.780975     -0.172214      0.662551
  H       2.335224      0.481897     -0.919551
  H       1.751051      1.268526      0.545750
  H       0.981165     -1.500393     -0.479129
  H       0.360444     -0.305426      1.980371
  H      -0.189983      0.440833     -1.581823
  H      -2.375746     -0.236750     -0.227166
  H      -1.414370     -1.601915      0.070117
  H      -1.814889     -1.234901     -1.529537
