17
Coordinates from ORCA-job geo_opt E -28.293928091600
  C           1.98878646498716      0.30777876368118      0.09436999053124
  C           0.75440690618834     -0.58342832136575      0.08042214816837
  O           0.38939326152829     -1.04933965080994      1.36558763778065
  C          -0.46026383116642      0.09699638591160     -0.58339787425869
  N          -1.59132900858360     -0.85218025510066     -0.61056225781696
  C          -1.01600035615231      1.36668609895776      0.20422867480959
  O          -0.24097123489236      2.28606530901022      0.47135917835900
  O          -2.23789348932914      1.28776491275461      0.45640965424140
  H           2.78097492167791     -0.17221373834173      0.66255113080735
  H           2.33522435097176      0.48189692802077     -0.91955108173443
  H           1.75105093833337      1.26852617794063      0.54574972535013
  H           0.98116488293119     -1.50039278948257     -0.47912863083612
  H           0.36044445640602     -0.30542598801027      1.98037114297371
  H          -0.18998324613150      0.44083286958489     -1.58182330386854
  H          -2.37574592082608     -0.23674995319639     -0.22716591140977
  H          -1.41437035811020     -1.60191535428030      0.07011668890040
  H          -1.81488873783243     -1.23490138527405     -1.52953689199732
