17
zwitterion conformer 3
C       1.92766004     0.35132791     0.01258504
C       0.67624251    -0.46687092     0.17896000
O       0.42352150    -0.91533646     1.44060595
C      -0.53424408     0.14476174    -0.48963596
N      -1.55959252    -0.89389600    -0.55367563
C      -1.02078956     1.35125158     0.21271419
O      -0.62563491     1.68329730     1.37390270
O      -1.95315872     2.14492368    -0.44544110
H       2.79519795    -0.34730216     0.19480096
H       1.99656897     0.57144773    -1.08749756
H       2.00250248     1.23834621     0.63829467
H       0.88165472    -1.39586030    -0.43280588
H       0.65352857    -0.31465257     2.17810107
H      -0.30421895     0.41142454    -1.52539434
H      -2.50511723    -0.49786676    -0.48986979
H      -1.46275107    -1.59919125     0.21978933
H      -1.39136970    -1.46580426    -1.42543363
