17
Coordinates from ORCA-job geo_opt E -438.496926950654
  C           2.02122712500378      0.29431471744551      0.11131727996260
  C           0.75646508962874     -0.55285496598573      0.09883412812171
  O           0.41056289499957     -1.05104002244981      1.41050805021897
  C          -0.46677261925738      0.12675089419940     -0.54904489694363
  N          -1.59792985171525     -0.86809763932746     -0.60252893978340
  C          -1.05285342830473      1.39527299264614      0.16772955228449
  O          -0.27208627535107      2.35679263988772      0.36542384362747
  O          -2.29303650055931      1.32914816852667      0.44849052327421
  H           2.85710731160727     -0.30917909017399      0.49099107964751
  H           2.27006376225590      0.63295720589931     -0.90480453886660
  H           1.89168840666190      1.18022499305058      0.74587720214591
  H           0.94883670221001     -1.46671687459064     -0.48671370555094
  H           0.37110729269717     -0.28620532775578      2.01766752032018
  H          -0.21938845833853      0.40654229185759     -1.58187315007181
  H          -2.42276876413028     -0.28851893670139     -0.28793647873339
  H          -1.45468803456643     -1.62081626909974      0.08605612936543
  H          -1.74753466284136     -1.27857476742840     -1.52999356901870
