17
Coordinates from ORCA-job geo_opt E -438.492348341146
  C       1.988786      0.307779      0.094370
  C       0.754407     -0.583428      0.080422
  O       0.389393     -1.049340      1.365588
  C      -0.460264      0.096996     -0.583398
  N      -1.591329     -0.852180     -0.610562
  C      -1.016000      1.366686      0.204229
  O      -0.240971      2.286065      0.471359
  O      -2.237893      1.287765      0.456410
  H       2.780975     -0.172214      0.662551
  H       2.335224      0.481897     -0.919551
  H       1.751051      1.268526      0.545750
  H       0.981165     -1.500393     -0.479129
  H       0.360444     -0.305426      1.980371
  H      -0.189983      0.440833     -1.581823
  H      -2.375746     -0.236750     -0.227166
  H      -1.414370     -1.601915      0.070117
  H      -1.814889     -1.234901     -1.529537
17
Coordinates from ORCA-job geo_opt E -438.495519129168
  C       2.025102      0.287227      0.097680
  C       0.759743     -0.566773      0.092213
  O       0.403204     -1.061601      1.388442
  C      -0.464107      0.121976     -0.560549
  N      -1.589849     -0.854438     -0.609855
  C      -1.063744      1.385883      0.209639
  O      -0.322044      2.368092      0.407178
  O      -2.306924      1.290674      0.442015
  H       2.828667     -0.252938      0.615350
  H       2.346469      0.495559     -0.931847
  H       1.839448      1.241531      0.602950
  H       0.962595     -1.481527     -0.488869
  H       0.389144     -0.318531      2.021732
  H      -0.205806      0.452272     -1.574112
  H      -2.396258     -0.252387     -0.249428
  H      -1.423350     -1.607591      0.073797
  H      -1.782288     -1.247427     -1.536336
17
Coordinates from ORCA-job geo_opt E -438.494499857853
  C       2.032405      0.291415      0.103361
  C       0.757770     -0.549394      0.091697
  O       0.394513     -1.055138      1.399604
  C      -0.464402      0.132384     -0.568626
  N      -1.597075     -0.857016     -0.615615
  C      -1.078202      1.406902      0.150066
  O      -0.304847      2.365434      0.410736
  O      -2.293287      1.252254      0.534392
  H       2.838160     -0.277514      0.600972
  H       2.351450      0.517197     -0.931930
  H       1.868659      1.243635      0.633571
  H       0.954737     -1.464993     -0.495511
  H       0.377297     -0.302081      2.031436
  H      -0.208568      0.421940     -1.599794
  H      -2.411980     -0.248260     -0.289030
  H      -1.451681     -1.601987      0.083471
  H      -1.764951     -1.274776     -1.538799
17
Coordinates from ORCA-job geo_opt E -438.496634753324
  C       2.019924      0.301576      0.111063
  C       0.761095     -0.556682      0.088709
  O       0.407968     -1.076303      1.391880
  C      -0.462765      0.123584     -0.557323
  N      -1.599624     -0.862924     -0.600131
  C      -1.051433      1.393239      0.170874
  O      -0.274944      2.356301      0.386904
  O      -2.299741      1.316624      0.444555
  H       2.836776     -0.267525      0.580185
  H       2.321767      0.561232     -0.916521
  H       1.850373      1.233704      0.669785
  H       0.964104     -1.462359     -0.508116
  H       0.380114     -0.327253      2.021648
  H      -0.219077      0.412397     -1.589430
  H      -2.406666     -0.261253     -0.252446
  H      -1.448141     -1.618255      0.083945
  H      -1.779731     -1.266101     -1.525583
17
Coordinates from ORCA-job geo_opt E -438.496792421669
  C       2.022131      0.295274      0.110722
  C       0.759302     -0.555083      0.093080
  O       0.407503     -1.062595      1.398685
  C      -0.463779      0.126458     -0.552519
  N      -1.597174     -0.861965     -0.604145
  C      -1.054794      1.390160      0.175721
  O      -0.291046      2.363763      0.370036
  O      -2.295733      1.305108      0.458820
  H       2.842154     -0.285917      0.553829
  H       2.307548      0.573061     -0.913954
  H       1.867717      1.214951      0.688125
  H       0.956389     -1.465536     -0.495992
  H       0.380616     -0.307643      2.017955
  H      -0.217729      0.417390     -1.582248
  H      -2.409680     -0.265112     -0.268237
  H      -1.448717     -1.616727      0.080954
  H      -1.764709     -1.265588     -1.530831
17
Coordinates from ORCA-job geo_opt E -438.496880193867
  C       2.021247      0.295675      0.112826
  C       0.758297     -0.553075      0.095387
  O       0.409337     -1.057233      1.404371
  C      -0.465238      0.126830     -0.549837
  N      -1.597991     -0.865440     -0.602494
  C      -1.053284      1.391323      0.169273
  O      -0.282163      2.358293      0.367858
  O      -2.295197      1.318142      0.446884
  H       2.848798     -0.298644      0.522732
  H       2.288059      0.603251     -0.908139
  H       1.880249      1.198491      0.718953
  H       0.953361     -1.464916     -0.491795
  H       0.377658     -0.296812      2.016589
  H      -0.220258      0.409645     -1.582240
  H      -2.413007     -0.274924     -0.269889
  H      -1.450177     -1.622333      0.080274
  H      -1.759692     -1.268275     -1.530753
17
Coordinates from ORCA-job geo_opt E -438.496911790805
  C       2.021048      0.295495      0.113484
  C       0.757472     -0.552328      0.097553
  O       0.410310     -1.053063      1.409044
  C      -0.466239      0.126550     -0.548859
  N      -1.598808     -0.867790     -0.602119
  C      -1.052520      1.393232      0.165472
  O      -0.275963      2.356817      0.364013
  O      -2.293376      1.324938      0.446028
  H       2.854574     -0.307330      0.498732
  H       2.273950      0.626423     -0.904092
  H       1.889693      1.185289      0.741435
  H       0.951211     -1.465471     -0.488260
  H       0.374007     -0.288732      2.016695
  H      -0.220408      0.404536     -1.582670
  H      -2.417726     -0.281501     -0.277728
  H      -1.453534     -1.623979      0.081965
  H      -1.753691     -1.273085     -1.530692
17
Coordinates from ORCA-job geo_opt E -438.496921207373
  C       2.021074      0.295000      0.112716
  C       0.756930     -0.552554      0.098642
  O       0.410548     -1.051151      1.410869
  C      -0.466609      0.126278     -0.548924
  N      -1.598744     -0.868456     -0.602249
  C      -1.052557      1.394354      0.165468
  O      -0.273296      2.356357      0.364165
  O      -2.293022      1.327766      0.446225
  H       2.856919     -0.309744      0.490265
  H       2.269214      0.634115     -0.903470
  H       1.892519      1.180343      0.747984
  H       0.950011     -1.466400     -0.486494
  H       0.372166     -0.285670      2.017194
  H      -0.219660      0.404014     -1.582548
  H      -2.420273     -0.285126     -0.282593
  H      -1.454535     -1.623492      0.083394
  H      -1.750683     -1.275634     -1.530643
17
Coordinates from ORCA-job geo_opt E -438.496925735080
  C       2.021168      0.294420      0.111557
  C       0.756487     -0.552853      0.099182
  O       0.410627     -1.050309      1.411379
  C      -0.466777      0.126379     -0.549017
  N      -1.598259     -0.868428     -0.602520
  C      -1.052791      1.395071      0.166933
  O      -0.271896      2.356266      0.365424
  O      -2.293102      1.329240      0.447201
  H       2.857788     -0.310107      0.487961
  H       2.268153      0.635672     -0.904192
  H       1.892935      1.178777      0.748563
  H       0.948941     -1.467016     -0.485837
  H       0.371113     -0.284784      2.017664
  H      -0.219086      0.405364     -1.582040
  H      -2.422354     -0.287915     -0.287093
  H      -1.454934     -1.621849      0.085193
  H      -1.748015     -1.277929     -1.530358
17
Coordinates from ORCA-job geo_opt E -438.496926950654
  C       2.021227      0.294315      0.111317
  C       0.756465     -0.552855      0.098834
  O       0.410563     -1.051040      1.410508
  C      -0.466773      0.126751     -0.549045
  N      -1.597930     -0.868098     -0.602529
  C      -1.052853      1.395273      0.167730
  O      -0.272086      2.356793      0.365424
  O      -2.293037      1.329148      0.448491
  H       2.857107     -0.309179      0.490991
  H       2.270064      0.632957     -0.904805
  H       1.891688      1.180225      0.745877
  H       0.948837     -1.466717     -0.486714
  H       0.371107     -0.286205      2.017668
  H      -0.219388      0.406542     -1.581873
  H      -2.422769     -0.288519     -0.287936
  H      -1.454688     -1.620816      0.086056
  H      -1.747535     -1.278575     -1.529994
