17
zwitterion conformer 2
C       1.98878646     0.30777876     0.09436999
C       0.75440691    -0.58342832     0.08042215
O       0.38939326    -1.04933965     1.36558764
C      -0.46026383     0.09699639    -0.58339787
N      -1.59132901    -0.85218026    -0.61056226
C      -1.01600036     1.36668610     0.20422867
O      -0.24097123     2.28606531     0.47135918
O      -2.23789349     1.28776491     0.45640965
H       2.78097492    -0.17221374     0.66255113
H       2.33522435     0.48189693    -0.91955108
H       1.75105094     1.26852618     0.54574973
H       0.98116488    -1.50039279    -0.47912863
H       0.36044446    -0.30542599     1.98037114
H      -0.18998325     0.44083287    -1.58182330
H      -2.37574592    -0.23674995    -0.22716591
H      -1.41437036    -1.60191535     0.07011669
H      -1.81488874    -1.23490139    -1.52953689
