27
Coordinates from ORCA-job geo_opt_tzvp E -686.682872231014
  N      -2.717903     -0.348026     -0.753093
  C      -2.458556      0.301609      0.579198
  C      -1.384721     -0.464124      1.385869
  C      -0.160710     -0.860028      0.609018
  C       0.089408     -2.129302      0.110881
  N       1.302009     -2.153033     -0.543588
  C       1.876321     -0.900739     -0.485184
  C       3.100699     -0.443206     -0.990749
  C       3.432221      0.891293     -0.762794
  C       2.565171      1.748426     -0.047146
  C       1.346992      1.291786      0.451706
  C       0.978230     -0.051874      0.235622
  C      -2.135981      1.801971      0.281426
  O      -1.869311      2.524282      1.273609
  O      -2.214841      2.148332     -0.941061
  H      -2.698070      0.473961     -1.414480
  H      -1.954220     -0.997070     -1.003874
  H      -3.612891     -0.845663     -0.804820
  H      -3.402496      0.283477      1.139257
  H      -1.122387      0.178807      2.238737
  H      -1.850095     -1.370335      1.801016
  H      -0.508292     -3.033415      0.195241
  H       1.711067     -2.970390     -0.984638
  H       3.768601     -1.109868     -1.539037
  H       4.378437      1.280361     -1.142947
  H       2.858000      2.787500      0.114709
  H       0.683317      1.965268      0.997121
27
Coordinates from ORCA-job geo_opt_tzvp E -686.682874313712
  N      -2.722833     -0.350098     -0.750485
  C      -2.458194      0.301953      0.578703
  C      -1.384153     -0.463881      1.384979
  C      -0.160234     -0.859704      0.608135
  C       0.089811     -2.128406      0.108666
  N       1.302410     -2.151640     -0.544966
  C       1.877041     -0.899976     -0.485402
  C       3.101615     -0.442274     -0.990355
  C       3.433457      0.891938     -0.760901
  C       2.566628      1.748514     -0.044317
  C       1.348186      1.291712      0.453829
  C       0.979066     -0.051638      0.236196
  C      -2.133567      1.800861      0.276979
  O      -1.864550      2.524777      1.266330
  O      -2.215619      2.144957     -0.944979
  H      -2.702179      0.469888     -1.414416
  H      -1.962149     -1.002405     -1.002153
  H      -3.619583     -0.844955     -0.798756
  H      -3.400896      0.287121      1.141287
  H      -1.121501      0.179522      2.237543
  H      -1.849419     -1.369981      1.800724
  H      -0.508251     -3.032398      0.191624
  H       1.711208     -2.968728     -0.987165
  H       3.769377     -1.108495     -1.539389
  H       4.379887      1.281217     -1.140433
  H       2.859811      2.787353      0.118735
  H       0.684629      1.964766      0.999987
27
Coordinates from ORCA-job geo_opt_tzvp E -686.682858703245
  N      -2.724005     -0.352154     -0.749007
  C      -2.458648      0.301458      0.578329
  C      -1.384395     -0.463029      1.385275
  C      -0.160558     -0.859050      0.608711
  C       0.089028     -2.127220      0.107750
  N       1.301105     -2.149988     -0.545913
  C       1.876279     -0.899098     -0.485537
  C       3.100642     -0.441291     -0.990940
  C       3.432965      0.892665     -0.760443
  C       2.566940      1.748778     -0.042313
  C       1.348623      1.291914      0.456194
  C       0.978944     -0.051161      0.237496
  C      -2.134783      1.800125      0.274977
  O      -1.859492      2.523616      1.261951
  O      -2.203919      2.139687     -0.948089
  H      -2.704213      0.466666     -1.414510
  H      -1.963928     -1.004923     -1.001597
  H      -3.620805     -0.847078     -0.796308
  H      -3.400969      0.287447      1.141883
  H      -1.121979      0.181808      2.236961
  H      -1.849315     -1.368722      1.802520
  H      -0.509548     -3.030976      0.189524
  H       1.708972     -2.966632     -0.990040
  H       3.767743     -1.107075     -1.541346
  H       4.379216      1.282173     -1.140300
  H       2.860588      2.787419      0.121433
  H       0.685512      1.964640      1.003337
27
Coordinates from ORCA-job geo_opt_tzvp E -686.682876625993
  N      -2.719639     -0.350862     -0.750758
  C      -2.458069      0.301389      0.578314
  C      -1.384097     -0.462786      1.385852
  C      -0.160264     -0.859256      0.609477
  C       0.088983     -2.127763      0.109086
  N       1.300945     -2.151050     -0.545065
  C       1.876324     -0.900076     -0.485357
  C       3.100600     -0.442654     -0.991321
  C       3.433076      0.891396     -0.761720
  C       2.567263      1.748019     -0.043937
  C       1.349061      1.291547      0.455186
  C       0.979222     -0.051623      0.237417
  C      -2.135706      1.801092      0.277570
  O      -1.870439      2.525249      1.267231
  O      -2.214130      2.144678     -0.944184
  H      -2.700042      0.468900     -1.415033
  H      -1.957803     -1.001767     -1.002773
  H      -3.615377     -0.847446     -0.800604
  H      -3.401365      0.285171      1.140042
  H      -1.121913      0.182167      2.237451
  H      -1.849225     -1.368283      1.803187
  H      -0.509693     -3.031399      0.191543
  H       1.708528     -2.967860     -0.988939
  H       3.767494     -1.108804     -1.541517
  H       4.379204      1.280609     -1.142128
  H       2.860987      2.786736      0.119034
  H       0.686075      1.964675      1.001947
27
Coordinates from ORCA-job geo_opt_tzvp E -686.682875755635
  N      -2.721481     -0.351006     -0.750300
  C      -2.457990      0.301577      0.578329
  C      -1.384022     -0.463195      1.385645
  C      -0.160224     -0.859556      0.609112
  C       0.089194     -2.128015      0.108531
  N       1.301517     -2.151153     -0.545232
  C       1.876627     -0.899925     -0.485350
  C       3.100989     -0.442212     -0.990838
  C       3.433091      0.891886     -0.761078
  C       2.566799      1.748345     -0.043689
  C       1.348558      1.291599      0.455011
  C       0.979097     -0.051641      0.237121
  C      -2.134091      1.800893      0.276611
  O      -1.865621      2.524768      1.265946
  O      -2.214320      2.144402     -0.945335
  H      -2.700713      0.468189     -1.415130
  H      -1.960923     -1.003432     -1.002240
  H      -3.618131     -0.846029     -0.799428
  H      -3.400818      0.286667      1.140769
  H      -1.121586      0.181490      2.237323
  H      -1.849206     -1.368704      1.802797
  H      -0.509295     -3.031779      0.191016
  H       1.709339     -2.967838     -0.989069
  H       3.768284     -1.108227     -1.540688
  H       4.379299      1.281279     -1.141041
  H       2.860283      2.787079      0.119478
  H       0.685346      1.964536      1.001730
27
Coordinates from ORCA-job geo_opt_tzvp E -686.682875927170
  N      -2.720539     -0.350761     -0.750652
  C      -2.457990      0.301445      0.578223
  C      -1.384030     -0.463049      1.385810
  C      -0.160225     -0.859599      0.609420
  C       0.089172     -2.128118      0.108964
  N       1.301368     -2.151281     -0.544965
  C       1.876489     -0.900083     -0.485315
  C       3.100737     -0.442391     -0.991099
  C       3.432865      0.891727     -0.761496
  C       2.566744      1.748212     -0.043931
  C       1.348621      1.291491      0.455084
  C       0.979102     -0.051757      0.237326
  C      -2.134680      1.801067      0.277224
  O      -1.867895      2.524842      1.267033
  O      -2.213506      2.144751     -0.944685
  H      -2.700231      0.468590     -1.415275
  H      -1.959518     -1.002572     -1.002810
  H      -3.616826     -0.846390     -0.800389
  H      -3.401037      0.285977      1.140290
  H      -1.121692      0.181962      2.237273
  H      -1.849211     -1.368406      1.803311
  H      -0.509313     -3.031869      0.191633
  H       1.708973     -2.967931     -0.989093
  H       3.767913     -1.108418     -1.541083
  H       4.378968      1.281134     -1.141716
  H       2.860259      2.786968      0.119066
  H       0.685483      1.964459      1.001854
