27
Coordinates from ORCA-job geo_opt_tzvp E -686.682875927170
  N          -2.72053871856241     -0.35076099623793     -0.75065201699453
  C          -2.45798957106098      0.30144483341319      0.57822260576864
  C          -1.38403009196129     -0.46304876520786      1.38580970160232
  C          -0.16022488092472     -0.85959921247758      0.60941969025085
  C           0.08917170535804     -2.12811798318085      0.10896350296990
  N           1.30136833988690     -2.15128052790507     -0.54496499276272
  C           1.87648866235137     -0.90008304671301     -0.48531504069153
  C           3.10073678585845     -0.44239093389410     -0.99109918446104
  C           3.43286450296475      0.89172693721376     -0.76149642070399
  C           2.56674422269536      1.74821223890215     -0.04393135782963
  C           1.34862132370713      1.29149077719949      0.45508352581095
  C           0.97910151690211     -0.05175732499094      0.23732553994728
  C          -2.13468031344518      1.80106679593406      0.27722409539236
  O          -1.86789461621616      2.52484215774381      1.26703301285289
  O          -2.21350589294537      2.14475105829352     -0.94468460369952
  H          -2.70023073562103      0.46859004079764     -1.41527519650179
  H          -1.95951849886971     -1.00257227576572     -1.00280990428715
  H          -3.61682555872752     -0.84638954445594     -0.80038933910129
  H          -3.40103731135239      0.28597671274797      1.14029000994580
  H          -1.12169172817514      0.18196241027476      2.23727340249551
  H          -1.84921120865161     -1.36840556954040      1.80331140976776
  H          -0.50931284801051     -3.03186910015325      0.19163307267422
  H           1.70897303218822     -2.96793123385089     -0.98909262777880
  H           3.76791273870850     -1.10841797295886     -1.54108274124162
  H           4.37896765605711      1.28113415018273     -1.14171557902796
  H           2.86025856270747      2.78696788755594      0.11906582855444
  H           0.68548289513861      1.96445850707338      1.00185365704864
