27
zwitterion conformer 1
N      -2.71790303    -0.34802649    -0.75309327
C      -2.45855611     0.30160934     0.57919848
C      -1.38472112    -0.46412426     1.38586912
C      -0.16070959    -0.86002807     0.60901835
C       0.08940773    -2.12930250     0.11088050
N       1.30200869    -2.15303252    -0.54358799
C       1.87632131    -0.90073909    -0.48518420
C       3.10069904    -0.44320632    -0.99074912
C       3.43222118     0.89129262    -0.76279383
C       2.56517114     1.74842594    -0.04714582
C       1.34699198     1.29178608     0.45170593
C       0.97822964    -0.05187401     0.23562185
C      -2.13598092     1.80197087     0.28142642
O      -1.86931116     2.52428171     1.27360891
O      -2.21484055     2.14833245    -0.94106057
H      -2.69807035     0.47396062    -1.41447996
H      -1.95421978    -0.99706954    -1.00387354
H      -3.61289075    -0.84566296    -0.80481962
H      -3.40249613     0.28347713     1.13925708
H      -1.12238652     0.17880728     2.23873659
H      -1.85009524    -1.37033467     1.80101626
H      -0.50829173    -3.03341456     0.19524053
H       1.71106673    -2.97038985    -0.98463830
H       3.76860113    -1.10986846    -1.53903672
H       4.37843694     1.28036116    -1.14294723
H       2.85800039     2.78750014     0.11470894
H       0.68331705     1.96526798     0.99712126
