24
Coordinates from ORCA-job geo_opt E -700.797227828105
  N          -3.22809029708072      1.21323034826352     -0.89289503500583
  C          -2.46637447573567      0.92605186303380      0.35953906182675
  C          -1.47720778066171     -0.19967326511405      0.03980463435143
  O          -1.24896478363234     -0.50352047124083     -1.14802366688930
  N          -0.88882062224348     -0.78099169688142      1.09444338176408
  C           0.10234439399433     -1.84955373224500      0.96442817001116
  C           1.53223175919240     -1.32128304267372      0.73288839996296
  O           2.40764770967818     -1.41998244528940      1.61178771784707
  N           1.73850520315849     -0.77519057020987     -0.48494128097050
  C           2.96867005469909     -0.09768778349301     -0.85911194799545
  C           3.02601533790250      1.43301319728385     -0.56009801057621
  O           2.02466269888751      1.98709476582285     -0.02374707016701
  O           4.11423382364169      1.98578116494691     -0.90154667888076
  H          -2.66858059737729      0.82046290209130     -1.67904515378869
  H          -4.14794650424999      0.75492560727455     -0.90197018432087
  H          -3.37073260928731      2.21901059896680     -1.04320600795830
  H          -3.16099018751689      0.66012095685521      1.16245602716131
  H          -1.91208497445443      1.82840481001659      0.64448985133095
  H          -1.10801459221077     -0.44581750514427      2.03006717793561
  H           0.10046191537204     -2.42706887395645      1.89402887151759
  H          -0.19681270988188     -2.50266268651264      0.13289420243767
  H           0.92582722846763     -0.68617484596216     -1.09710286495149
  H           3.80332651195162     -0.57822702872282     -0.33170311454914
  H           3.13069348738698     -0.24026225710973     -1.93663285009304
