24
Coordinates from ORCA-job geo_opt E -700.786001388974
  N      -2.710067      1.393587     -0.956556
  C      -2.057495      1.018809      0.311380
  C      -1.296746     -0.280731      0.053039
  O      -1.224343     -0.705357     -1.098757
  N      -0.817293     -0.905870      1.127605
  C       0.113924     -2.014582      1.005962
  C       1.508296     -1.434687      0.740080
  O       2.348510     -1.333986      1.628995
  N       1.694143     -1.038081     -0.528282
  C       2.665765     -0.020519     -0.840425
  C       2.078623      1.406058     -0.537780
  O       0.935183      1.441475     -0.046289
  O       2.803188      2.373453     -0.820347
  H      -2.309273      0.716580     -1.649225
  H      -3.727554      1.278308     -0.926347
  H      -2.474742      2.345409     -1.248739
  H      -2.770891      0.900771      1.123777
  H      -1.292818      1.747305      0.590494
  H      -0.774403     -0.391958      1.996039
  H       0.123085     -2.578724      1.937050
  H      -0.199859     -2.645159      0.172730
  H       0.879252     -1.046751     -1.132598
  H       3.545183     -0.151453     -0.206958
  H       2.960331     -0.073897     -1.888042
24
Coordinates from ORCA-job geo_opt E -700.793910976918
  N      -2.932227      1.324769     -0.931237
  C      -2.276716      0.959870      0.348376
  C      -1.415619     -0.277531      0.062976
  O      -1.275071     -0.659387     -1.111683
  N      -0.899049     -0.900674      1.132400
  C       0.096216     -1.964185      0.988739
  C       1.504512     -1.376324      0.749093
  O       2.354038     -1.337501      1.650423
  N       1.718665     -0.950183     -0.518905
  C       2.817080     -0.053111     -0.857461
  C       2.540936      1.476957     -0.577303
  O       1.449337      1.781655     -0.028247
  O       3.462632      2.260999     -0.923161
  H      -2.474288      0.698971     -1.641012
  H      -3.941332      1.137668     -0.926781
  H      -2.769396      2.303264     -1.192927
  H      -3.011204      0.768061      1.135349
  H      -1.589422      1.752472      0.664882
  H      -0.916758     -0.414414      2.027234
  H       0.108035     -2.559203      1.906257
  H      -0.200444     -2.592623      0.140651
  H       0.888107     -0.880511     -1.113247
  H       3.692780     -0.331772     -0.259371
  H       3.069189     -0.167269     -1.918241
24
Coordinates from ORCA-job geo_opt E -700.795521410935
  N      -3.046994      1.312665     -0.906261
  C      -2.407000      0.918864      0.380371
  C      -1.468091     -0.257053      0.064000
  O      -1.252828     -0.563589     -1.126720
  N      -0.923182     -0.883766      1.121431
  C       0.104499     -1.922238      0.971167
  C       1.517603     -1.336583      0.759824
  O       2.350863     -1.301912      1.682011
  N       1.759865     -0.907633     -0.505370
  C       2.910938     -0.082168     -0.848609
  C       2.757338      1.462181     -0.608437
  O       1.680012      1.888437     -0.099993
  O       3.729845      2.150394     -1.036718
  H      -2.538127      0.760773     -1.640086
  H      -4.043506      1.066537     -0.941614
  H      -2.948600      2.314364     -1.108901
  H      -3.164687      0.647945      1.122155
  H      -1.803548      1.751955      0.761899
  H      -1.011749     -0.447030      2.039284
  H       0.110395     -2.529803      1.882052
  H      -0.176170     -2.552874      0.117158
  H       0.940459     -0.832234     -1.114231
  H       3.768018     -0.418165     -0.249218
  H       3.154647     -0.239070     -1.908388
24
Coordinates from ORCA-job geo_opt E -700.792858339920
  N      -3.213426      1.266395     -0.883530
  C      -2.563792      0.866408      0.406764
  C      -1.523760     -0.215237      0.062272
  O      -1.252484     -0.451015     -1.138306
  N      -0.933188     -0.824537      1.107948
  C       0.124038     -1.837066      0.952895
  C       1.539349     -1.263069      0.752774
  O       2.368108     -1.239430      1.685067
  N       1.795171     -0.830297     -0.509929
  C       3.006696     -0.115971     -0.878271
  C       3.015701      1.426563     -0.692309
  O       2.052253      1.983919     -0.078160
  O       4.152626      1.936065     -0.962784
  H      -2.656611      0.809928     -1.642271
  H      -4.184696      0.936404     -0.948847
  H      -3.218512      2.283294     -1.030470
  H      -3.327471      0.500096      1.101066
  H      -2.085074      1.752669      0.843854
  H      -1.102058     -0.448872      2.041990
  H       0.130772     -2.446541      1.863952
  H      -0.149495     -2.481916      0.105180
  H       0.980130     -0.746808     -1.121066
  H       3.839030     -0.533925     -0.291179
  H       3.206695     -0.327055     -1.939836
24
Coordinates from ORCA-job geo_opt E -700.796609693872
  N      -3.167091      1.273959     -0.887220
  C      -2.509587      0.883748      0.397061
  C      -1.493941     -0.217169      0.059857
  O      -1.265373     -0.498293     -1.134696
  N      -0.920783     -0.831563      1.107134
  C       0.110844     -1.862047      0.953391
  C       1.525379     -1.286382      0.753250
  O       2.357967     -1.279328      1.677572
  N       1.778283     -0.843380     -0.502641
  C       2.984263     -0.111410     -0.856295
  C       2.955909      1.432959     -0.637991
  O       1.936353      1.963225     -0.107418
  O       4.018229      2.018642     -1.011378
  H      -2.622919      0.797125     -1.642230
  H      -4.142871      0.957033     -0.937914
  H      -3.152386      2.287840     -1.048393
  H      -3.264173      0.541439      1.112245
  H      -1.992298      1.757323      0.810904
  H      -1.069380     -0.443977      2.037449
  H       0.113316     -2.471465      1.863239
  H      -0.167809     -2.496351      0.101194
  H       0.967383     -0.754216     -1.117570
  H       3.817352     -0.517130     -0.266322
  H       3.203332     -0.300582     -1.916424
24
Coordinates from ORCA-job geo_opt E -700.796835867856
  N      -3.154458      1.270549     -0.894488
  C      -2.487244      0.890458      0.387141
  C      -1.493160     -0.230147      0.057549
  O      -1.279677     -0.533502     -1.133010
  N      -0.907960     -0.825215      1.107748
  C       0.109677     -1.867575      0.959047
  C       1.526500     -1.301984      0.745404
  O       2.367958     -1.303651      1.661008
  N       1.763565     -0.835161     -0.503283
  C       2.968498     -0.102181     -0.857992
  C       2.940274      1.437619     -0.610808
  O       1.915603      1.953893     -0.080667
  O       3.992793      2.037174     -0.985566
  H      -2.626028      0.777535     -1.649568
  H      -4.134047      0.963694     -0.929571
  H      -3.129785      2.282044     -1.068674
  H      -3.238581      0.569260      1.115326
  H      -1.951916      1.761374      0.782838
  H      -1.053221     -0.431151      2.035538
  H       0.114488     -2.466804      1.875431
  H      -0.178305     -2.507764      0.114525
  H       0.950711     -0.746840     -1.115348
  H       3.806215     -0.518610     -0.282882
  H       3.178100     -0.273015     -1.922894
24
Coordinates from ORCA-job geo_opt E -700.797036618424
  N      -3.174415      1.254407     -0.896600
  C      -2.484560      0.894758      0.378993
  C      -1.492464     -0.226485      0.053074
  O      -1.292475     -0.549291     -1.133699
  N      -0.891257     -0.800757      1.104162
  C       0.108697     -1.857535      0.960370
  C       1.528913     -1.304426      0.737392
  O       2.386138     -1.345511      1.637311
  N       1.752897     -0.809009     -0.500033
  C       2.969884     -0.099381     -0.858663
  C       2.970422      1.435699     -0.586430
  O       1.946606      1.960744     -0.066858
  O       4.033502      2.025562     -0.943946
  H      -2.655354      0.761890     -1.656961
  H      -4.150583      0.935148     -0.913279
  H      -3.165526      2.264750     -1.078644
  H      -3.225577      0.579244      1.120347
  H      -1.949926      1.773681      0.756841
  H      -1.052901     -0.418879      2.033774
  H       0.113788     -2.448787      1.881733
  H      -0.188206     -2.500797      0.121260
  H       0.942998     -0.723918     -1.115750
  H       3.804339     -0.542708     -0.299548
  H       3.165061     -0.258400     -1.928043
24
Coordinates from ORCA-job geo_opt E -700.797129706788
  N      -3.193213      1.240688     -0.899030
  C      -2.484698      0.900098      0.372387
  C      -1.491871     -0.221280      0.049394
  O      -1.298442     -0.556047     -1.135533
  N      -0.877354     -0.779642      1.101242
  C       0.108918     -1.850007      0.962976
  C       1.535081     -1.315449      0.729027
  O       2.402151     -1.378767      1.619120
  N       1.746712     -0.792309     -0.497990
  C       2.969818     -0.095860     -0.861730
  C       2.994738      1.435892     -0.568623
  O       1.976686      1.970913     -0.046794
  O       4.072236      2.012632     -0.905340
  H      -2.678708      0.750510     -1.663172
  H      -4.165076      0.907824     -0.902118
  H      -3.201121      2.249839     -1.087889
  H      -3.216446      0.589781      1.125406
  H      -1.951917      1.787012      0.733755
  H      -1.054740     -0.409385      2.032530
  H       0.112907     -2.432753      1.889669
  H      -0.197389     -2.497809      0.130523
  H       0.937926     -0.712359     -1.115478
  H       3.804203     -0.560312     -0.319823
  H       3.149597     -0.243211     -1.935705
24
Coordinates from ORCA-job geo_opt E -700.797159525923
  N      -3.203557      1.237444     -0.898288
  C      -2.495267      0.897983      0.373891
  C      -1.495408     -0.217550      0.049815
  O      -1.292537     -0.543436     -1.136415
  N      -0.877869     -0.773876      1.101363
  C       0.109660     -1.844240      0.964895
  C       1.536828     -1.310854      0.731024
  O       2.407924     -1.387609      1.616505
  N       1.747438     -0.783780     -0.494370
  C       2.974448     -0.097114     -0.863832
  C       3.012867      1.435320     -0.572814
  O       1.998616      1.981562     -0.053590
  O       4.100154      1.998867     -0.900509
  H      -2.680210      0.759090     -1.663831
  H      -4.170942      0.891939     -0.907649
  H      -3.223695      2.247599     -1.081142
  H      -3.225949      0.582647      1.125822
  H      -1.967017      1.786945      0.736970
  H      -1.070405     -0.417262      2.034925
  H       0.112879     -2.426061      1.892037
  H      -0.194913     -2.492752      0.132158
  H       0.941215     -0.710901     -1.115770
  H       3.807999     -0.567508     -0.325733
  H       3.147739     -0.246452     -1.938659
24
Coordinates from ORCA-job geo_opt E -700.797172853988
  N      -3.211946      1.230561     -0.899255
  C      -2.498236      0.900097      0.372034
  C      -1.494010     -0.212359      0.048603
  O      -1.291207     -0.538807     -1.137775
  N      -0.877045     -0.768959      1.100469
  C       0.109590     -1.841054      0.965824
  C       1.538336     -1.312176      0.730836
  O       2.411914     -1.396660      1.613227
  N       1.746028     -0.778005     -0.492121
  C       2.974567     -0.096681     -0.866164
  C       3.026037      1.433907     -0.566483
  O       2.019862      1.985149     -0.035909
  O       4.116428      1.989434     -0.897204
  H      -2.684048      0.756447     -1.664556
  H      -4.175642      0.874849     -0.907259
  H      -3.242399      2.240170     -1.083887
  H      -3.223997      0.586333      1.129268
  H      -1.970536      1.792611      0.727267
  H      -1.074912     -0.416589      2.034560
  H       0.110916     -2.421558      1.893715
  H      -0.195389     -2.490204      0.133605
  H       0.937916     -0.701459     -1.110789
  H       3.809799     -0.575225     -0.337827
  H       3.137974     -0.239820     -1.943374
24
Coordinates from ORCA-job geo_opt E -700.797183846992
  N      -3.214277      1.226495     -0.900424
  C      -2.498075      0.901961      0.370423
  C      -1.493543     -0.211125      0.048308
  O      -1.286269     -0.533651     -1.138532
  N      -0.879093     -0.769569      1.100428
  C       0.109192     -1.840696      0.967565
  C       1.538210     -1.312619      0.731979
  O       2.413855     -1.401826      1.611686
  N       1.743296     -0.774152     -0.489622
  C       2.971823     -0.095488     -0.868049
  C       3.032094      1.433943     -0.562176
  O       2.032254      1.987722     -0.022004
  O       4.122393      1.984975     -0.899674
  H      -2.681016      0.756010     -1.664645
  H      -4.174853      0.862496     -0.909313
  H      -3.252281      2.235750     -1.085730
  H      -3.220519      0.593233      1.132698
  H      -1.966494      1.795381      0.717876
  H      -1.081528     -0.420692      2.034874
  H       0.109439     -2.419940      1.896178
  H      -0.194249     -2.491011      0.135576
  H       0.933225     -0.695069     -1.105711
  H       3.809528     -0.578632     -0.347805
  H       3.126888     -0.233494     -1.947101
24
Coordinates from ORCA-job geo_opt E -700.797192057203
  N      -3.216691      1.221568     -0.901226
  C      -2.495934      0.904855      0.368582
  C      -1.491747     -0.209071      0.047992
  O      -1.279124     -0.526724     -1.139323
  N      -0.881674     -0.770885      1.100306
  C       0.108202     -1.840610      0.968910
  C       1.537162     -1.312673      0.732404
  O       2.415193     -1.407164      1.608993
  N       1.739765     -0.769909     -0.487600
  C       2.968815     -0.094511     -0.869215
  C       3.037774      1.433565     -0.557266
  O       2.043390      1.989709     -0.009824
  O       4.127611      1.980992     -0.901334
  H      -2.677289      0.756998     -1.665009
  H      -4.172731      0.845820     -0.910353
  H      -3.266261      2.230347     -1.086341
  H      -3.214223      0.602776      1.137265
  H      -1.960127      1.799777      0.705923
  H      -1.089072     -0.425938      2.035122
  H       0.108000     -2.418390      1.898401
  H      -0.193776     -2.492544      0.137552
  H       0.927875     -0.687665     -1.101169
  H       3.808069     -0.582667     -0.356151
  H       3.116794     -0.227654     -1.949835
24
Coordinates from ORCA-job geo_opt E -700.797198352774
  N      -3.217209      1.218863     -0.901450
  C      -2.492585      0.907495      0.367398
  C      -1.489427     -0.207447      0.047923
  O      -1.271689     -0.520326     -1.139838
  N      -0.884144     -0.773284      1.100449
  C       0.107287     -1.841472      0.969813
  C       1.535862     -1.312853      0.732268
  O       2.415327     -1.409700      1.607144
  N       1.736941     -0.767801     -0.486834
  C       2.966417     -0.094107     -0.869445
  C       3.039066      1.433354     -0.555268
  O       2.046707      1.990552     -0.005712
  O       4.128598      1.979639     -0.902182
  H      -2.672129      0.762096     -1.665882
  H      -4.168599      0.831480     -0.911703
  H      -3.278803      2.227463     -1.083909
  H      -3.208143      0.611084      1.140745
  H      -1.953821      1.803629      0.697026
  H      -1.095480     -0.431493      2.035541
  H       0.107735     -2.417912      1.900121
  H      -0.193693     -2.495271      0.139491
  H       0.924007     -0.683976     -1.099015
  H       3.806016     -0.584621     -0.359213
  H       3.111760     -0.225391     -1.950665
24
Coordinates from ORCA-job geo_opt E -700.797207092291
  N      -3.216704      1.216832     -0.901114
  C      -2.486016      0.911627      0.365905
  C      -1.485402     -0.205361      0.047621
  O      -1.261745     -0.512831     -1.140578
  N      -0.887036     -0.777227      1.100562
  C       0.106075     -1.843686      0.970455
  C       1.533980     -1.313787      0.731514
  O       2.414541     -1.411852      1.605268
  N       1.733757     -0.767062     -0.486864
  C       2.963681     -0.094033     -0.868828
  C       3.036350      1.433264     -0.554699
  O       2.043374      1.990422     -0.006835
  O       4.125850      1.980287     -0.901181
  H      -2.664667      0.773212     -1.667925
  H      -4.161003      0.812372     -0.912901
  H      -3.296707      2.225195     -1.077628
  H      -3.198267      0.623023      1.145195
  H      -1.943811      1.809413      0.685596
  H      -1.102472     -0.438665      2.035878
  H       0.108235     -2.418339      1.901845
  H      -0.194190     -2.500135      0.141910
  H       0.919874     -0.682068     -1.097869
  H       3.802741     -0.585287     -0.358492
  H       3.109562     -0.225315     -1.950032
24
Coordinates from ORCA-job geo_opt E -700.797212348438
  N      -3.219805      1.210708     -0.899375
  C      -2.473056      0.921592      0.362284
  C      -1.476612     -0.198536      0.045865
  O      -1.241004     -0.495200     -1.143024
  N      -0.892087     -0.782759      1.099694
  C       0.103430     -1.847104      0.970795
  C       1.530938     -1.316486      0.730089
  O       2.413386     -1.419721      1.601654
  N       1.728679     -0.765101     -0.486238
  C       2.960212     -0.094515     -0.867188
  C       3.033949      1.432456     -0.553606
  O       2.040102      1.990920     -0.009111
  O       4.125122      1.979016     -0.896740
  H      -2.654530      0.798274     -1.672912
  H      -4.146392      0.766807     -0.912827
  H      -3.343397      2.216911     -1.062456
  H      -3.176041      0.648869      1.155524
  H      -1.925312      1.824195      0.658801
  H      -1.117478     -0.452336      2.035560
  H       0.107978     -2.418585      1.904054
  H      -0.195915     -2.508025      0.145359
  H       0.912986     -0.677053     -1.094802
  H       3.797586     -0.587944     -0.356322
  H       3.107261     -0.226381     -1.948273
24
Coordinates from ORCA-job geo_opt E -700.797218274367
  N      -3.219648      1.213658     -0.899011
  C      -2.474848      0.919503      0.362682
  C      -1.478882     -0.201016      0.045317
  O      -1.248852     -0.503252     -1.143096
  N      -0.889606     -0.781030      1.099223
  C       0.104323     -1.846900      0.969682
  C       1.532213     -1.316876      0.730199
  O       2.412992     -1.417555      1.603710
  N       1.731676     -0.767814     -0.487020
  C       2.962594     -0.094843     -0.866365
  C       3.031543      1.432785     -0.555133
  O       2.035211      1.989425     -0.012902
  O       4.122268      1.981519     -0.896001
  H      -2.660276      0.794459     -1.673037
  H      -4.151099      0.779966     -0.910293
  H      -3.332872      2.220767     -1.063908
  H      -3.179756      0.642914      1.152941
  H      -1.928445      1.820913      0.664933
  H      -1.110118     -0.446411      2.034755
  H       0.108173     -2.419631      1.902208
  H      -0.196052     -2.506005      0.143249
  H       0.916806     -0.680528     -1.096643
  H       3.799544     -0.585341     -0.351981
  H       3.113110     -0.228706     -1.946704
24
Coordinates from ORCA-job geo_opt E -700.797222674750
  N      -3.221258      1.214640     -0.897752
  C      -2.472682      0.920661      0.361694
  C      -1.479006     -0.201676      0.043649
  O      -1.252263     -0.507586     -1.144281
  N      -0.887981     -0.780076      1.097980
  C       0.104342     -1.847632      0.968279
  C       1.532939     -1.318786      0.730306
  O       2.412194     -1.418899      1.605391
  N       1.734045     -0.770682     -0.487213
  C       2.964479     -0.095349     -0.864679
  C       3.028349      1.433044     -0.556280
  O       2.029233      1.987945     -0.016815
  O       4.118835      1.983884     -0.894208
  H      -2.664569      0.798940     -1.675094
  H      -4.151833      0.778915     -0.906954
  H      -3.337795      2.221817     -1.060091
  H      -3.175816      0.645381      1.154042
  H      -1.925085      1.822062      0.661734
  H      -1.105708     -0.442942      2.033264
  H       0.107146     -2.421197      1.900307
  H      -0.196903     -2.505257      0.141048
  H       0.919557     -0.682906     -1.097194
  H       3.800708     -0.582751     -0.346192
  H       3.119070     -0.231550     -1.944136
24
Coordinates from ORCA-job geo_opt E -700.797225719039
  N      -3.224216      1.214264     -0.895820
  C      -2.469260      0.923301      0.360276
  C      -1.478175     -0.201068      0.041555
  O      -1.252261     -0.508053     -1.146085
  N      -0.887513     -0.779841      1.096299
  C       0.103710     -1.848597      0.966694
  C       1.533139     -1.320866      0.730930
  O       2.410861     -1.421318      1.607440
  N       1.736185     -0.773244     -0.486645
  C       2.966284     -0.096130     -0.862438
  C       3.026157      1.433140     -0.557440
  O       2.024967      1.987075     -0.020342
  O       4.116177      1.985328     -0.894231
  H      -2.667480      0.808100     -1.677579
  H      -4.150485      0.769255     -0.903917
  H      -3.351804      2.220954     -1.053073
  H      -3.168513      0.652008      1.157423
  H      -1.918918      1.825224      0.653743
  H      -1.104471     -0.442060      2.031517
  H       0.104784     -2.423200      1.898093
  H      -0.197580     -2.504612      0.138232
  H       0.922030     -0.684332     -1.096884
  H       3.801799     -0.580478     -0.339922
  H       3.124583     -0.234850     -1.941024
24
Coordinates from ORCA-job geo_opt E -700.797227224763
  N      -3.226977      1.213349     -0.893981
  C      -2.466476      0.925724      0.359241
  C      -1.477228     -0.200052      0.039985
  O      -1.250355     -0.505948     -1.147627
  N      -0.887981     -0.780242      1.094896
  C       0.102861     -1.849361      0.965361
  C       1.532836     -1.322047      0.731818
  O       2.409321     -1.422616      1.609469
  N       1.737631     -0.774793     -0.485731
  C       2.967633     -0.096939     -0.860396
  C       3.025413      1.433096     -0.558510
  O       2.023396      1.986862     -0.022676
  O       4.114722      1.985817     -0.896414
  H      -2.668756      0.816838     -1.679232
  H      -4.148497      0.758423     -0.902065
  H      -3.365918      2.219318     -1.046362
  H      -3.162031      0.658572      1.160978
  H      -1.913340      1.828156      0.646010
  H      -1.105721     -0.443326      2.030239
  H       0.102192     -2.425149      1.896029
  H      -0.197683     -2.503926      0.135487
  H       0.923941     -0.685008     -1.096462
  H       3.802621     -0.579002     -0.334914
  H       3.128395     -0.237744     -1.938339
24
Coordinates from ORCA-job geo_opt E -700.797227659263
  N      -3.227794      1.213210     -0.893224
  C      -2.466083      0.926169      0.359266
  C      -1.477083     -0.199748      0.039707
  O      -1.249261     -0.504354     -1.148015
  N      -0.888527     -0.780740      1.094508
  C       0.102494     -1.849574      0.964804
  C       1.532495     -1.321841      0.732496
  O       2.408329     -1.421564      1.610859
  N       1.738222     -0.775212     -0.485199
  C       2.968252     -0.097403     -0.859527
  C       3.025568      1.433064     -0.559473
  O       2.023733      1.987001     -0.023660
  O       4.114254      1.985846     -0.899275
  H      -2.668580      0.820015     -1.679359
  H      -4.147793      0.755180     -0.902000
  H      -3.370164      2.218983     -1.043815
  H      -3.160719      0.660142      1.162147
  H      -1.911979      1.828591      0.644309
  H      -1.107116     -0.444802      2.030003
  H       0.100998     -2.426298      1.894895
  H      -0.197234     -2.503294      0.133962
  H       0.925053     -0.685642     -1.096640
  H       3.803059     -0.578396     -0.332771
  H       3.129877     -0.239332     -1.937193
24
Coordinates from ORCA-job geo_opt E -700.797227828105
  N      -3.228090      1.213230     -0.892895
  C      -2.466374      0.926052      0.359539
  C      -1.477208     -0.199673      0.039805
  O      -1.248965     -0.503520     -1.148024
  N      -0.888821     -0.780992      1.094443
  C       0.102344     -1.849554      0.964428
  C       1.532232     -1.321283      0.732888
  O       2.407648     -1.419982      1.611788
  N       1.738505     -0.775191     -0.484941
  C       2.968670     -0.097688     -0.859112
  C       3.026015      1.433013     -0.560098
  O       2.024663      1.987095     -0.023747
  O       4.114234      1.985781     -0.901547
  H      -2.668581      0.820463     -1.679045
  H      -4.147947      0.754926     -0.901970
  H      -3.370733      2.219011     -1.043206
  H      -3.160990      0.660121      1.162456
  H      -1.912085      1.828405      0.644490
  H      -1.108015     -0.445818      2.030067
  H       0.100462     -2.427069      1.894029
  H      -0.196813     -2.502663      0.132894
  H       0.925827     -0.686175     -1.097103
  H       3.803327     -0.578227     -0.331703
  H       3.130693     -0.240262     -1.936633
