24
zwitterion conformer 2
N      -2.71006746     1.39358714    -0.95655632
C      -2.05749462     1.01880865     0.31137951
C      -1.29674559    -0.28073149     0.05303901
O      -1.22434257    -0.70535660    -1.09875714
N      -0.81729306    -0.90586971     1.12760452
C       0.11392433    -2.01458247     1.00596214
C       1.50829624    -1.43468692     0.74008044
O       2.34851018    -1.33398635     1.62899503
N       1.69414299    -1.03808141    -0.52828153
C       2.66576516    -0.02051891    -0.84042490
C       2.07862252     1.40605811    -0.53777972
O       0.93518268     1.44147545    -0.04628911
O       2.80318787     2.37345320    -0.82034746
H      -2.30927320     0.71657980    -1.64922535
H      -3.72755365     1.27830772    -0.92634703
H      -2.47474222     2.34540880    -1.24873902
H      -2.77089097     0.90077057     1.12377657
H      -1.29281847     1.74730542     0.59049422
H      -0.77440261    -0.39195768     1.99603913
H       0.12308491    -2.57872387     1.93704952
H      -0.19985924    -2.64515875     0.17272986
H       0.87925198    -1.04675070    -1.13259809
H       3.54518333    -0.15145341    -0.20695828
H       2.96033146    -0.07389658    -1.88804237
