24
zwitterion CPCM-opt conformer 2
N       3.19714821     0.83714517     1.46585173
C       2.42363822    -0.41813406     1.23599171
C       1.48444429    -0.16031375     0.05293303
O       1.30544934     1.00362987    -0.35294959
N       0.88517945    -1.24195458    -0.46376883
C      -0.05338399    -1.17765193    -1.58242447
C      -1.50000707    -0.87485325    -1.14313849
O      -2.38857382    -1.74215411    -1.20790928
N      -1.70115188     0.38878729    -0.71208145
C      -2.95329269     0.86272375    -0.15042619
C      -3.05692712     0.83978669     1.40575315
O      -2.09598808     0.36377247     2.07295045
O      -4.13820162     1.31897970     1.85897725
H       2.67466373     1.60068244     0.98613860
H       4.13796301     0.79434191     1.05455541
H       3.29400479     1.06315616     2.46290560
H       3.11198401    -1.24872378     1.05039573
H       1.83169358    -0.63346418     2.13386159
H       1.06607522    -2.15213452    -0.04574155
H       0.29405092    -0.40671676    -2.28448331
H      -0.04831414    -2.14994190    -2.08500908
H      -0.88106819     0.99399479    -0.64959872
H      -3.12355071     1.89513998    -0.48764291
H      -3.76583545     0.24390259    -0.55429847
