17
Coordinates from ORCA-job geo_opt E -438.497383701966
  C          -1.21299281133491     -0.18170890937384      1.14736285267295
  C          -0.55668042513356     -0.83358213144775     -0.06679597254847
  O          -1.42410586044366     -0.79058006807625     -1.22371842900313
  C           0.75368115634253     -0.17583226936113     -0.52121147629878
  N           0.50140668803584      1.22719495122843     -1.00852859691686
  C           1.80485965018869     -0.08173740686716      0.62844130614482
  O           2.25417796179399     -1.17242388286765      1.05914334951092
  O           2.08572121232753      1.09500132909737      1.01564466239773
  H          -0.55915150789971     -0.25091431288636      2.02793665705573
  H          -2.14976122308231     -0.70766786813450      1.38303025878591
  H          -1.45324380172691      0.87641037035463      0.96749701127242
  H          -0.30289356766558     -1.87982617416300      0.17208394358469
  H          -2.31899810806111     -1.04310937235277     -0.92829663796007
  H           1.16860462407066     -0.75125329872446     -1.35715838803961
  H           0.96070692479947      1.41246039932043     -1.90730035100933
  H           0.94988581073443      1.82577151822231     -0.27095259855592
  H          -0.50121675294536      1.43179713603168     -1.11717759109300
