17
Coordinates from ORCA-job geo_opt E -438.492640349089
  C      -1.150294     -0.171976      1.158131
  C      -0.584754     -0.815616     -0.108905
  O      -1.470945     -0.669787     -1.204685
  C       0.734448     -0.171599     -0.554746
  N       0.503329      1.209128     -1.018497
  C       1.740761     -0.069286      0.666383
  O       2.174247     -1.122337      1.138145
  O       1.971073      1.105966      1.015924
  H      -0.411335     -0.229082      1.953394
  H      -2.041485     -0.702420      1.482958
  H      -1.407135      0.870679      0.993175
  H      -0.375721     -1.875195      0.091327
  H      -2.296152     -1.137076     -1.026034
  H       1.184756     -0.791094     -1.329881
  H       0.976482      1.414157     -1.900260
  H       0.953821      1.766551     -0.235632
  H      -0.501095      1.388988     -1.120797
17
Coordinates from ORCA-job geo_opt E -438.496064345931
  C      -1.189724     -0.175216      1.168444
  C      -0.582475     -0.814831     -0.087921
  O      -1.460440     -0.689284     -1.212293
  C       0.743995     -0.175058     -0.540969
  N       0.509381      1.216677     -1.018818
  C       1.784574     -0.070799      0.645978
  O       2.236645     -1.141591      1.099128
  O       2.026632      1.116352      1.012048
  H      -0.484303     -0.241422      2.006952
  H      -2.106646     -0.708246      1.452366
  H      -1.441872      0.880646      0.999504
  H      -0.365202     -1.875009      0.120676
  H      -2.297931     -1.149783     -1.021788
  H       1.175848     -0.782639     -1.343730
  H       0.969519      1.412407     -1.914491
  H       0.978800      1.784018     -0.251900
  H      -0.496801      1.413778     -1.113187
17
Coordinates from ORCA-job geo_opt E -438.496581614343
  C      -1.213535     -0.178115      1.167613
  C      -0.579583     -0.817803     -0.071693
  O      -1.448300     -0.713606     -1.218652
  C       0.745024     -0.177823     -0.521816
  N       0.508533      1.223601     -1.009158
  C       1.792339     -0.072664      0.642235
  O       2.266976     -1.152256      1.070213
  O       2.100512      1.119237      0.970740
  H      -0.540743     -0.255318      2.035419
  H      -2.147845     -0.705000      1.414548
  H      -1.453725      0.883444      0.996815
  H      -0.353104     -1.875320      0.144828
  H      -2.293726     -1.154041     -1.006552
  H       1.167335     -0.769805     -1.342880
  H       0.967460      1.412702     -1.907532
  H       0.976452      1.799754     -0.253490
  H      -0.494069      1.433014     -1.110637
17
Coordinates from ORCA-job geo_opt E -438.493973470787
  C      -1.213736     -0.183866      1.169391
  C      -0.554285     -0.820696     -0.046643
  O      -1.426614     -0.755623     -1.222621
  C       0.757260     -0.184167     -0.513108
  N       0.511350      1.237997     -1.018395
  C       1.833042     -0.079691      0.581300
  O       2.224676     -1.182890      1.070460
  O       2.061021      1.107134      1.034607
  H      -0.592515     -0.282320      2.078613
  H      -2.172524     -0.699534      1.358655
  H      -1.436423      0.887165      1.003412
  H      -0.307955     -1.873681      0.176499
  H      -2.283642     -1.141706     -0.946679
  H       1.139261     -0.745234     -1.376901
  H       0.945273      1.405930     -1.933895
  H       0.999131      1.831171     -0.303944
  H      -0.483319      1.480012     -1.110752
17
Coordinates from ORCA-job geo_opt E -438.497184550752
  C      -1.214703     -0.174314      1.159431
  C      -0.566933     -0.821594     -0.062947
  O      -1.436932     -0.750590     -1.219621
  C       0.748909     -0.177314     -0.520047
  N       0.505766      1.231613     -1.007914
  C       1.808187     -0.080198      0.619961
  O       2.255877     -1.168561      1.061764
  O       2.089680      1.103458      1.004314
  H      -0.567055     -0.261453      2.044159
  H      -2.161451     -0.689039      1.382068
  H      -1.439294      0.889586      0.987021
  H      -0.327633     -1.873601      0.164690
  H      -2.290293     -1.153974     -0.970246
  H       1.155259     -0.753636     -1.359862
  H       0.951143      1.413129     -1.914464
  H       0.984254      1.813419     -0.269893
  H      -0.494782      1.453071     -1.098415
17
Coordinates from ORCA-job geo_opt E -438.497269939627
  C      -1.213065     -0.173453      1.156085
  C      -0.566390     -0.822956     -0.065851
  O      -1.436503     -0.756668     -1.219983
  C       0.747941     -0.175202     -0.521404
  N       0.505167      1.232301     -1.005912
  C       1.802452     -0.081385      0.624771
  O       2.248477     -1.169247      1.064081
  O       2.093020      1.099583      0.999186
  H      -0.560507     -0.256753      2.036708
  H      -2.156526     -0.689864      1.385395
  H      -1.440704      0.888750      0.982721
  H      -0.325062     -1.874006      0.163592
  H      -2.293053     -1.149458     -0.966337
  H       1.158202     -0.752634     -1.358188
  H       0.952672      1.414464     -1.911137
  H       0.979522      1.814890     -0.266722
  H      -0.495642      1.451636     -1.097006
17
Coordinates from ORCA-job geo_opt E -438.497311173701
  C      -1.213560     -0.172661      1.152180
  C      -0.564319     -0.824762     -0.066567
  O      -1.433811     -0.767733     -1.221329
  C       0.748023     -0.173724     -0.521378
  N       0.504536      1.233387     -1.004384
  C       1.801277     -0.083410      0.626496
  O       2.246360     -1.173154      1.061210
  O       2.094652      1.094475      1.002742
  H      -0.559944     -0.251161      2.032152
  H      -2.154767     -0.691307      1.384666
  H      -1.444878      0.888000      0.976587
  H      -0.318956     -1.873996      0.166642
  H      -2.296281     -1.140288     -0.958014
  H       1.159122     -0.749738     -1.358650
  H       0.950937      1.414103     -1.910384
  H       0.977820      1.818440     -0.268196
  H      -0.496210      1.453532     -1.093771
17
Coordinates from ORCA-job geo_opt E -438.497353243670
  C      -1.215447     -0.173251      1.146620
  C      -0.560402     -0.828286     -0.066808
  O      -1.428641     -0.787002     -1.223527
  C       0.748942     -0.171860     -0.521228
  N       0.503683      1.235062     -1.002716
  C       1.802582     -0.086268      0.627159
  O       2.240949     -1.180062      1.059615
  O       2.101042      1.087573      1.006647
  H      -0.561081     -0.243127      2.026650
  H      -2.152898     -0.696771      1.383289
  H      -1.454122      0.884930      0.967054
  H      -0.307568     -1.874308      0.172896
  H      -2.302801     -1.117585     -0.943454
  H       1.160677     -0.745033     -1.360167
  H       0.949011      1.414138     -1.909590
  H       0.972982      1.825635     -0.271091
  H      -0.496909      1.456214     -1.091349
17
Coordinates from ORCA-job geo_opt E -438.497365851034
  C      -1.216934     -0.174352      1.144819
  C      -0.558778     -0.830112     -0.066359
  O      -1.426030     -0.794596     -1.224298
  C       0.749875     -0.171933     -0.520864
  N       0.503391      1.234678     -1.002592
  C       1.804838     -0.087074      0.626822
  O       2.243174     -1.182341      1.057005
  O       2.101586      1.086021      1.010201
  H      -0.562719     -0.239827      2.025453
  H      -2.152802     -0.700442      1.382790
  H      -1.459202      0.882752      0.962632
  H      -0.302947     -1.874755      0.176461
  H      -2.306791     -1.101265     -0.937600
  H       1.161889     -0.744195     -1.360380
  H       0.948410      1.413928     -1.909634
  H       0.970438      1.828200     -0.272720
  H      -0.497398      1.455314     -1.091737
17
Coordinates from ORCA-job geo_opt E -438.497373910432
  C      -1.217579     -0.176474      1.144524
  C      -0.557831     -0.831621     -0.066144
  O      -1.424388     -0.797530     -1.224563
  C       0.750937     -0.172730     -0.520685
  N       0.503134      1.233138     -1.003443
  C       1.806757     -0.086600      0.626590
  O       2.246098     -1.181963      1.056452
  O       2.100614      1.087150      1.011782
  H      -0.563241     -0.239161      2.025423
  H      -2.152308     -0.704632      1.383152
  H      -1.462363      0.879995      0.960609
  H      -0.300625     -1.875734      0.178033
  H      -2.311100     -1.082815     -0.934006
  H       1.163865     -0.745265     -1.359648
  H       0.949707      1.413999     -1.909476
  H       0.966391      1.828910     -0.273104
  H      -0.498068      1.451333     -1.095494
17
Coordinates from ORCA-job geo_opt E -438.497378731696
  C      -1.217211     -0.178686      1.144970
  C      -0.557236     -0.832862     -0.066150
  O      -1.423320     -0.797374     -1.224504
  C       0.751993     -0.173983     -0.520580
  N       0.502679      1.230794     -1.004778
  C       1.807549     -0.085393      0.626807
  O       2.250426     -1.179657      1.056040
  O       2.096787      1.089543      1.013397
  H      -0.562740     -0.240296      2.025884
  H      -2.151421     -0.707942      1.383618
  H      -1.463020      0.877542      0.960223
  H      -0.300018     -1.877096      0.177982
  H      -2.315036     -1.064132     -0.931650
  H       1.166107     -0.747443     -1.358369
  H       0.952021      1.413812     -1.909057
  H       0.961525      1.828031     -0.272735
  H      -0.499085      1.445143     -1.101098
17
Coordinates from ORCA-job geo_opt E -438.497381381376
  C      -1.216017     -0.180217      1.145909
  C      -0.557121     -0.833279     -0.066437
  O      -1.423373     -0.794758     -1.224232
  C       0.752627     -0.174849     -0.520702
  N       0.502301      1.229123     -1.006073
  C       1.806983     -0.083984      0.627279
  O       2.252080     -1.176776      1.057519
  O       2.093565      1.092012      1.013237
  H      -0.561497     -0.243234      2.026608
  H      -2.150568     -0.709191      1.383834
  H      -1.460966      0.876346      0.962052
  H      -0.300963     -1.878176      0.176136
  H      -2.317066     -1.054071     -0.930835
  H       1.167509     -0.749274     -1.357439
  H       0.954667      1.413622     -1.908548
  H       0.957688      1.826679     -0.271864
  H      -0.499848      1.440025     -1.106445
17
Coordinates from ORCA-job geo_opt E -438.497382906767
  C      -1.214478     -0.181298      1.146772
  C      -0.556971     -0.833534     -0.066725
  O      -1.423636     -0.792065     -1.223932
  C       0.753207     -0.175570     -0.520881
  N       0.501857      1.227724     -1.007372
  C       1.805863     -0.082635      0.627926
  O       2.253711     -1.173941      1.058568
  O       2.089309      1.094078      1.013993
  H      -0.560142     -0.246836      2.027305
  H      -2.149858     -0.709213      1.383636
  H      -1.457588      0.875868      0.964516
  H      -0.302138     -1.879194      0.173905
  H      -2.318461     -1.046404     -0.929801
  H       1.168483     -0.750763     -1.356863
  H       0.957461      1.413075     -1.908026
  H       0.954001      1.825512     -0.271210
  H      -0.500619      1.435197     -1.111810
17
Coordinates from ORCA-job geo_opt E -438.497383389544
  C      -1.213766     -0.181491      1.147048
  C      -0.556855     -0.833535     -0.066800
  O      -1.423866     -0.791250     -1.223831
  C       0.753413     -0.175683     -0.521032
  N       0.501649      1.227491     -1.007854
  C       1.805309     -0.082194      0.628170
  O       2.253663     -1.173136      1.059124
  O       2.087885      1.094569      1.014390
  H      -0.559644     -0.248674      2.027574
  H      -2.149749     -0.708560      1.383339
  H      -1.455620      0.876085      0.965882
  H      -0.302552     -1.879494      0.172946
  H      -2.318652     -1.045102     -0.929200
  H       1.168544     -0.750986     -1.356982
  H       0.958815      1.412819     -1.907707
  H       0.952330      1.825475     -0.270999
  H      -0.500905      1.433665     -1.114066
17
Coordinates from ORCA-job geo_opt E -438.497383701966
  C      -1.212993     -0.181709      1.147363
  C      -0.556680     -0.833582     -0.066796
  O      -1.424106     -0.790580     -1.223718
  C       0.753681     -0.175832     -0.521211
  N       0.501407      1.227195     -1.008529
  C       1.804860     -0.081737      0.628441
  O       2.254178     -1.172424      1.059143
  O       2.085721      1.095001      1.015645
  H      -0.559152     -0.250914      2.027937
  H      -2.149761     -0.707668      1.383030
  H      -1.453244      0.876410      0.967497
  H      -0.302894     -1.879826      0.172084
  H      -2.318998     -1.043109     -0.928297
  H       1.168605     -0.751253     -1.357158
  H       0.960707      1.412460     -1.907300
  H       0.949886      1.825772     -0.270953
  H      -0.501217      1.431797     -1.117178
