17
zwitterion conformer 3
C      -1.15029374    -0.17197587     1.15813122
C      -0.58475426    -0.81561589    -0.10890456
O      -1.47094463    -0.66978742    -1.20468493
C       0.73444833    -0.17159880    -0.55474576
N       0.50332869     1.20912813    -1.01849659
C       1.74076108    -0.06928578     0.66638296
O       2.17424679    -1.12233746     1.13814508
O       1.97107256     1.10596606     1.01592357
H      -0.41133536    -0.22908214     1.95339435
H      -2.04148535    -0.70242034     1.48295808
H      -1.40713517     0.87067905     0.99317509
H      -0.37572113    -1.87519524     0.09132737
H      -2.29615208    -1.13707648    -1.02603443
H       1.18475618    -0.79109439    -1.32988146
H       0.97648186     1.41415744    -1.90026043
H       0.95382123     1.76655147    -0.23563221
H      -0.50109503     1.38898767    -1.12079735
