24
Coordinates from ORCA-job geo_opt E -43.538565887450
  N           3.90696610152171      1.05364737662771     -0.09237725077732
  C           3.08984301462036     -0.05749469937796      0.42994125846577
  C           1.80722054212586     -0.08996661248551     -0.41281687429150
  O           1.66795264416603      0.74919472144434     -1.29631037015769
  N           0.96903190990178     -1.09937162932951     -0.16850379756028
  C          -0.38481747254812     -1.03923518279560     -0.66684527804622
  C          -1.19003698420548     -0.02582234718490      0.16078062166776
  O          -0.64569382502556      0.62408885809435      1.04598298327491
  N          -2.45993947698377      0.14418167979952     -0.24234101678819
  C          -3.42226511655351      0.71261872457549      0.66895300827787
  C          -3.80361474911440     -0.33052649652097      1.78385714297816
  O          -4.72834090477153     -0.00383117899326      2.54708851826237
  O          -3.13956848344095     -1.38274894289602      1.79754712599072
  H           4.80608750165377      0.74563146867343     -0.47338243354948
  H           3.31673038184399      1.44388871774180     -0.87014773199625
  H           4.06195506252213      1.79080220749876      0.60084993059715
  H           3.60385141736842     -1.01383035995079      0.34575535750002
  H           2.80704674589070      0.10373493481545      1.46987871976410
  H           1.09126383798975     -1.62776392386779      0.68406516457866
  H          -0.36540139707784     -0.70676053997150     -1.70742450559671
  H          -0.85218871463098     -2.01996575821763     -0.59042790374832
  H          -2.83675313155582     -0.56479980885418     -0.85588975612759
  H          -4.32166783861244      1.02214055865804      0.13930740454719
  H          -2.97766107508410      1.57218821251672      1.17355512273487
