24
Coordinates from ORCA-job geo_opt E -43.472503647200
  N       3.837387      1.163784      0.180187
  C       3.139026     -0.087075      0.226626
  C       1.734663      0.006901     -0.245878
  O       1.255227      1.103424     -0.638008
  N       0.958893     -1.175470     -0.239245
  C      -0.399798     -1.175949     -0.676589
  C      -1.279541     -0.273187      0.106323
  O      -0.850812      0.424192      1.067398
  N      -2.651165     -0.220827     -0.272789
  C      -3.549907      0.651984      0.468624
  C      -3.530554      0.198413      1.886632
  O      -4.230682      0.786531      2.767063
  O      -2.766891     -0.869186      2.331705
  H       4.871837      0.937220      0.074913
  H       3.603233      1.774304     -0.626260
  H       3.785801      1.708731      1.077637
  H       3.676542     -0.803322     -0.431815
  H       3.229638     -0.495012      1.246097
  H       1.395226     -2.083592      0.098177
  H      -0.521605     -0.855682     -1.739263
  H      -0.833819     -2.195942     -0.625987
  H      -3.003177     -0.798513     -1.067909
  H      -4.582819      0.554066      0.132713
  H      -3.286700      1.724208      0.370743
24
Coordinates from ORCA-job geo_opt E -43.509759070850
  N       3.857831      1.157807      0.145358
  C       3.142549     -0.111763      0.213464
  C       1.730368     -0.001220     -0.270031
  O       1.271880      1.068051     -0.687400
  N       0.980629     -1.146156     -0.243496
  C      -0.381853     -1.154094     -0.666029
  C      -1.260288     -0.247213      0.143660
  O      -0.837234      0.435391      1.082953
  N      -2.582386     -0.195138     -0.240692
  C      -3.513667      0.631987      0.498360
  C      -3.619917      0.161918      1.926833
  O      -4.386086      0.754193      2.726060
  O      -2.971702     -0.896313      2.351949
  H       4.876340      0.952378      0.049988
  H       3.608863      1.743778     -0.666958
  H       3.783338      1.715362      1.014716
  H       3.662719     -0.848731     -0.422181
  H       3.199449     -0.498941      1.238029
  H       1.403123     -2.015144      0.095987
  H      -0.498133     -0.839626     -1.721602
  H      -0.798409     -2.169776     -0.605394
  H      -2.900450     -0.736940     -1.039742
  H      -4.523709      0.543731      0.094967
  H      -3.243254      1.696461      0.452295
24
Coordinates from ORCA-job geo_opt E -43.523981843380
  N       3.874044      1.141053      0.129060
  C       3.132218     -0.132236      0.221320
  C       1.715970      0.004031     -0.306960
  O       1.299069      1.051984     -0.774426
  N       0.986834     -1.112641     -0.254558
  C      -0.383205     -1.130824     -0.672820
  C      -1.257449     -0.208877      0.166628
  O      -0.827061      0.447163      1.099057
  N      -2.535965     -0.163022     -0.221798
  C      -3.498299      0.607646      0.519387
  C      -3.649209      0.108355      1.959956
  O      -4.441822      0.716529      2.709315
  O      -2.999601     -0.878568      2.314671
  H       4.881899      0.947264      0.066425
  H       3.621319      1.688667     -0.704630
  H       3.748833      1.724016      0.963476
  H       3.643796     -0.898445     -0.369772
  H       3.124658     -0.477096      1.256888
  H       1.392051     -1.953478      0.110541
  H      -0.482695     -0.822757     -1.722790
  H      -0.785277     -2.142744     -0.597266
  H      -2.834962     -0.691513     -1.019966
  H      -4.491178      0.506633      0.074981
  H      -3.233967      1.668858      0.524377
24
Coordinates from ORCA-job geo_opt E -43.529299356640
  N       3.898479      1.135355      0.050903
  C       3.139617     -0.118953      0.242872
  C       1.743873     -0.007600     -0.369640
  O       1.391354      0.989442     -0.983307
  N       1.000343     -1.109629     -0.233548
  C      -0.381098     -1.130456     -0.631533
  C      -1.218964     -0.160280      0.211774
  O      -0.739162      0.492869      1.126586
  N      -2.489113     -0.059436     -0.198116
  C      -3.468332      0.653780      0.578766
  C      -3.751612     -0.028382      1.947097
  O      -4.575669      0.555788      2.685539
  O      -3.281235     -1.159161      2.132293
  H       4.908942      0.950699      0.063139
  H       3.664345      1.576212     -0.849608
  H       3.698186      1.809445      0.797690
  H       3.661941     -0.948632     -0.237140
  H       3.057335     -0.342319      1.306578
  H       1.377037     -1.918469      0.233154
  H      -0.480803     -0.851510     -1.686518
  H      -0.788097     -2.133362     -0.505150
  H      -2.789988     -0.549926     -1.023826
  H      -4.427028      0.669866      0.055732
  H      -3.150350      1.684659      0.757361
24
Coordinates from ORCA-job geo_opt E -43.530612090000
  N       3.850004      1.138947      0.033272
  C       3.100303     -0.111888      0.291708
  C       1.753437     -0.060321     -0.451169
  O       1.481680      0.868918     -1.198773
  N       0.992289     -1.139998     -0.246739
  C      -0.395369     -1.143402     -0.641841
  C      -1.178784     -0.112573      0.203015
  O      -0.643480      0.496760      1.121983
  N      -2.439371      0.055017     -0.213741
  C      -3.430601      0.693881      0.613057
  C      -3.806923     -0.174160      1.883677
  O      -4.473640      0.450505      2.736417
  O      -3.235819     -1.281599      1.995223
  H       4.860878      1.012921      0.149452
  H       3.644938      1.453993     -0.926348
  H       3.520767      1.880569      0.660606
  H       3.661928     -0.975697     -0.059641
  H       2.902829     -0.221447      1.356739
  H       1.312219     -1.885068      0.353295
  H      -0.475486     -0.882565     -1.699174
  H      -0.823795     -2.128123     -0.471022
  H      -2.759315     -0.426566     -1.038393
  H      -4.355067      0.831471      0.052575
  H      -3.063622      1.660425      0.966915
24
Coordinates from ORCA-job geo_opt E -43.534362500860
  N       3.794417      1.151917      0.060078
  C       3.081704     -0.119843      0.303766
  C       1.752779     -0.094603     -0.468372
  O       1.486262      0.833601     -1.217785
  N       0.986548     -1.169727     -0.264929
  C      -0.398464     -1.156508     -0.670408
  C      -1.162301     -0.103151      0.160300
  O      -0.617777      0.488020      1.084755
  N      -2.424858      0.075617     -0.235878
  C      -3.388222      0.723246      0.614818
  C      -3.694735     -0.139031      1.906920
  O      -4.411798      0.431085      2.750433
  O      -3.193572     -1.277012      1.953955
  H       4.807207      1.061683      0.194860
  H       3.588470      1.454295     -0.905246
  H       3.423075      1.883803      0.676964
  H       3.674724     -0.965689     -0.042710
  H       2.862775     -0.239536      1.364194
  H       1.273251     -1.880755      0.389066
  H      -0.466648     -0.900105     -1.730145
  H      -0.847004     -2.131510     -0.490926
  H      -2.780846     -0.470086     -1.003643
  H      -4.331990      0.853550      0.087433
  H      -3.013000      1.690740      0.953594
24
Coordinates from ORCA-job geo_opt E -43.535838539030
  N       3.755623      1.168228      0.052486
  C       3.083888     -0.119768      0.306138
  C       1.741617     -0.105817     -0.437763
  O       1.479298      0.810456     -1.204123
  N       0.989931     -1.197023     -0.257287
  C      -0.394178     -1.180632     -0.668779
  C      -1.160191     -0.147587      0.179751
  O      -0.597209      0.454081      1.087019
  N      -2.405098      0.093679     -0.242931
  C      -3.349886      0.761924      0.613845
  C      -3.681781     -0.129636      1.876373
  O      -4.412464      0.405652      2.725484
  O      -3.224146     -1.282739      1.875009
  H       4.774246      1.106491      0.157540
  H       3.504548      1.464002     -0.906763
  H       3.378967      1.888879      0.680456
  H       3.687178     -0.948277     -0.067385
  H       2.891162     -0.255296      1.370112
  H       1.248605     -1.870361      0.447828
  H      -0.459028     -0.900916     -1.723559
  H      -0.841885     -2.159562     -0.506448
  H      -2.791464     -0.503084     -0.958436
  H      -4.281241      0.948213      0.083508
  H      -2.936492      1.699092      0.989023
24
Coordinates from ORCA-job geo_opt E -43.536835753810
  N       3.705966      1.171102      0.054488
  C       3.064977     -0.125437      0.333582
  C       1.747816     -0.153311     -0.451283
  O       1.523411      0.728270     -1.270167
  N       0.976082     -1.228192     -0.248755
  C      -0.402178     -1.177028     -0.679754
  C      -1.145777     -0.104597      0.136831
  O      -0.569888      0.492112      1.040777
  N      -2.391065      0.158428     -0.280284
  C      -3.315441      0.792359      0.625821
  C      -3.620600     -0.167675      1.845005
  O      -4.349179      0.299243      2.733267
  O      -3.134971     -1.309258      1.776679
  H       4.723905      1.145903      0.172434
  H       3.444900      1.422919     -0.917256
  H       3.296273      1.900515      0.650290
  H       3.694775     -0.947738     -0.008484
  H       2.847604     -0.241476      1.395071
  H       1.164375     -1.813867      0.551335
  H      -0.440663     -0.912182     -1.738451
  H      -0.882323     -2.138952     -0.506551
  H      -2.808771     -0.511662     -0.909892
  H      -4.250058      1.021873      0.120602
  H      -2.879172      1.698651      1.045791
24
Coordinates from ORCA-job geo_opt E -43.537259324150
  N       3.714732      1.166207      0.049735
  C       3.075264     -0.130441      0.333738
  C       1.759709     -0.162547     -0.451730
  O       1.549472      0.705437     -1.289828
  N       0.971270     -1.224801     -0.234890
  C      -0.404032     -1.163271     -0.673295
  C      -1.150850     -0.088024      0.131546
  O      -0.573392      0.532171      1.018211
  N      -2.401937      0.168597     -0.286529
  C      -3.325976      0.791437      0.630348
  C      -3.637306     -0.186202      1.828513
  O      -4.389912      0.248454      2.715363
  O      -3.099823     -1.307420      1.772975
  H       4.735055      1.136676      0.142601
  H       3.428555      1.423958     -0.915068
  H       3.328554      1.895615      0.660359
  H       3.703346     -0.951935     -0.013658
  H       2.868382     -0.251118      1.396391
  H       1.136437     -1.777681      0.594135
  H      -0.435580     -0.900663     -1.732828
  H      -0.890567     -2.123268     -0.505132
  H      -2.821378     -0.529634     -0.885167
  H      -4.256376      1.038579      0.124003
  H      -2.883647      1.689875      1.061302
24
Coordinates from ORCA-job geo_opt E -43.537560363680
  N       3.749865      1.148838      0.037508
  C       3.092022     -0.136904      0.333815
  C       1.775474     -0.157085     -0.450415
  O       1.591906      0.688575     -1.317203
  N       0.963463     -1.196585     -0.211452
  C      -0.406062     -1.130860     -0.664278
  C      -1.161969     -0.055413      0.127912
  O      -0.590987      0.590599      0.998879
  N      -2.423770      0.170101     -0.284439
  C      -3.357177      0.774008      0.636905
  C      -3.667614     -0.214984      1.820335
  O      -4.471181      0.183244      2.681299
  O      -3.058592     -1.301105      1.797396
  H       4.771877      1.095726      0.086467
  H       3.427080      1.419227     -0.913360
  H       3.412855      1.882931      0.670563
  H       3.703826     -0.969759     -0.016024
  H       2.896072     -0.252972      1.398241
  H       1.110310     -1.725448      0.636793
  H      -0.425641     -0.869030     -1.724387
  H      -0.894823     -2.091422     -0.505234
  H      -2.831578     -0.550038     -0.865258
  H      -4.284929      1.024646      0.125195
  H      -2.920426      1.673709      1.071837
24
Coordinates from ORCA-job geo_opt E -43.537791125000
  N       3.776389      1.135358      0.024485
  C       3.106109     -0.141676      0.333633
  C       1.793675     -0.158529     -0.459327
  O       1.625286      0.675992     -1.339884
  N       0.960121     -1.171960     -0.193083
  C      -0.405223     -1.105378     -0.655736
  C      -1.168211     -0.034411      0.134390
  O      -0.598105      0.637836      0.984556
  N      -2.436642      0.165813     -0.272809
  C      -3.378341      0.759795      0.646591
  C      -3.703034     -0.238376      1.814855
  O      -4.567319      0.127616      2.631024
  O      -3.041122     -1.293012      1.829414
  H       4.797992      1.062831      0.023976
  H       3.412769      1.416416     -0.909912
  H       3.487655      1.870502      0.679402
  H       3.708402     -0.983351     -0.011840
  H       2.912748     -0.249879      1.398817
  H       1.096652     -1.683981      0.667206
  H      -0.415212     -0.837402     -1.714749
  H      -0.892114     -2.068703     -0.508507
  H      -2.834372     -0.564485     -0.847633
  H      -4.298494      1.023863      0.126454
  H      -2.939609      1.655120      1.089774
24
Coordinates from ORCA-job geo_opt E -43.537964080130
  N       3.833589      1.103656     -0.011873
  C       3.126854     -0.141063      0.344342
  C       1.813090     -0.139185     -0.448207
  O       1.679942      0.665777     -1.361931
  N       0.953465     -1.119829     -0.154930
  C      -0.402832     -1.057128     -0.642747
  C      -1.185895      0.003090      0.142784
  O      -0.630904      0.693207      0.987890
  N      -2.461706      0.162712     -0.258282
  C      -3.419151      0.734931      0.658349
  C      -3.751947     -0.282361      1.805719
  O      -4.691230      0.028398      2.559264
  O      -3.032556     -1.297173      1.859669
  H       4.847666      0.984411     -0.091214
  H       3.410969      1.392500     -0.921230
  H       3.632235      1.853270      0.658780
  H       3.697587     -1.012765      0.019042
  H       2.938961     -0.211322      1.413175
  H       1.074909     -1.618574      0.715221
  H      -0.390665     -0.775133     -1.698472
  H      -0.884784     -2.026248     -0.519023
  H      -2.839741     -0.575914     -0.835504
  H      -4.332769      1.009982      0.131819
  H      -2.985087      1.624762      1.118456
24
Coordinates from ORCA-job geo_opt E -43.538081492480
  N       3.835764      1.104548     -0.016914
  C       3.124839     -0.134826      0.349851
  C       1.816555     -0.141596     -0.453467
  O       1.681469      0.669314     -1.362077
  N       0.957351     -1.120517     -0.159129
  C      -0.398985     -1.058788     -0.648506
  C      -1.185335     -0.007380      0.148328
  O      -0.629264      0.676833      0.998116
  N      -2.460197      0.153353     -0.249836
  C      -3.415787      0.735520      0.661720
  C      -3.762265     -0.279482      1.810127
  O      -4.707953      0.037032      2.552022
  O      -3.054887     -1.301468      1.866247
  H       4.847866      0.978998     -0.109585
  H       3.404617      1.389891     -0.924797
  H       3.645351      1.857726      0.652761
  H       3.697886     -1.011956      0.044291
  H       2.922982     -0.188036      1.417245
  H       1.081667     -1.627693      0.705542
  H      -0.384265     -0.764099     -1.700764
  H      -0.877819     -2.030488     -0.535054
  H      -2.840493     -0.575723     -0.837371
  H      -4.325791      1.020329      0.135262
  H      -2.973307      1.618508      1.127085
24
Coordinates from ORCA-job geo_opt E -43.538180896030
  N       3.841802      1.101538     -0.029119
  C       3.121603     -0.124309      0.362520
  C       1.818741     -0.140208     -0.450473
  O       1.686513      0.673326     -1.357978
  N       0.960249     -1.119098     -0.159710
  C      -0.393954     -1.057097     -0.656825
  C      -1.186884     -0.017415      0.151361
  O      -0.630997      0.657738      1.009712
  N      -2.460157      0.144837     -0.243778
  C      -3.411418      0.735532      0.665152
  C      -3.774582     -0.282820      1.810006
  O      -4.720713      0.039682      2.547673
  O      -3.083665     -1.315671      1.861111
  H       4.848702      0.960785     -0.150434
  H       3.390956      1.382221     -0.931324
  H       3.678009      1.862735      0.638004
  H       3.692787     -1.013290      0.090902
  H       2.901035     -0.145160      1.427655
  H       1.081658     -1.631418      0.702303
  H      -0.371497     -0.744814     -1.703749
  H      -0.870407     -2.031465     -0.559521
  H      -2.843537     -0.577250     -0.837537
  H      -4.317186      1.036133      0.142005
  H      -2.957059      1.605490      1.143142
24
Coordinates from ORCA-job geo_opt E -43.538240160280
  N       3.850878      1.097458     -0.038517
  C       3.121901     -0.116843      0.371034
  C       1.820631     -0.135513     -0.444474
  O       1.688516      0.682621     -1.348605
  N       0.962991     -1.116084     -0.159593
  C      -0.389413     -1.053808     -0.661902
  C      -1.188655     -0.023115      0.152167
  O      -0.634567      0.649157      1.014698
  N      -2.462765      0.135220     -0.239640
  C      -3.412439      0.732042      0.665912
  C      -3.788300     -0.285179      1.809239
  O      -4.732277      0.044181      2.546669
  O      -3.106673     -1.324129      1.861845
  H       4.850083      0.939584     -0.195920
  H       3.375771      1.385436     -0.928091
  H       3.722948      1.860212      0.634055
  H       3.688544     -1.015129      0.123284
  H       2.890601     -0.115580      1.434410
  H       1.082472     -1.632875      0.699989
  H      -0.362325     -0.729871     -1.705135
  H      -0.863645     -2.030290     -0.576774
  H      -2.846650     -0.583498     -0.837090
  H      -4.315224      1.040778      0.142959
  H      -2.952403      1.595226      1.150574
24
Coordinates from ORCA-job geo_opt E -43.538312485930
  N       3.865741      1.088434     -0.051424
  C       3.120185     -0.106024      0.384308
  C       1.821406     -0.126445     -0.434985
  O       1.690805      0.695983     -1.336212
  N       0.964975     -1.110455     -0.159818
  C      -0.385283     -1.046511     -0.667165
  C      -1.190470     -0.023950      0.150976
  O      -0.638982      0.647493      1.016256
  N      -2.465981      0.127550     -0.236851
  C      -3.415713      0.724922      0.667121
  C      -3.802377     -0.293429      1.806072
  O      -4.739998      0.043025      2.548874
  O      -3.129630     -1.338645      1.856043
  H       4.850543      0.902051     -0.259553
  H       3.357809      1.390501     -0.920419
  H       3.793887      1.852757      0.626755
  H       3.677162     -1.018417      0.171205
  H       2.875718     -0.072743      1.444650
  H       1.080821     -1.629933      0.698741
  H      -0.354046     -0.712629     -1.707163
  H      -0.857795     -2.024683     -0.593788
  H      -2.848742     -0.590804     -0.835170
  H      -4.316181      1.039186      0.143392
  H      -2.953853      1.582765      1.159250
24
Coordinates from ORCA-job geo_opt E -43.538430453100
  N       3.905904      1.060623     -0.082945
  C       3.118559     -0.082285      0.411314
  C       1.823980     -0.099944     -0.413589
  O       1.698020      0.730752     -1.308845
  N       0.968277     -1.088953     -0.155877
  C      -0.378317     -1.023843     -0.671315
  C      -1.196109     -0.017147      0.152767
  O      -0.653132      0.655928      1.022407
  N      -2.474655      0.116274     -0.230107
  C      -3.431649      0.705493      0.670320
  C      -3.833012     -0.318340      1.797498
  O      -4.764882      0.023354      2.545926
  O      -3.170386     -1.370866      1.841872
  H       4.847031      0.805205     -0.393877
  H       3.337651      1.401149     -0.903564
  H       3.962348      1.822588      0.597996
  H       3.645812     -1.024618      0.269596
  H       2.855587      0.021448      1.463336
  H       1.079930     -1.615834      0.698887
  H      -0.341639     -0.674637     -1.706275
  H      -0.845512     -2.005838     -0.617886
  H      -2.849835     -0.602482     -0.832481
  H      -4.328327      1.022811      0.141079
  H      -2.975642      1.559162      1.174858
24
Coordinates from ORCA-job geo_opt E -43.538469838420
  N       3.935727      1.036752     -0.104567
  C       3.111049     -0.059242      0.432315
  C       1.822257     -0.077239     -0.401096
  O       1.696645      0.760312     -1.290174
  N       0.970343     -1.073507     -0.157816
  C      -0.375745     -1.008820     -0.673660
  C      -1.199103     -0.011681      0.155250
  O      -0.661984      0.659035      1.030086
  N      -2.478626      0.114205     -0.227063
  C      -3.442703      0.691624      0.673499
  C      -3.846611     -0.339276      1.791131
  O      -4.766658      0.006267      2.552724
  O      -3.196061     -1.400261      1.819108
  H       4.836317      0.723266     -0.475843
  H       3.341918      1.409535     -0.894560
  H       4.086036      1.792326      0.569010
  H       3.612646     -1.022257      0.352154
  H       2.834178      0.105206      1.473560
  H       1.083268     -1.607466      0.692480
  H      -0.340687     -0.653899     -1.706865
  H      -0.838990     -1.993207     -0.628032
  H      -2.848148     -0.603549     -0.834048
  H      -4.338629      1.004970      0.139682
  H      -2.996436      1.546905      1.183819
24
Coordinates from ORCA-job geo_opt E -43.538525790820
  N       3.920823      1.048343     -0.090878
  C       3.100855     -0.061429      0.426676
  C       1.816222     -0.086701     -0.413795
  O       1.685367      0.748374     -1.303417
  N       0.968966     -1.087725     -0.168868
  C      -0.381140     -1.022708     -0.674414
  C      -1.193168     -0.016055      0.153824
  O      -0.649743      0.650727      1.027165
  N      -2.470961      0.125382     -0.232187
  C      -3.432455      0.700532      0.674286
  C      -3.825820     -0.332120      1.793136
  O      -4.735697      0.015352      2.565639
  O      -3.180989     -1.396728      1.807029
  H       4.837777      0.747649     -0.432225
  H       3.348726      1.413276     -0.896438
  H       4.038728      1.806441      0.587135
  H       3.612360     -1.018882      0.336677
  H       2.820881      0.090232      1.468961
  H       1.085472     -1.616394      0.684277
  H      -0.354662     -0.679282     -1.711643
  H      -0.847770     -2.004872     -0.614012
  H      -2.845619     -0.593576     -0.834973
  H      -4.330620      1.009665      0.141400
  H      -2.987535      1.560499      1.177742
24
Coordinates from ORCA-job geo_opt E -43.538541405440
  N       3.909664      1.053095     -0.089853
  C       3.096036     -0.061910      0.427498
  C       1.818464     -0.096245     -0.422416
  O       1.692489      0.733221     -1.317027
  N       0.969590     -1.094329     -0.170021
  C      -0.381951     -1.028609     -0.672813
  C      -1.188054     -0.018516      0.157547
  O      -0.640390      0.646068      1.029434
  N      -2.464084      0.133552     -0.232323
  C      -3.425231      0.706754      0.677517
  C      -3.820875     -0.333200      1.788863
  O      -4.741110      0.006042      2.552012
  O      -3.172870     -1.395345      1.799367
  H       4.821543      0.754786     -0.447129
  H       3.326563      1.426039     -0.881550
  H       4.038082      1.803243      0.595110
  H       3.612831     -1.016966      0.340945
  H       2.810805      0.092687      1.467780
  H       1.083182     -1.612024      0.690368
  H      -0.356698     -0.687546     -1.710689
  H      -0.850051     -2.009848     -0.608137
  H      -2.841856     -0.588615     -0.829742
  H      -4.319691      1.024154      0.143284
  H      -2.976387      1.563512      1.183070
24
Coordinates from ORCA-job geo_opt E -43.538556027170
  N       3.914715      1.051816     -0.091473
  C       3.096115     -0.059530      0.426964
  C       1.815376     -0.089351     -0.418436
  O       1.683943      0.744855     -1.307807
  N       0.970423     -1.092022     -0.170122
  C      -0.381908     -1.029949     -0.671742
  C      -1.189726     -0.021498      0.159194
  O      -0.644541      0.638496      1.036251
  N      -2.465061      0.131100     -0.232122
  C      -3.427965      0.705548      0.675123
  C      -3.822118     -0.331504      1.790082
  O      -4.738150      0.011642      2.556659
  O      -3.177754     -1.395888      1.800112
  H       4.824103      0.747734     -0.450493
  H       3.335007      1.429667     -0.883214
  H       4.049271      1.799829      0.594461
  H       3.609021     -1.016438      0.340499
  H       2.813401      0.097533      1.467625
  H       1.089682     -1.618199      0.684314
  H      -0.358893     -0.689485     -1.709848
  H      -0.847919     -2.012079     -0.605783
  H      -2.841561     -0.585743     -0.836651
  H      -4.323311      1.017907      0.139620
  H      -2.982149      1.565558      1.177881
24
Coordinates from ORCA-job geo_opt E -43.538559651780
  N       3.914840      1.051733     -0.093080
  C       3.095538     -0.058335      0.427463
  C       1.813646     -0.087895     -0.416352
  O       1.679571      0.748024     -1.303751
  N       0.970746     -1.092419     -0.168975
  C      -0.381898     -1.031760     -0.670307
  C      -1.190160     -0.023299      0.160461
  O      -0.645695      0.633742      1.040315
  N      -2.464242      0.132324     -0.233104
  C      -3.427341      0.706657      0.673891
  C      -3.821529     -0.331566      1.788269
  O      -4.737689      0.010406      2.555232
  O      -3.176711     -1.395653      1.797745
  H       4.821199      0.745244     -0.457711
  H       3.332909      1.433136     -0.881695
  H       4.055536      1.797294      0.594305
  H       3.607707     -1.015576      0.341743
  H       2.813531      0.100836      1.467969
  H       1.091411     -1.619959      0.684339
  H      -0.359388     -0.692021     -1.708607
  H      -0.847362     -2.013993     -0.603035
  H      -2.840697     -0.582298     -0.840220
  H      -4.322561      1.019379      0.138625
  H      -2.981363      1.566000      1.177577
24
Coordinates from ORCA-job geo_opt E -43.538562994190
  N       3.912586      1.052845     -0.094405
  C       3.094128     -0.057357      0.427848
  C       1.811204     -0.088043     -0.414538
  O       1.673940      0.749202     -1.300187
  N       0.970803     -1.094722     -0.167406
  C      -0.382435     -1.035407     -0.667738
  C      -1.190294     -0.025718      0.162202
  O      -0.646305      0.626903      1.045783
  N      -2.462311      0.136278     -0.235546
  C      -3.425280      0.709582      0.672183
  C      -3.818178     -0.331428      1.784989
  O      -4.736753      0.005933      2.551084
  O      -3.169284     -1.393037      1.794514
  H       4.815511      0.745084     -0.466364
  H       3.327316      1.438529     -0.878419
  H       4.059968      1.794537      0.595725
  H       3.606896     -1.014183      0.341905
  H       2.812859      0.103168      1.468267
  H       1.092825     -1.622600      0.685465
  H      -0.360970     -0.697929     -1.706719
  H      -0.847869     -2.017379     -0.597151
  H      -2.839082     -0.575177     -0.846194
  H      -4.320653      1.023435      0.138123
  H      -2.978624      1.567485      1.177672
24
Coordinates from ORCA-job geo_opt E -43.538564316030
  N       3.910749      1.053342     -0.094514
  C       3.092875     -0.057070      0.428391
  C       1.809872     -0.088794     -0.413903
  O       1.671620      0.748751     -1.299092
  N       0.970404     -1.096369     -0.167049
  C      -0.383106     -1.037078     -0.666659
  C      -1.190240     -0.026247      0.162550
  O      -0.646266      0.624623      1.047426
  N      -2.461195      0.139357     -0.237583
  C      -3.423979      0.711103      0.671264
  C      -3.814489     -0.331554      1.783491
  O      -4.735381      0.001898      2.548498
  O      -3.161037     -1.390396      1.793835
  H       4.812053      0.745239     -0.470122
  H       3.323563      1.440762     -0.876114
  H       4.061313      1.793224      0.596839
  H       3.606187     -1.013654      0.342934
  H       2.811391      0.104120      1.468624
  H       1.092579     -1.623923      0.686002
  H      -0.362339     -0.701312     -1.706174
  H      -0.849030     -2.018686     -0.593896
  H      -2.838064     -0.570776     -0.849716
  H      -4.320099      1.024877      0.138493
  H      -2.977381      1.568562      1.177572
24
Coordinates from ORCA-job geo_opt E -43.538565415960
  N       3.908441      1.053634     -0.093774
  C       3.091140     -0.057126      0.429269
  C       1.808243     -0.089633     -0.413141
  O       1.669153      0.748703     -1.297432
  N       0.969644     -1.098305     -0.167424
  C      -0.384129     -1.038620     -0.666134
  C      -1.190141     -0.026212      0.162061
  O      -0.646074      0.623505      1.047650
  N      -2.460177      0.142853     -0.240488
  C      -3.422774      0.712359      0.669893
  C      -3.808389     -0.331287      1.782884
  O      -4.732265     -0.002666      2.546345
  O      -3.148118     -1.385901      1.795245
  H       4.807924      0.745329     -0.473658
  H       3.318898      1.443147     -0.872421
  H       4.062679      1.791440      0.598941
  H       3.604934     -1.013541      0.344664
  H       2.809025      0.104456      1.469291
  H       1.091879     -1.626020      0.685546
  H      -0.364292     -0.705054     -1.706352
  H      -0.850906     -2.019695     -0.590833
  H      -2.836983     -0.566175     -0.853972
  H      -4.320603      1.024317      0.138987
  H      -2.977111      1.570490      1.175952
24
Coordinates from ORCA-job geo_opt E -43.538565887450
  N       3.906966      1.053647     -0.092377
  C       3.089843     -0.057495      0.429941
  C       1.807221     -0.089967     -0.412817
  O       1.667953      0.749195     -1.296310
  N       0.969032     -1.099372     -0.168504
  C      -0.384817     -1.039235     -0.666845
  C      -1.190037     -0.025822      0.160781
  O      -0.645694      0.624089      1.045983
  N      -2.459939      0.144182     -0.242341
  C      -3.422265      0.712619      0.668953
  C      -3.803615     -0.330526      1.783857
  O      -4.728341     -0.003831      2.547089
  O      -3.139568     -1.382749      1.797547
  H       4.806088      0.745631     -0.473382
  H       3.316730      1.443889     -0.870148
  H       4.061955      1.790802      0.600850
  H       3.603851     -1.013830      0.345755
  H       2.807047      0.103735      1.469879
  H       1.091264     -1.627764      0.684065
  H      -0.365401     -0.706761     -1.707425
  H      -0.852189     -2.019966     -0.590428
  H      -2.836753     -0.564800     -0.855890
  H      -4.321668      1.022141      0.139307
  H      -2.977661      1.572188      1.173555
