24
zwitterion conformer 3
N       3.83738693     1.16378428     0.18018669
C       3.13902595    -0.08707532     0.22662601
C       1.73466258     0.00690070    -0.24587812
O       1.25522735     1.10342423    -0.63800794
N       0.95889281    -1.17547037    -0.23924545
C      -0.39979826    -1.17594882    -0.67658918
C      -1.27954131    -0.27318741     0.10632269
O      -0.85081242     0.42419238     1.06739762
N      -2.65116540    -0.22082653    -0.27278852
C      -3.54990747     0.65198405     0.46862412
C      -3.53055375     0.19841262     1.88663199
O      -4.23068249     0.78653061     2.76706318
O      -2.76689066    -0.86918636     2.33170510
H       4.87183707     0.93722005     0.07491326
H       3.60323251     1.77430394    -0.62626018
H       3.78580053     1.70873114     1.07763723
H       3.67654185    -0.80332202    -0.43181453
H       3.22963834    -0.49501237     1.24609664
H       1.39522611    -2.08359167     0.09817685
H      -0.52160502    -0.85568153    -1.73926274
H      -0.83381881    -2.19594228    -0.62598730
H      -3.00317723    -0.79851282    -1.06790851
H      -4.58281930     0.55406581     0.13271343
H      -3.28669992     1.72420767     0.37074310
