20
neutral_delta CPCM-opt conformer 3
N      -1.42957129    -0.75747003     1.22825790
C      -1.43950570    -0.48648959    -0.21838243
C      -0.14162415    -1.02415434    -0.86839116
C       1.11021983    -0.34447387    -0.40977817
C       2.22614031     0.11491214    -1.08489102
N       3.14571756     0.65439562    -0.20022424
C       2.58877399     0.52762728     1.00083209
N       1.37040513    -0.07534628     0.92063461
C      -1.63077666     0.99038773    -0.54854602
O      -1.56231469     1.43667572    -1.68397939
O      -1.92503147     1.75410930     0.52478930
H      -2.27039714    -0.37273204     1.66555907
H      -1.47585129    -1.77136287     1.36441758
H      -2.28418310    -0.98305737    -0.73698865
H      -0.21802957    -0.92940291    -1.95924520
H      -0.10193123    -2.10407184    -0.64520563
H       2.41380274     0.08172667    -2.15531845
H       3.01886225     0.85487320     1.94360951
H       0.67369930    -0.24014703     1.65409826
H      -2.06840481     2.67400051     0.20875201
