20
Coordinates from ORCA-job geo_opt_tzvp E -549.037447285999
  N      -1.357943     -0.265731      1.848037
  C      -1.598500     -0.508116      0.424334
  C      -0.414397     -1.182040     -0.352536
  C       0.852700     -0.387081     -0.368716
  C       1.939233     -0.483833      0.480667
  N       2.830848      0.479817      0.059954
  C       2.275115      1.120290     -1.005701
  N       1.076878      0.624649     -1.296120
  C      -2.002437      0.793599     -0.253082
  O      -1.817729      1.914573      0.195387
  O      -2.594604      0.569655     -1.452746
  H      -1.122825     -1.160449      2.287815
  H      -0.522038      0.319368      1.951805
  H      -2.457572     -1.191101      0.333795
  H      -0.739075     -1.389069     -1.383377
  H      -0.237793     -2.150897      0.136995
  H       2.155932     -1.142715      1.314576
  H       3.743978      0.668384      0.464968
  H       2.780935      1.925820     -1.531157
  H      -2.790706      1.444878     -1.854899
20
Coordinates from ORCA-job geo_opt_tzvp E -549.037457430613
  N      -1.357162     -0.265919      1.846562
  C      -1.598030     -0.508064      0.423569
  C      -0.414016     -1.182231     -0.352772
  C       0.853097     -0.387448     -0.368863
  C       1.939641     -0.484053      0.480408
  N       2.830717      0.479597      0.059850
  C       2.274989      1.120021     -1.005273
  N       1.077107      0.624403     -1.295469
  C      -2.001506      0.793578     -0.253626
  O      -1.816726      1.913885      0.194606
  O      -2.595514      0.570397     -1.451322
  H      -1.123910     -1.159952      2.288654
  H      -0.522873      0.321214      1.952367
  H      -2.457243     -1.191125      0.333025
  H      -0.738763     -1.389290     -1.383670
  H      -0.237844     -2.151103      0.137074
  H       2.156416     -1.142826      1.314341
  H       3.743854      0.668357      0.465009
  H       2.780450      1.925911     -1.530394
  H      -2.792685      1.444649     -1.854074
20
Coordinates from ORCA-job geo_opt_tzvp E -549.037458996359
  N      -1.357134     -0.267488      1.846295
  C      -1.598326     -0.508573      0.424186
  C      -0.414427     -1.182564     -0.352492
  C       0.852476     -0.387628     -0.369098
  C       1.939957     -0.484314      0.479071
  N       2.829824      0.479953      0.058449
  C       2.273038      1.120781     -1.005466
  N       1.075521      0.624556     -1.294899
  C      -2.002013      0.793358     -0.252067
  O      -1.813641      1.913054      0.195005
  O      -2.590687      0.571444     -1.451353
  H      -1.126007     -1.160397      2.291162
  H      -0.526006      0.323086      1.955401
  H      -2.457454     -1.191859      0.333510
  H      -0.739687     -1.389595     -1.383343
  H      -0.238233     -2.151469      0.137363
  H       2.157663     -1.143333      1.312553
  H       3.743159      0.668974      0.463173
  H       2.777483      1.927452     -1.530337
  H      -2.785505      1.444562     -1.857114
20
Coordinates from ORCA-job geo_opt_tzvp E -549.037462016921
  N      -1.357586     -0.267371      1.844898
  C      -1.597587     -0.508191      0.422986
  C      -0.413146     -1.182358     -0.353073
  C       0.853909     -0.387685     -0.369173
  C       1.941124     -0.484524      0.479505
  N       2.831492      0.479276      0.058905
  C       2.275426      1.120009     -1.005500
  N       1.077818      0.624047     -1.295198
  C      -2.000719      0.793849     -0.253623
  O      -1.815425      1.913411      0.195444
  O      -2.596035      0.571595     -1.449282
  H      -1.127576     -1.159577      2.291270
  H      -0.528280      0.324951      1.956094
  H      -2.456468     -1.191673      0.331487
  H      -0.737842     -1.389628     -1.384064
  H      -0.237484     -2.151149      0.137124
  H       2.158211     -1.143352      1.313312
  H       3.744689      0.668027      0.463998
  H       2.780399      1.926306     -1.530482
  H      -2.794919      1.444037     -1.854630
20
Coordinates from ORCA-job geo_opt_tzvp E -549.037463116980
  N      -1.357909     -0.267563      1.845780
  C      -1.597965     -0.508398      0.423615
  C      -0.413565     -1.182297     -0.352890
  C       0.853397     -0.387449     -0.369129
  C       1.940606     -0.484220      0.479542
  N       2.831193      0.479457      0.058669
  C       2.274953      1.120209     -1.005837
  N       1.076985      0.624568     -1.295207
  C      -2.001289      0.793696     -0.252968
  O      -1.815511      1.913451      0.196045
  O      -2.594020      0.571343     -1.450351
  H      -1.126767     -1.160119      2.291059
  H      -0.528014      0.324246      1.956056
  H      -2.456785     -1.191882      0.332075
  H      -0.738383     -1.389480     -1.383813
  H      -0.237591     -2.151112      0.137115
  H       2.157766     -1.143077      1.313308
  H       3.744504      0.668072      0.463530
  H       2.779990      1.926333     -1.531006
  H      -2.791596      1.444223     -1.855594
20
Coordinates from ORCA-job geo_opt_tzvp E -549.037463199347
  N      -1.358010     -0.267631      1.845840
  C      -1.598017     -0.508423      0.423758
  C      -0.413598     -1.182292     -0.352877
  C       0.853379     -0.387489     -0.369190
  C       1.940714     -0.484443      0.479297
  N       2.831171      0.479453      0.058616
  C       2.274832      1.120340     -1.005781
  N       1.077007      0.624438     -1.295381
  C      -2.001332      0.793681     -0.252865
  O      -1.815397      1.913424      0.196203
  O      -2.593668      0.571327     -1.450413
  H      -1.126592     -1.160038      2.291224
  H      -0.528617      0.324797      1.956313
  H      -2.456771     -1.191974      0.332106
  H      -0.738477     -1.389479     -1.383773
  H      -0.237627     -2.151106      0.137131
  H       2.157937     -1.143406      1.312962
  H       3.744454      0.668101      0.463523
  H       2.779789      1.926579     -1.530847
  H      -2.791176      1.444141     -1.855845
