20
Coordinates from ORCA-job geo_opt_tzvp E -549.037463199347
  N          -1.35801045559105     -0.26763075189512      1.84583979109171
  C          -1.59801655851970     -0.50842256010117      0.42375750723898
  C          -0.41359782614070     -1.18229215110641     -0.35287742994288
  C           0.85337879071059     -0.38748888402412     -0.36919007938460
  C           1.94071365797994     -0.48444327088937      0.47929698220548
  N           2.83117076568776      0.47945316248515      0.05861572633092
  C           2.27483164922846      1.12033992871382     -1.00578102671717
  N           1.07700716858429      0.62443767442216     -1.29538100955849
  C          -2.00133154377507      0.79368117743628     -0.25286450848641
  O          -1.81539700777575      1.91342363304483      0.19620284204032
  O          -2.59366759416149      0.57132657202811     -1.45041343038517
  H          -1.12659249415058     -1.16003843885262      2.29122353603623
  H          -0.52861723108812      0.32479742712641      1.95631301372205
  H          -2.45677092256481     -1.19197350097378      0.33210577590619
  H          -0.73847740396886     -1.38947870732256     -1.38377253711620
  H          -0.23762719244942     -2.15110626665382      0.13713068169618
  H           2.15793723123090     -1.14340621834597      1.31296184756392
  H           3.74445383821362      0.66810106212190      0.46352340857479
  H           2.77978912287080      1.92657944194435     -1.53084654941637
  H          -2.79117603432081      1.44414071084195     -1.85584455139949
