20
neutral_epsilon conformer 2
N      -1.35794273    -0.26573116     1.84803747
C      -1.59849973    -0.50811563     0.42433356
C      -0.41439682    -1.18204041    -0.35253580
C       0.85269963    -0.38708100    -0.36871585
C       1.93923274    -0.48383256     0.48066702
N       2.83084804     0.47981722     0.05995356
C       2.27511483     1.12029006    -1.00570121
N       1.07687841     0.62464890    -1.29611963
C      -2.00243730     0.79359903    -0.25308182
O      -1.81772932     1.91457268     0.19538708
O      -2.59460404     0.56965497    -1.45274617
H      -1.12282534    -1.16044926     2.28781483
H      -0.52203763     0.31936803     1.95180477
H      -2.45757204    -1.19110103     0.33379543
H      -0.73907465    -1.38906934    -1.38337726
H      -0.23779297    -2.15089727     0.13699531
H       2.15593231    -1.14271533     1.31457646
H       3.74397802     0.66838383     0.46496811
H       2.78093491     1.92581995    -1.53115694
H      -2.79070636     1.44487836    -1.85489893
