20
Coordinates from ORCA-job geo_opt E -549.017602967065
  N      -1.178595      0.564061     -1.867655
  C      -1.499507     -0.165289     -0.656366
  C      -0.368768     -1.131015     -0.276352
  C       0.912914     -0.435461      0.035545
  C       1.221311      0.833175      0.449918
  N       2.568530      0.968407      0.610496
  C       3.073644     -0.195547      0.301808
  N       2.117899     -1.081445     -0.055032
  C      -1.877280      0.737956      0.515112
  O      -2.046329      1.935761      0.410733
  O      -2.056245      0.078319      1.642776
  H      -0.291760      1.045067     -1.746887
  H      -1.880647      1.279666     -2.026827
  H      -2.399055     -0.763426     -0.860802
  H      -0.691624     -1.717447      0.587687
  H      -0.212744     -1.806213     -1.118884
  H       0.572956      1.666251      0.639330
  H       4.118859     -0.426010      0.325143
  H       2.252299     -2.039704     -0.335462
  H      -2.335855      0.652895      2.382446
20
Coordinates from ORCA-job geo_opt E -549.022023108934
  N      -1.200362      0.581764     -1.867080
  C      -1.506784     -0.152214     -0.643088
  C      -0.348317     -1.097661     -0.251804
  C       0.959759     -0.416067      0.037827
  C       1.314507      0.857145      0.439891
  N       2.685165      0.955009      0.590318
  C       3.161152     -0.238647      0.282679
  N       2.159671     -1.095460     -0.060726
  C      -1.967305      0.742370      0.522861
  O      -2.190175      1.940326      0.414068
  O      -2.179784      0.054197      1.648251
  H      -0.335511      1.114798     -1.738738
  H      -1.937377      1.267295     -2.048954
  H      -2.380549     -0.793216     -0.853431
  H      -0.663423     -1.686331      0.621867
  H      -0.204448     -1.798744     -1.086201
  H       0.679830      1.716495      0.630340
  H       4.211330     -0.516697      0.294081
  H       2.264560     -2.068422     -0.337883
  H      -2.521938      0.634062      2.362450
20
Coordinates from ORCA-job geo_opt E -549.022535992889
  N      -1.208723      0.572739     -1.878064
  C      -1.507500     -0.153966     -0.645621
  C      -0.348708     -1.096922     -0.256232
  C       0.957573     -0.413927      0.037552
  C       1.312309      0.856953      0.457386
  N       2.688469      0.958160      0.610423
  C       3.165726     -0.238423      0.289406
  N       2.160632     -1.091143     -0.064127
  C      -1.974730      0.746500      0.516232
  O      -2.164572      1.952473      0.418930
  O      -2.176207      0.053726      1.652400
  H      -0.354553      1.124492     -1.749815
  H      -1.954808      1.248485     -2.064786
  H      -2.377857     -0.804838     -0.843709
  H      -0.662298     -1.696453      0.612625
  H      -0.203182     -1.797544     -1.093208
  H       0.668602      1.710497      0.657756
  H       4.214823     -0.526932      0.295622
  H       2.267894     -2.061847     -0.351220
  H      -2.502888      0.657968      2.355179
20
Coordinates from ORCA-job geo_opt E -549.022665190539
  N      -1.209211      0.564664     -1.874001
  C      -1.497375     -0.151766     -0.632171
  C      -0.339668     -1.093458     -0.247704
  C       0.967906     -0.411767      0.036433
  C       1.328378      0.856063      0.465210
  N       2.708561      0.957785      0.611974
  C       3.180915     -0.241328      0.276049
  N       2.170350     -1.088428     -0.078064
  C      -1.956752      0.757590      0.525812
  O      -2.142674      1.963541      0.431410
  O      -2.246917      0.047652      1.643364
  H      -0.368901      1.137833     -1.746208
  H      -1.965585      1.227852     -2.065583
  H      -2.366500     -0.810467     -0.811548
  H      -0.646647     -1.698540      0.620459
  H      -0.201467     -1.797194     -1.084083
  H       0.679574      1.703765      0.675811
  H       4.226050     -0.542569      0.268601
  H       2.276891     -2.056220     -0.374343
  H      -2.596927      0.674991      2.315310
20
Coordinates from ORCA-job geo_opt E -549.022829794475
  N      -1.204769      0.567063     -1.873850
  C      -1.499679     -0.152864     -0.636797
  C      -0.342118     -1.093246     -0.246451
  C       0.965152     -0.411662      0.037403
  C       1.324367      0.856279      0.461824
  N       2.701540      0.957672      0.610822
  C       3.174266     -0.239481      0.278344
  N       2.166830     -1.087706     -0.075369
  C      -1.964085      0.751882      0.520086
  O      -2.129958      1.959940      0.436863
  O      -2.236494      0.043950      1.642085
  H      -0.368874      1.144183     -1.737481
  H      -1.963194      1.225805     -2.071122
  H      -2.367961     -0.809495     -0.823592
  H      -0.650855     -1.694477      0.622933
  H      -0.202974     -1.799322     -1.079482
  H       0.676429      1.704046      0.667327
  H       4.218869     -0.539117      0.272637
  H       2.274977     -2.055320     -0.370185
  H      -2.571469      0.671867      2.320731
20
Coordinates from ORCA-job geo_opt E -549.022863044516
  N      -1.201579      0.566597     -1.873299
  C      -1.499417     -0.153057     -0.637202
  C      -0.341953     -1.092814     -0.243106
  C       0.965624     -0.411743      0.038775
  C       1.324589      0.854915      0.464970
  N       2.700673      0.957384      0.608395
  C       3.173445     -0.238034      0.275028
  N       2.166962     -1.087287     -0.076009
  C      -1.962618      0.750974      0.518684
  O      -2.111306      1.960863      0.443879
  O      -2.248197      0.041478      1.637110
  H      -0.372835      1.152508     -1.731508
  H      -1.964995      1.216903     -2.078865
  H      -2.367658     -0.808719     -0.825834
  H      -0.651210     -1.691265      0.627759
  H      -0.203495     -1.801291     -1.073881
  H       0.676039      1.701307      0.672236
  H       4.217922     -0.537179      0.265766
  H       2.276323     -2.054256     -0.372060
  H      -2.576316      0.672717      2.315892
20
Coordinates from ORCA-job geo_opt E -549.022888480658
  N      -1.196572      0.564064     -1.872318
  C      -1.498559     -0.153461     -0.636261
  C      -0.341275     -1.092290     -0.236263
  C       0.967183     -0.411880      0.041820
  C       1.326880      0.853223      0.470937
  N       2.702051      0.955230      0.610525
  C       3.174825     -0.236697      0.269173
  N       2.168482     -1.085627     -0.082101
  C      -1.959650      0.751566      0.517805
  O      -2.083358      1.964244      0.453366
  O      -2.272356      0.039854      1.628916
  H      -0.380581      1.165697     -1.723281
  H      -1.968720      1.198735     -2.093174
  H      -2.366326     -0.808568     -0.826820
  H      -0.651514     -1.685995      0.637445
  H      -0.204016     -1.804998     -1.063482
  H       0.677492      1.697442      0.683589
  H       4.219229     -0.535677      0.253831
  H       2.279023     -2.050478     -0.384323
  H      -2.592241      0.675614      2.307346
20
Coordinates from ORCA-job geo_opt E -549.022909748468
  N      -1.189707      0.561255     -1.871009
  C      -1.497260     -0.153671     -0.634938
  C      -0.340337     -1.091402     -0.227445
  C       0.969489     -0.411826      0.046088
  C       1.331085      0.850668      0.481757
  N       2.706754      0.953336      0.610219
  C       3.178493     -0.235779      0.259667
  N       2.170431     -1.084262     -0.089136
  C      -1.958171      0.753183      0.516915
  O      -2.056606      1.968638      0.461401
  O      -2.302225      0.039760      1.618574
  H      -0.389896      1.182036     -1.713747
  H      -1.972062      1.175859     -2.111414
  H      -2.363593     -0.809061     -0.828791
  H      -0.652271     -1.678621      0.650125
  H      -0.204262     -1.809449     -1.050227
  H       0.681594      1.692253      0.704384
  H       4.223013     -0.534077      0.234955
  H       2.280696     -2.046877     -0.398499
  H      -2.615165      0.678038      2.297849
20
Coordinates from ORCA-job geo_opt E -549.022932114481
  N      -1.178281      0.556983     -1.868451
  C      -1.494891     -0.154249     -0.632631
  C      -0.339217     -1.090234     -0.213207
  C       0.972620     -0.411606      0.053442
  C       1.337983      0.847116      0.498281
  N       2.715027      0.949243      0.613918
  C       3.184390     -0.235289      0.244661
  N       2.172770     -1.081281     -0.102522
  C      -1.959465      0.756007      0.515105
  O      -2.027920      1.974275      0.467662
  O      -2.342215      0.042301      1.604092
  H      -0.401710      1.203571     -1.700034
  H      -1.973094      1.143395     -2.136396
  H      -2.358236     -0.811139     -0.832076
  H      -0.654125     -1.667021      0.670394
  H      -0.204271     -1.816683     -1.028733
  H       0.689556      1.685132      0.737250
  H       4.228942     -0.532381      0.205635
  H       2.280953     -2.039921     -0.424812
  H      -2.648816      0.681778      2.285150
20
Coordinates from ORCA-job geo_opt E -549.022947914642
  N      -1.166478      0.552953     -1.865763
  C      -1.492139     -0.155227     -0.630621
  C      -0.338572     -1.089696     -0.199523
  C       0.974875     -0.411589      0.061069
  C       1.343835      0.842701      0.516400
  N       2.722725      0.945644      0.617093
  C       3.189236     -0.234850      0.229360
  N       2.174061     -1.077833     -0.116059
  C      -1.963598      0.758798      0.512175
  O      -2.012915      1.978455      0.466327
  O      -2.372841      0.047183      1.592084
  H      -0.408292      1.218485     -1.688197
  H      -1.969045      1.118205     -2.155075
  H      -2.352445     -0.814027     -0.835375
  H      -0.656553     -1.656423      0.689609
  H      -0.203931     -1.824178     -1.007791
  H       0.697237      1.677014      0.772912
  H       4.233816     -0.529707      0.175481
  H       2.279054     -2.032435     -0.451349
  H      -2.678032      0.686527      2.273971
20
Coordinates from ORCA-job geo_opt E -549.022961689262
  N      -1.153330      0.546777     -1.863620
  C      -1.488889     -0.157090     -0.628788
  C      -0.338536     -1.090028     -0.184503
  C       0.976242     -0.412167      0.070252
  C       1.348336      0.836011      0.539798
  N       2.728839      0.940859      0.624680
  C       3.192650     -0.233032      0.211855
  N       2.174558     -1.072497     -0.132837
  C      -1.968749      0.762242      0.507183
  O      -2.003743      1.982459      0.458646
  O      -2.398560      0.055297      1.580966
  H      -0.410318      1.227049     -1.678085
  H      -1.960464      1.095720     -2.171133
  H      -2.346618     -0.817662     -0.837860
  H      -0.660093     -1.645995      0.710154
  H      -0.203498     -1.833303     -0.984460
  H       0.703687      1.664874      0.818022
  H       4.237257     -0.523868      0.140029
  H       2.276103     -2.021487     -0.484864
  H      -2.704875      0.695841      2.261295
20
Coordinates from ORCA-job geo_opt E -549.022991179717
  N      -1.125017      0.530278     -1.859954
  C      -1.482010     -0.162000     -0.624864
  C      -0.339111     -1.091101     -0.151373
  C       0.978491     -0.414043      0.091144
  C       1.357494      0.818312      0.595398
  N       2.740043      0.929516      0.643686
  C       3.197421     -0.226564      0.173739
  N       2.174035     -1.057999     -0.171902
  C      -1.978578      0.770058      0.494671
  O      -1.985194      1.990580      0.440183
  O      -2.449970      0.075090      1.556906
  H      -0.410439      1.236707     -1.660833
  H      -1.937531      1.049529     -2.203046
  H      -2.335296     -0.825555     -0.841299
  H      -0.668581     -1.623573      0.754592
  H      -0.203220     -1.853541     -0.932544
  H       0.717585      1.632253      0.923924
  H       4.241275     -0.506622      0.060938
  H       2.268150     -1.992232     -0.563460
  H      -2.759548      0.720908      2.230822
20
Coordinates from ORCA-job geo_opt E -549.023046736645
  N      -1.057957      0.486115     -1.851287
  C      -1.464761     -0.175817     -0.615565
  C      -0.341667     -1.093535     -0.072535
  C       0.982535     -0.419604      0.142975
  C       1.384316      0.765420      0.734308
  N       2.767253      0.896830      0.694745
  C       3.199983     -0.204586      0.083296
  N       2.162838     -1.013358     -0.266260
  C      -2.001602      0.788610      0.460352
  O      -1.955680      2.007213      0.384511
  O      -2.553585      0.126418      1.499384
  H      -0.403056      1.242507     -1.630607
  H      -1.872611      0.945338     -2.267838
  H      -2.308081     -0.846951     -0.845753
  H      -0.690501     -1.569775      0.856964
  H      -0.203240     -1.899464     -0.807247
  H       0.764217      1.533793      1.186826
  H       4.236476     -0.451691     -0.128674
  H       2.231793     -1.903523     -0.754312
  H      -2.876670      0.786061      2.153444
20
Coordinates from ORCA-job geo_opt E -549.023021356862
  N      -1.038816      0.446250     -1.861212
  C      -1.459113     -0.190942     -0.617034
  C      -0.350661     -1.109309     -0.052171
  C       0.970848     -0.430870      0.166483
  C       1.371566      0.722818      0.814072
  N       2.751704      0.882023      0.742310
  C       3.180877     -0.177844      0.054073
  N       2.147616     -0.977790     -0.312181
  C      -2.004933      0.801287      0.432228
  O      -1.998147      2.014091      0.289617
  O      -2.507212      0.174299      1.511495
  H      -0.337692      1.162855     -1.645905
  H      -1.832995      0.962732     -2.250901
  H      -2.310926     -0.857928     -0.834083
  H      -0.708714     -1.573867      0.878962
  H      -0.203201     -1.925003     -0.773569
  H       0.757817      1.455856      1.329776
  H       4.214981     -0.391036     -0.200378
  H       2.208771     -1.838401     -0.851655
  H      -2.851771      0.850779      2.136801
20
Coordinates from ORCA-job geo_opt E -549.023162030638
  N      -1.024588      0.435060     -1.859167
  C      -1.455863     -0.193042     -0.614487
  C      -0.350426     -1.108799     -0.034421
  C       0.973101     -0.433113      0.178926
  C       1.380850      0.707649      0.845873
  N       2.758618      0.872785      0.754752
  C       3.180516     -0.168213      0.034973
  N       2.143716     -0.966167     -0.330141
  C      -1.995258      0.806924      0.429411
  O      -1.929637      2.021004      0.313092
  O      -2.559449      0.183946      1.482140
  H      -0.365373      1.189322     -1.641432
  H      -1.828654      0.900565     -2.289981
  H      -2.305655     -0.859900     -0.835528
  H      -0.713147     -1.559302      0.901942
  H      -0.205416     -1.933079     -0.746475
  H       0.770910      1.425875      1.386681
  H       4.210787     -0.372514     -0.241983
  H       2.200509     -1.813666     -0.890314
  H      -2.885543      0.864664      2.112870
20
Coordinates from ORCA-job geo_opt E -549.023355451142
  N      -1.024994      0.406579     -1.870621
  C      -1.457772     -0.199994     -0.615922
  C      -0.354792     -1.117754     -0.028651
  C       0.967294     -0.442576      0.191911
  C       1.370011      0.680428      0.892421
  N       2.742649      0.865131      0.788446
  C       3.169341     -0.143640      0.029648
  N       2.137414     -0.944487     -0.350052
  C      -1.960813      0.818512      0.424527
  O      -1.826766      2.029120      0.331601
  O      -2.577374      0.214412      1.463240
  H      -0.388147      1.183148     -1.666398
  H      -1.833666      0.835832     -2.328830
  H      -2.315822     -0.858106     -0.826341
  H      -0.722014     -1.563515      0.908157
  H      -0.211084     -1.943209     -0.739780
  H       0.754206      1.370693      1.462408
  H       4.198010     -0.327085     -0.267767
  H       2.200576     -1.770460     -0.940540
  H      -2.866257      0.906969      2.099273
20
Coordinates from ORCA-job geo_opt E -549.023611349081
  N      -1.015000      0.361436     -1.884650
  C      -1.457415     -0.212203     -0.617518
  C      -0.362515     -1.128604     -0.009245
  C       0.959810     -0.455448      0.215341
  C       1.365814      0.628099      0.974182
  N       2.730421      0.842703      0.842419
  C       3.150614     -0.106738      0.008418
  N       2.121271     -0.902914     -0.389995
  C      -1.937093      0.834855      0.402549
  O      -1.771500      2.040307      0.294640
  O      -2.573361      0.262623      1.449575
  H      -0.375824      1.139969     -1.695030
  H      -1.818567      0.783449     -2.358104
  H      -2.324276     -0.862288     -0.814437
  H      -0.738297     -1.560047      0.930533
  H      -0.219483     -1.963166     -0.709616
  H       0.754851      1.267489      1.605346
  H       4.172671     -0.253397     -0.329320
  H       2.181120     -1.689755     -1.031824
  H      -2.843242      0.973630      2.073464
20
Coordinates from ORCA-job geo_opt E -549.023878941839
  N      -0.999575      0.319913     -1.893401
  C      -1.454329     -0.223445     -0.617001
  C      -0.368934     -1.137336      0.014604
  C       0.954555     -0.466814      0.238549
  C       1.370741      0.574282      1.049659
  N       2.726950      0.816986      0.888737
  C       3.132608     -0.073010     -0.015123
  N       2.101498     -0.858357     -0.430161
  C      -1.922114      0.849369      0.380193
  O      -1.732404      2.049428      0.254043
  O      -2.576755      0.307090      1.432400
  H      -0.358481      1.099726     -1.715092
  H      -1.797411      0.736182     -2.381511
  H      -2.327293     -0.867999     -0.804233
  H      -0.753198     -1.551288      0.958467
  H      -0.226727     -1.983311     -0.671977
  H       0.771693      1.162173      1.739802
  H       4.145325     -0.183826     -0.392354
  H       2.150957     -1.603891     -1.120518
  H      -2.837105      1.034127      2.041646
20
Coordinates from ORCA-job geo_opt E -549.024172493181
  N      -0.983124      0.279686     -1.900440
  C      -1.450438     -0.234279     -0.616107
  C      -0.375050     -1.145275      0.039152
  C       0.950002     -0.478232      0.261244
  C       1.379900      0.517701      1.120522
  N       2.726606      0.789109      0.931232
  C       3.113170     -0.038327     -0.038241
  N       2.078928     -0.812013     -0.466964
  C      -1.907964      0.862920      0.357931
  O      -1.694022      2.056928      0.214591
  O      -2.582348      0.350327      1.412734
  H      -0.340538      1.060832     -1.732988
  H      -1.775240      0.689508     -2.403188
  H      -2.328982     -0.873460     -0.794882
  H      -0.767417     -1.540235      0.987415
  H      -0.234486     -2.003365     -0.632549
  H       0.796505      1.051852      1.865838
  H       4.114379     -0.111820     -0.453364
  H       2.114723     -1.514098     -1.202436
  H      -2.834605      1.092241      2.007226
20
Coordinates from ORCA-job geo_opt E -549.024462652909
  N      -0.969194      0.238850     -1.908062
  C      -1.446590     -0.245016     -0.615436
  C      -0.380873     -1.152894      0.062353
  C       0.945643     -0.489846      0.283046
  C       1.391277      0.457727      1.187775
  N       2.727383      0.759133      0.972707
  C       3.092052     -0.001907     -0.057844
  N       2.054045     -0.762961     -0.499928
  C      -1.891437      0.876227      0.335810
  O      -1.650734      2.063140      0.176838
  O      -2.586605      0.394324      1.391800
  H      -0.325292      1.021650     -1.753555
  H      -1.756678      0.640544     -2.424517
  H      -2.331097     -0.878365     -0.784538
  H      -0.780771     -1.528863      1.014787
  H      -0.242212     -2.022466     -0.594861
  H       0.825526      0.935190      1.983691
  H       4.080197     -0.036260     -0.507893
  H       2.074269     -1.418930     -1.277406
  H      -2.828907      1.150723      1.971961
20
Coordinates from ORCA-job geo_opt E -549.024749220570
  N      -0.957513      0.197021     -1.916040
  C      -1.442886     -0.255998     -0.614909
  C      -0.386751     -1.160829      0.084075
  C       0.941083     -0.501889      0.303526
  C       1.403717      0.394922      1.250383
  N       2.728296      0.727435      1.012944
  C       3.068943      0.036585     -0.073742
  N       2.026852     -0.710992     -0.529299
  C      -1.871796      0.889023      0.314104
  O      -1.601101      2.067508      0.141085
  O      -2.588919      0.439276      1.369848
  H      -0.311418      0.980795     -1.776139
  H      -1.741068      0.590317     -2.444830
  H      -2.334108     -0.882462     -0.773063
  H      -0.793593     -1.517521      1.040587
  H      -0.250649     -2.041534     -0.558808
  H       0.856839      0.813560      2.091509
  H       4.042758      0.043255     -0.555238
  H       2.030284     -1.318292     -1.345438
  H      -2.818970      1.209821      1.936174
20
Coordinates from ORCA-job geo_opt E -549.025082910877
  N      -0.974541      0.148164     -1.936890
  C      -1.445111     -0.267275     -0.615827
  C      -0.389660     -1.167408      0.093774
  C       0.936912     -0.513847      0.319064
  C       1.409944      0.329715      1.308783
  N       2.722610      0.694017      1.062534
  C       3.046491      0.079082     -0.071074
  N       2.003899     -0.655257     -0.550562
  C      -1.845466      0.901841      0.289988
  O      -1.568323      2.074230      0.088424
  O      -2.559585      0.486651      1.364845
  H      -0.289918      0.903467     -1.828246
  H      -1.753727      0.565687     -2.453459
  H      -2.346897     -0.884811     -0.747170
  H      -0.796866     -1.510663      1.054306
  H      -0.259284     -2.055772     -0.541528
  H       0.875585      0.681372      2.187778
  H       4.008269      0.125940     -0.574292
  H       2.001366     -1.212764     -1.401026
  H      -2.775697      1.277632      1.907307
20
Coordinates from ORCA-job geo_opt E -549.025428226494
  N      -0.973447      0.077321     -1.952579
  C      -1.443296     -0.283941     -0.615698
  C      -0.398930     -1.177800      0.118842
  C       0.929213     -0.529821      0.344082
  C       1.432608      0.225316      1.388623
  N       2.726042      0.638887      1.121278
  C       3.008720      0.141655     -0.078682
  N       1.957733     -0.565487     -0.581278
  C      -1.815694      0.921153      0.253262
  O      -1.510211      2.080272      0.017855
  O      -2.539718      0.556958      1.340515
  H      -0.256363      0.805576     -1.873939
  H      -1.741924      0.512460     -2.470573
  H      -2.356809     -0.889104     -0.722117
  H      -0.813961     -1.494525      1.084805
  H      -0.273344     -2.080316     -0.497394
  H       0.931943      0.477380      2.320336
  H       3.945915      0.254789     -0.616885
  H       1.928445     -1.041548     -1.479427
  H      -2.736922      1.370774      1.855703
20
Coordinates from ORCA-job geo_opt E -549.025532586938
  N      -0.957980      0.001702     -1.964327
  C      -1.437734     -0.301654     -0.616845
  C      -0.409374     -1.180267      0.162496
  C       0.925360     -0.543155      0.376454
  C       1.488397      0.083357      1.474219
  N       2.757728      0.550126      1.180702
  C       2.967472      0.211740     -0.087641
  N       1.893254     -0.446029     -0.608805
  C      -1.781924      0.942052      0.206512
  O      -1.398735      2.076459     -0.035667
  O      -2.564791      0.641181      1.272304
  H      -0.261978      0.752914     -1.917179
  H      -1.730383      0.386211     -2.515548
  H      -2.358918     -0.896949     -0.703905
  H      -0.836412     -1.445940      1.138317
  H      -0.295007     -2.109810     -0.414739
  H       1.045325      0.205694      2.459472
  H       3.867124      0.406917     -0.664938
  H       1.812865     -0.807545     -1.556041
  H      -2.724289      1.472997      1.771887
20
Coordinates from ORCA-job geo_opt E -549.025583190805
  N      -0.979200      0.017122     -1.968979
  C      -1.442785     -0.297622     -0.619123
  C      -0.405225     -1.175370      0.144084
  C       0.926146     -0.532713      0.365049
  C       1.472043      0.120012      1.455894
  N       2.752171      0.567084      1.176031
  C       2.985042      0.189847     -0.077192
  N       1.916259     -0.474079     -0.601362
  C      -1.801471      0.937978      0.212666
  O      -1.473243      2.084409     -0.052498
  O      -2.532824      0.616489      1.308038
  H      -0.250733      0.736581     -1.919162
  H      -1.745672      0.447405     -2.493847
  H      -2.360361     -0.900201     -0.701465
  H      -0.828469     -1.455477      1.117899
  H      -0.286051     -2.098434     -0.442548
  H       1.010895      0.275941      2.428106
  H       3.897999      0.360765     -0.641249
  H       1.855150     -0.866745     -1.537797
  H      -2.709670      1.447010      1.804184
20
Coordinates from ORCA-job geo_opt E -549.025591880629
  N      -0.971920      0.034593     -1.963798
  C      -1.441545     -0.293544     -0.619197
  C      -0.402585     -1.168980      0.145336
  C       0.929912     -0.526700      0.362015
  C       1.476647      0.135642      1.446500
  N       2.761548      0.568778      1.166298
  C       2.996609      0.172918     -0.080805
  N       1.924286     -0.488178     -0.601071
  C      -1.810389      0.934378      0.219631
  O      -1.473250      2.082281     -0.027365
  O      -2.560355      0.602643      1.298951
  H      -0.270538      0.779871     -1.905981
  H      -1.746082      0.436225     -2.499958
  H      -2.353911     -0.902251     -0.710643
  H      -0.825568     -1.446305      1.120130
  H      -0.283890     -2.094066     -0.438177
  H       1.012793      0.309764      2.414199
  H       3.913214      0.329879     -0.642904
  H       1.863944     -0.893231     -1.532139
  H      -2.738920      1.426282      1.805706
20
Coordinates from ORCA-job geo_opt E -549.025597561935
  N      -0.973805      0.026202     -1.966278
  C      -1.441960     -0.295693     -0.619831
  C      -0.403500     -1.168864      0.147435
  C       0.928846     -0.526676      0.364009
  C       1.480262      0.122325      1.454035
  N       2.763820      0.559290      1.173402
  C       2.993332      0.178761     -0.079454
  N       1.918828     -0.476076     -0.603171
  C      -1.808292      0.936318      0.214398
  O      -1.471480      2.082939     -0.039009
  O      -2.555280      0.610051      1.297359
  H      -0.267381      0.767041     -1.912111
  H      -1.746687      0.431310     -2.501661
  H      -2.355169     -0.903832     -0.707317
  H      -0.827131     -1.441742      1.123169
  H      -0.285193     -2.096440     -0.432228
  H       1.020273      0.285837      2.425451
  H       3.907035      0.343725     -0.644045
  H       1.855124     -0.870477     -1.538584
  H      -2.731642      1.436001      1.801160
20
Coordinates from ORCA-job geo_opt E -549.025598373711
  N      -0.975640      0.023735     -1.967471
  C      -1.442591     -0.296364     -0.620256
  C      -0.403626     -1.168356      0.147325
  C       0.928417     -0.525727      0.363949
  C       1.481095      0.118435      1.456122
  N       2.764719      0.555806      1.176208
  C       2.993106      0.179840     -0.078180
  N       1.917866     -0.472447     -0.603690
  C      -1.807930      0.936847      0.212835
  O      -1.471949      2.083203     -0.042832
  O      -2.552962      0.612018      1.297640
  H      -0.267461      0.763007     -1.914697
  H      -1.748255      0.430014     -2.502329
  H      -2.355929     -0.904595     -0.705931
  H      -0.827038     -1.439972      1.123535
  H      -0.285109     -2.096821     -0.430888
  H       1.021482      0.279782      2.428082
  H       3.906180      0.347104     -0.643139
  H       1.853976     -0.864170     -1.540210
  H      -2.728350      1.438661      1.800656
