20
Coordinates from ORCA-job geo_opt E -549.025598373711
  N          -0.97564025909754      0.02373546152328     -1.96747105164295
  C          -1.44259070229793     -0.29636436106367     -0.62025648464535
  C          -0.40362602361208     -1.16835648062920      0.14732521109640
  C           0.92841728000012     -0.52572710470003      0.36394866267110
  C           1.48109509371990      0.11843455064713      1.45612170145429
  N           2.76471947483433      0.55580636224427      1.17620758718132
  C           2.99310598287766      0.17984031834261     -0.07817976503136
  N           1.91786580075792     -0.47244698692163     -0.60368971277672
  C          -1.80793036742918      0.93684706336275      0.21283521916478
  O          -1.47194909796452      2.08320267823074     -0.04283216608908
  O          -2.55296226294349      0.61201845451020      1.29764041060035
  H          -0.26746124582464      0.76300718811658     -1.91469712980764
  H          -1.74825517643762      0.43001435642139     -2.50232917517570
  H          -2.35592901286423     -0.90459525011316     -0.70593089088103
  H          -0.82703757464902     -1.43997163985170      1.12353473082911
  H          -0.28510891219657     -2.09682118040488     -0.43088785685719
  H           1.02148171614706      0.27978164929938      2.42808191687531
  H           3.90617981518937      0.34710433185480     -0.64313877148960
  H           1.85397590985351     -0.86416995775230     -1.54021046365823
  H          -2.72835041806307      1.43866053688343      1.80065622818222
