20
neutral_delta conformer 2
N      -1.17859523     0.56406089    -1.86765464
C      -1.49950714    -0.16528866    -0.65636593
C      -0.36876840    -1.13101543    -0.27635226
C       0.91291369    -0.43546134     0.03554526
C       1.22131069     0.83317486     0.44991836
N       2.56852954     0.96840720     0.61049628
C       3.07364392    -0.19554668     0.30180760
N       2.11789887    -1.08144539    -0.05503236
C      -1.87727975     0.73795639     0.51511184
O      -2.04632893     1.93576126     0.41073344
O      -2.05624521     0.07831874     1.64277571
H      -0.29176032     1.04506660    -1.74688661
H      -1.88064729     1.27966587    -2.02682718
H      -2.39905467    -0.76342562    -0.86080187
H      -0.69162396    -1.71744726     0.58768730
H      -0.21274423    -1.80621282    -1.11888395
H       0.57295560     1.66625076     0.63932967
H       4.11885945    -0.42600979     0.32514308
H       2.25229876    -2.03970442    -0.33546159
H      -2.33585537     0.65289483     2.38244605
