14
Coordinates from ORCA-job geo_opt_tzvp E -399.178692634757
  N      -1.259312     -0.929128      0.196447
  C      -0.096553     -0.037062      0.528514
  C       1.195702     -0.507079     -0.156797
  O       2.274692      0.358756      0.190196
  C      -0.512763      1.409377      0.121133
  O      -1.734939      1.589186     -0.139305
  O       0.416677      2.271456      0.105311
  H      -2.048526     -0.253032      0.043372
  H      -1.491645     -1.595099      0.941869
  H      -1.115165     -1.457012     -0.675048
  H       0.034580     -0.059286      1.619159
  H       1.450016     -1.524596      0.175346
  H       1.032340     -0.533309     -1.252624
  H       1.854895      1.266828      0.154964
14
Coordinates from ORCA-job geo_opt_tzvp E -399.178697369407
  N      -1.258650     -0.928777      0.196155
  C      -0.096796     -0.037069      0.528061
  C       1.195503     -0.507289     -0.156539
  O       2.273319      0.358660      0.189529
  C      -0.512765      1.409280      0.120419
  O      -1.734351      1.589919     -0.137970
  O       0.415735      2.271214      0.107951
  H      -2.048063     -0.252946      0.042179
  H      -1.491356     -1.594342      0.941756
  H      -1.113939     -1.457144     -0.674919
  H       0.034340     -0.059096      1.618937
  H       1.450107     -1.524538      0.176580
  H       1.032132     -0.534713     -1.252528
  H       1.854785      1.266842      0.152928
14
Coordinates from ORCA-job geo_opt_tzvp E -399.178640116613
  N      -1.256834     -0.927623      0.197121
  C      -0.097687     -0.037080      0.529421
  C       1.194127     -0.505464     -0.156378
  O       2.270202      0.356591      0.191740
  C      -0.514964      1.410273      0.126322
  O      -1.732199      1.588976     -0.141470
  O       0.415418      2.266215      0.094994
  H      -2.047979     -0.253084      0.044417
  H      -1.488659     -1.594851      0.941338
  H      -1.111741     -1.454339     -0.674828
  H       0.034787     -0.061851      1.620685
  H       1.448161     -1.524374      0.173208
  H       1.030075     -0.529577     -1.252949
  H       1.857292      1.266187      0.158919
14
Coordinates from ORCA-job geo_opt_tzvp E -399.178699905867
  N      -1.258383     -0.928633      0.196432
  C      -0.096974     -0.037041      0.528100
  C       1.195468     -0.506907     -0.156569
  O       2.272941      0.357993      0.189844
  C      -0.513236      1.409695      0.121055
  O      -1.734191      1.589701     -0.138793
  O       0.415494      2.270859      0.105850
  H      -2.048382     -0.253335      0.042823
  H      -1.490874     -1.594572      0.941778
  H      -1.113869     -1.456770     -0.674850
  H       0.034673     -0.059193      1.618980
  H       1.449743     -1.524583      0.175737
  H       1.031756     -0.533882     -1.252686
  H       1.855835      1.266667      0.154839
14
Coordinates from ORCA-job geo_opt_tzvp E -399.178698853113
  N      -1.258372     -0.928616      0.196378
  C      -0.097035     -0.037057      0.528151
  C       1.195537     -0.506901     -0.156440
  O       2.272940      0.358070      0.189512
  C      -0.513265      1.409869      0.121292
  O      -1.734138      1.589686     -0.139258
  O       0.415415      2.271150      0.106893
  H      -2.048476     -0.253498      0.042803
  H      -1.490949     -1.594693      0.941589
  H      -1.113876     -1.456672     -0.674964
  H       0.034662     -0.059201      1.619016
  H       1.449805     -1.524514      0.176098
  H       1.031567     -0.534443     -1.252529
  H       1.856186      1.266819      0.153999
