14
Coordinates from ORCA-job geo_opt_tzvp E -399.178698853113
  N          -1.25837218506320     -0.92861599267877      0.19637837099401
  C          -0.09703547544204     -0.03705679706022      0.52815143112052
  C           1.19553688725648     -0.50690091927759     -0.15644024269406
  O           2.27293995760644      0.35806991956972      0.18951193681946
  C          -0.51326505483503      1.40986903388003      0.12129190905036
  O          -1.73413750283927      1.58968622605076     -0.13925791073291
  O           0.41541511768138      2.27115025169036      0.10689341262106
  H          -2.04847637128312     -0.25349819943105      0.04280316207301
  H          -1.49094916325370     -1.59469286236304      0.94158850479919
  H          -1.11387617724733     -1.45667235628325     -0.67496397918854
  H           0.03466210317949     -0.05920073875077      1.61901567433163
  H           1.44980459978366     -1.52451373387816      0.17609764189954
  H           1.03156687492678     -0.53444292138042     -1.25252939238057
  H           1.85618636952947      1.26681904991239      0.15399860128731
