14
zwitterion conformer 1
N      -1.25931228    -0.92912791     0.19644718
C      -0.09655320    -0.03706222     0.52851374
C       1.19570169    -0.50707893    -0.15679739
O       2.27469204     0.35875616     0.19019632
C      -0.51276258     1.40937675     0.12113287
O      -1.73493875     1.58918595    -0.13930479
O       0.41667700     2.27145582     0.10531135
H      -2.04852607    -0.25303185     0.04337196
H      -1.49164490    -1.59509878     0.94186948
H      -1.11516456    -1.45701184    -0.67504761
H       0.03458036    -0.05928612     1.61915932
H       1.45001632    -1.52459587     0.17534631
H       1.03234031    -0.53330923    -1.25262376
H       1.85489460     1.26682803     0.15496414
