20
Coordinates from ORCA-job geo_opt_tzvp E -549.037329707574
  N          -0.97920829512706      0.02160389522682     -1.96751691310004
  C          -1.44355645417741     -0.29581107067520     -0.62090859681519
  C          -0.40468084067938     -1.16882320749129      0.14534084534257
  C           0.92650453190946     -0.52549256436442      0.36373066701060
  C           1.47837359677300      0.11591500865168      1.45801756063940
  N           2.76100211026013      0.55494073361963      1.17971505460090
  C           2.99049977412019      0.18249153501582     -0.07489426529475
  N           1.91613496472264     -0.46850637841947     -0.60268889757630
  C          -1.80548365010818      0.93873583897551      0.21197995986973
  O          -1.47599249855455      2.08467078753844     -0.05027516411089
  O          -2.53859028643444      0.61529320079284      1.30289809592095
  H          -0.26369611252219      0.75377260590549     -1.92242624805066
  H          -1.74947720462051      0.42438889883564     -2.50767720318411
  H          -2.35852248710062     -0.90236268813505     -0.70405678583469
  H          -0.82817788494655     -1.44250261462182      1.12101815654961
  H          -0.28556012231778     -2.09628897792134     -0.43455904344960
  H           1.01806876676567      0.27460015111298      2.43007758622675
  H           3.90356954664026      0.35229980889250     -0.63902323879603
  H           1.85381406172627     -0.85872059196959     -1.54008284468636
  H          -2.71502149632895      1.43979561903082      1.80805947473812
