20
Coordinates from ORCA-job geo_opt_tzvp E -549.037317106933
  N      -0.975640      0.023735     -1.967471
  C      -1.442591     -0.296364     -0.620256
  C      -0.403626     -1.168356      0.147325
  C       0.928417     -0.525727      0.363949
  C       1.481095      0.118435      1.456122
  N       2.764719      0.555806      1.176208
  C       2.993106      0.179840     -0.078180
  N       1.917866     -0.472447     -0.603690
  C      -1.807930      0.936847      0.212835
  O      -1.471949      2.083203     -0.042832
  O      -2.552962      0.612018      1.297640
  H      -0.267461      0.763007     -1.914697
  H      -1.748255      0.430014     -2.502329
  H      -2.355929     -0.904595     -0.705931
  H      -0.827038     -1.439972      1.123535
  H      -0.285109     -2.096821     -0.430888
  H       1.021482      0.279782      2.428082
  H       3.906180      0.347104     -0.643139
  H       1.853976     -0.864170     -1.540210
  H      -2.728350      1.438661      1.800656
20
Coordinates from ORCA-job geo_opt_tzvp E -549.037326801942
  N      -0.976832      0.022396     -1.967333
  C      -1.443114     -0.296586     -0.620368
  C      -0.404171     -1.168933      0.146491
  C       0.927264     -0.525687      0.363918
  C       1.479487      0.117453      1.456810
  N       2.762331      0.555962      1.177441
  C       2.991143      0.181411     -0.076806
  N       1.916542     -0.470462     -0.603163
  C      -1.806204      0.937195      0.212234
  O      -1.470120      2.082546     -0.044462
  O      -2.547443      0.613997      1.298820
  H      -0.265830      0.759184     -1.917265
  H      -1.748615      0.427509     -2.504293
  H      -2.357312     -0.903924     -0.705066
  H      -0.827631     -1.441671      1.122468
  H      -0.285095     -2.096858     -0.432669
  H       1.019666      0.277665      2.428836
  H       3.904063      0.350080     -0.641505
  H       1.853103     -0.861108     -1.540295
  H      -2.721232      1.439832      1.802933
20
Coordinates from ORCA-job geo_opt_tzvp E -549.037328898948
  N      -0.978642      0.021941     -1.966411
  C      -1.443244     -0.296129     -0.619604
  C      -0.403950     -1.169275      0.145823
  C       0.927198     -0.525795      0.363717
  C       1.479463      0.115992      1.457448
  N       2.761883      0.554769      1.178495
  C       2.990578      0.182395     -0.076089
  N       1.916383     -0.469195     -0.602969
  C      -1.803771      0.938038      0.213509
  O      -1.471075      2.083230     -0.046312
  O      -2.545693      0.616353      1.298871
  H      -0.264327      0.755444     -1.920081
  H      -1.749483      0.425229     -2.505687
  H      -2.358260     -0.902595     -0.702915
  H      -0.827007     -1.443435      1.121620
  H      -0.284852     -2.096464     -0.434594
  H       1.019685      0.275010      2.429701
  H       3.903296      0.352297     -0.640730
  H       1.853307     -0.859063     -1.540475
  H      -2.721488      1.441253      1.803411
20
Coordinates from ORCA-job geo_opt_tzvp E -549.037317417170
  N      -0.985851      0.014359     -1.968845
  C      -1.444835     -0.296458     -0.620236
  C      -0.404997     -1.170617      0.143480
  C       0.925066     -0.526357      0.364894
  C       1.477477      0.106666      1.463895
  N       2.758680      0.548936      1.187712
  C       2.986618      0.189152     -0.070285
  N       1.913235     -0.459581     -0.601683
  C      -1.798935      0.942104      0.209679
  O      -1.474764      2.086354     -0.062979
  O      -2.525028      0.625586      1.305287
  H      -0.263768      0.740100     -1.933819
  H      -1.755276      0.413872     -2.512008
  H      -2.362182     -0.900347     -0.697441
  H      -0.828226     -1.448632      1.118167
  H      -0.284386     -2.095829     -0.439853
  H       1.018450      0.256196      2.438041
  H       3.898402      0.365914     -0.634343
  H       1.850539     -0.841982     -1.542307
  H      -2.700223      1.450562      1.809374
20
Coordinates from ORCA-job geo_opt_tzvp E -549.037329851522
  N      -0.981903      0.018390     -1.968704
  C      -1.444399     -0.296280     -0.621192
  C      -0.405154     -1.169455      0.144439
  C       0.925509     -0.525613      0.364229
  C       1.477351      0.112596      1.460467
  N       2.759367      0.553254      1.183094
  C       2.988685      0.185348     -0.072703
  N       1.914835     -0.464919     -0.602071
  C      -1.803546      0.939984      0.210174
  O      -1.473874      2.084988     -0.054899
  O      -2.531880      0.619036      1.304376
  H      -0.264350      0.748582     -1.927307
  H      -1.751952      0.419725     -2.510025
  H      -2.360172     -0.901923     -0.702151
  H      -0.828736     -1.444729      1.119673
  H      -0.285240     -2.096123     -0.436618
  H       1.017356      0.267733      2.433263
  H       3.901380      0.357857     -0.636626
  H       1.852531     -0.852095     -1.540726
  H      -2.705806      1.443644      1.810034
20
Coordinates from ORCA-job geo_opt_tzvp E -549.037328343165
  N      -0.978742      0.021438     -1.967312
  C      -1.443128     -0.296086     -0.620243
  C      -0.404163     -1.168978      0.145958
  C       0.927218     -0.525871      0.363981
  C       1.479640      0.115161      1.458165
  N       2.762370      0.554130      1.179481
  C       2.991089      0.182230     -0.075559
  N       1.916249     -0.468334     -0.603172
  C      -1.804827      0.938485      0.212544
  O      -1.475322      2.084532     -0.049910
  O      -2.542639      0.615770      1.301024
  H      -0.264638      0.755116     -1.920985
  H      -1.749749      0.425136     -2.505989
  H      -2.357973     -0.902792     -0.703295
  H      -0.827507     -1.442450      1.121740
  H      -0.285269     -2.096507     -0.433861
  H       1.019883      0.273411      2.430540
  H       3.903908      0.352096     -0.640065
  H       1.853118     -0.857723     -1.540870
  H      -2.719517      1.441236      1.804557
20
Coordinates from ORCA-job geo_opt_tzvp E -549.037329664894
  N      -0.979429      0.021076     -1.967742
  C      -1.443619     -0.295970     -0.620916
  C      -0.404715     -1.168926      0.145342
  C       0.926439     -0.525574      0.363866
  C       1.478387      0.115339      1.458401
  N       2.761035      0.554428      1.180234
  C       2.990240      0.183028     -0.074748
  N       1.915962     -0.468046     -0.602650
  C      -1.805167      0.938832      0.211694
  O      -1.475276      2.084618     -0.050773
  O      -2.538319      0.615849      1.302769
  H      -0.264070      0.753428     -1.922798
  H      -1.749844      0.423829     -2.507746
  H      -2.358651     -0.902449     -0.703792
  H      -0.828241     -1.442691      1.120981
  H      -0.285535     -2.096346     -0.434621
  H       1.018212      0.273454      2.430613
  H       3.903187      0.353284     -0.638934
  H       1.853518     -0.857732     -1.540259
  H      -2.714115      1.440569      1.807806
20
Coordinates from ORCA-job geo_opt_tzvp E -549.037329707574
  N      -0.979208      0.021604     -1.967517
  C      -1.443556     -0.295811     -0.620909
  C      -0.404681     -1.168823      0.145341
  C       0.926505     -0.525493      0.363731
  C       1.478374      0.115915      1.458018
  N       2.761002      0.554941      1.179715
  C       2.990500      0.182492     -0.074894
  N       1.916135     -0.468506     -0.602689
  C      -1.805484      0.938736      0.211980
  O      -1.475992      2.084671     -0.050275
  O      -2.538590      0.615293      1.302898
  H      -0.263696      0.753773     -1.922426
  H      -1.749477      0.424389     -2.507677
  H      -2.358522     -0.902363     -0.704057
  H      -0.828178     -1.442503      1.121018
  H      -0.285560     -2.096289     -0.434559
  H       1.018069      0.274600      2.430078
  H       3.903570      0.352300     -0.639023
  H       1.853814     -0.858721     -1.540083
  H      -2.715021      1.439796      1.808059
