20
neutral_delta conformer 2
N      -0.97564026     0.02373546    -1.96747105
C      -1.44259070    -0.29636436    -0.62025648
C      -0.40362602    -1.16835648     0.14732521
C       0.92841728    -0.52572710     0.36394866
C       1.48109509     0.11843455     1.45612170
N       2.76471947     0.55580636     1.17620759
C       2.99310598     0.17984032    -0.07817977
N       1.91786580    -0.47244699    -0.60368971
C      -1.80793037     0.93684706     0.21283522
O      -1.47194910     2.08320268    -0.04283217
O      -2.55296226     0.61201845     1.29764041
H      -0.26746125     0.76300719    -1.91469713
H      -1.74825518     0.43001436    -2.50232918
H      -2.35592901    -0.90459525    -0.70593089
H      -0.82703757    -1.43997164     1.12353473
H      -0.28510891    -2.09682118    -0.43088786
H       1.02148172     0.27978165     2.42808192
H       3.90617982     0.34710433    -0.64313877
H       1.85397591    -0.86416996    -1.54021046
H      -2.72835042     1.43866054     1.80065623
