20
Coordinates from ORCA-job geo_opt E -549.041795115396
  N           1.59064391223490      0.98644535560874     -0.93843651485670
  C           1.67422827448069     -0.31758447315689     -0.18622287755151
  C           0.44246631709280     -1.19600136966973     -0.46252654195461
  C          -0.86000355461948     -0.51297364637600     -0.17162718027467
  C          -1.89441333838885     -0.89561505912653      0.65617540453188
  N          -2.84704898235693      0.09651129391656      0.54571487014408
  C          -2.38026644907079      1.03634771904223     -0.31675532068413
  N          -1.17916845461210      0.69964968637476     -0.77758946708655
  C           1.90554340158397      0.03892665748680      1.31952158743790
  O           1.85257124073135     -0.91579235075071      2.13563963931822
  O           2.16528149768526      1.25944696656183      1.56236173960413
  H           2.10373905602905      0.98335276680196     -1.82590019049684
  H           1.98792795661587      1.68428600152507     -0.26835805829034
  H           0.57832565017872      1.22033358680199     -1.10777197223241
  H           2.57637383370707     -0.83787521587546     -0.53618935760572
  H           0.53518714804325     -2.10040249859933      0.15098812483503
  H           0.47115092247587     -1.51534307929220     -1.51743760711950
  H          -2.03547465930584     -1.76126992213851      1.29375864606011
  H          -3.74647699419150      0.11747036709050      1.01956121104103
  H          -2.94058677831330      1.93008722377492     -0.57490611481940
