20
Coordinates from ORCA-job geo_opt E -549.035418684147
  N       1.519359      0.970652     -0.945711
  C       1.660912     -0.315861     -0.239450
  C       0.464775     -1.235323     -0.483094
  C      -0.812660     -0.528434     -0.178981
  C      -1.846745     -0.884248      0.639845
  N      -2.763107      0.126347      0.558294
  C      -2.264407      1.046895     -0.286253
  N      -1.096565      0.684159     -0.752986
  C       1.805829      0.043267      1.297359
  O       1.750623     -0.884846      2.110117
  O       1.983950      1.260179      1.515823
  H       2.069102      1.051790     -1.799262
  H       1.819995      1.658745     -0.209525
  H       0.485106      1.122651     -1.122012
  H       2.585055     -0.824836     -0.521550
  H       0.561332     -2.101798      0.171124
  H       0.465814     -1.572678     -1.521991
  H      -1.983702     -1.744394      1.259727
  H      -3.640769      0.169350      1.050513
  H      -2.763899      1.958383     -0.541988
20
Coordinates from ORCA-job geo_opt E -549.040350644809
  N       1.543948      0.995308     -0.919272
  C       1.673881     -0.315950     -0.223586
  C       0.449755     -1.222461     -0.458940
  C      -0.847647     -0.524560     -0.173563
  C      -1.889725     -0.880682      0.651838
  N      -2.830532      0.119794      0.528186
  C      -2.348852      1.038338     -0.344958
  N      -1.156682      0.677197     -0.795864
  C       1.905993      0.021845      1.309222
  O       1.919101     -0.939054      2.108092
  O       2.149749      1.242209      1.544883
  H       2.052781      1.062174     -1.805470
  H       1.918166      1.666006     -0.196718
  H       0.498937      1.200413     -1.040972
  H       2.583608     -0.828296     -0.562898
  H       0.549771     -2.093989      0.197049
  H       0.457777     -1.579809     -1.500681
  H      -2.025300     -1.737388      1.301490
  H      -3.723533      0.158668      1.012771
  H      -2.881197      1.940236     -0.630610
20
Coordinates from ORCA-job geo_opt E -549.039371149990
  N       1.580842      0.985573     -0.947054
  C       1.689406     -0.321095     -0.214511
  C       0.453588     -1.216057     -0.454532
  C      -0.850469     -0.525643     -0.165780
  C      -1.902155     -0.904591      0.646754
  N      -2.843062      0.104520      0.538097
  C      -2.353204      1.057961     -0.300911
  N      -1.147834      0.707483     -0.753444
  C       1.944455      0.036392      1.301927
  O       1.847286     -0.908015      2.128356
  O       2.059639      1.284770      1.545714
  H       2.102424      1.021572     -1.829727
  H       1.955134      1.672558     -0.240863
  H       0.545466      1.198393     -1.104386
  H       2.590467     -0.844934     -0.565973
  H       0.555244     -2.099861      0.189584
  H       0.464317     -1.567803     -1.502227
  H      -2.053313     -1.782686      1.273429
  H      -3.745983      0.130025      1.011974
  H      -2.892248      1.971437     -0.556427
20
Coordinates from ORCA-job geo_opt E -549.041071403751
  N       1.583328      0.974665     -0.961119
  C       1.675884     -0.317302     -0.190232
  C       0.445747     -1.209073     -0.448335
  C      -0.860857     -0.525800     -0.163602
  C      -1.923890     -0.925646      0.624776
  N      -2.859079      0.088839      0.530984
  C      -2.353372      1.068034     -0.268184
  N      -1.139918      0.730257     -0.713965
  C       1.908937      0.067826      1.313242
  O       1.877738     -0.874469      2.150143
  O       2.180139      1.299560      1.527658
  H       2.138659      0.989249     -1.822659
  H       1.919981      1.686313     -0.264984
  H       0.564759      1.167230     -1.178348
  H       2.580087     -0.841614     -0.531637
  H       0.544492     -2.101941      0.183838
  H       0.468782     -1.547609     -1.499500
  H      -2.092288     -1.819545      1.221089
  H      -3.769497      0.103198      0.987503
  H      -2.889633      1.987827     -0.496668
20
Coordinates from ORCA-job geo_opt E -549.041444065693
  N       1.560523      1.000775     -0.913966
  C       1.673287     -0.316948     -0.200318
  C       0.441486     -1.203785     -0.445161
  C      -0.858473     -0.513190     -0.163698
  C      -1.902003     -0.882162      0.656381
  N      -2.849423      0.109844      0.525022
  C      -2.378027      1.028920     -0.353879
  N      -1.175923      0.682206     -0.800611
  C       1.940874      0.016437      1.307802
  O       1.946732     -0.949283      2.107771
  O       2.197025      1.236274      1.556078
  H       2.057135      1.036170     -1.808465
  H       1.963411      1.675822     -0.219581
  H       0.537117      1.227886     -1.041761
  H       2.568916     -0.829521     -0.574422
  H       0.540162     -2.088032      0.194645
  H       0.460522     -1.552232     -1.489561
  H      -2.045103     -1.737332      1.303772
  H      -3.747182      0.141927      0.998220
  H      -2.931056      1.916227     -0.638268
20
Coordinates from ORCA-job geo_opt E -549.041736089529
  N       1.578791      0.991716     -0.932916
  C       1.676180     -0.317421     -0.194624
  C       0.441882     -1.200428     -0.448300
  C      -0.860680     -0.513948     -0.162945
  C      -1.906468     -0.895664      0.651115
  N      -2.855803      0.098181      0.529887
  C      -2.377162      1.040057     -0.322936
  N      -1.170259      0.701737     -0.770201
  C       1.932491      0.032828      1.309859
  O       1.903858     -0.923074      2.124936
  O       2.184772      1.257322      1.551563
  H       2.095474      1.010273     -1.817544
  H       1.966151      1.680089     -0.243011
  H       0.559665      1.215075     -1.095233
  H       2.572660     -0.837251     -0.559135
  H       0.539749     -2.091811      0.183391
  H       0.463222     -1.540465     -1.496831
  H      -2.055114     -1.763757      1.283648
  H      -3.758962      0.120325      0.996683
  H      -2.930444      1.936215     -0.587408
20
Coordinates from ORCA-job geo_opt E -549.041765914472
  N       1.583350      0.989484     -0.936182
  C       1.675576     -0.317419     -0.191146
  C       0.441791     -1.198507     -0.451167
  C      -0.860738     -0.513361     -0.164270
  C      -1.905009     -0.898023      0.650278
  N      -2.854329      0.096596      0.534452
  C      -2.377709      1.040053     -0.317949
  N      -1.171901      0.703162     -0.768364
  C       1.925337      0.036512      1.312161
  O       1.888978     -0.917658      2.129269
  O       2.180358      1.260160      1.552576
  H       2.102736      1.000579     -1.819553
  H       1.970747      1.681697     -0.251189
  H       0.566997      1.214294     -1.105975
  H       2.573061     -0.838226     -0.552152
  H       0.538531     -2.093819      0.175238
  H       0.465258     -1.532592     -1.501651
  H      -2.053407     -1.767432      1.281274
  H      -3.756937      0.117869      1.002484
  H      -2.932692      1.936632     -0.578134
20
Coordinates from ORCA-job geo_opt E -549.041788109050
  N       1.589125      0.987667     -0.938022
  C       1.674499     -0.317622     -0.186984
  C       0.441347     -1.195514     -0.457033
  C      -0.860624     -0.511646     -0.167111
  C      -1.899110     -0.896678      0.654276
  N      -2.852012      0.094697      0.540076
  C      -2.380509      1.037518     -0.316104
  N      -1.176652      0.702798     -0.770943
  C       1.915070      0.038394      1.316044
  O       1.867791     -0.915309      2.133334
  O       2.174802      1.259608      1.557254
  H       2.107270      0.988426     -1.822437
  H       1.982233      1.683098     -0.261686
  H       0.576717      1.218114     -1.111602
  H       2.573538     -0.838945     -0.543509
  H       0.535891     -2.096974      0.160697
  H       0.467863     -1.520023     -1.510424
  H      -2.043805     -1.764193      1.288528
  H      -3.753640      0.114606      1.009794
  H      -2.939793      1.931978     -0.574149
20
Coordinates from ORCA-job geo_opt E -549.041792273182
  N       1.590227      0.987260     -0.938132
  C       1.674334     -0.317607     -0.186259
  C       0.441719     -1.195369     -0.459673
  C      -0.860484     -0.512014     -0.169328
  C      -1.897038     -0.896464      0.654819
  N      -2.849604      0.095632      0.543422
  C      -2.381073      1.036437     -0.316863
  N      -1.178785      0.700851     -0.774910
  C       1.910734      0.038706      1.317828
  O       1.859859     -0.915337      2.134695
  O       2.171323      1.259311      1.559786
  H       2.106826      0.985766     -1.823508
  H       1.985207      1.683674     -0.264547
  H       0.578303      1.219383     -1.110927
  H       2.574630     -0.838509     -0.540169
  H       0.535384     -2.098503      0.155666
  H       0.469456     -1.517094     -1.513871
  H      -2.039969     -1.762926      1.290861
  H      -3.749763      0.116475      1.015847
  H      -2.941285      1.930328     -0.574738
20
Coordinates from ORCA-job geo_opt E -549.041794466538
  N       1.590724      0.986861     -0.938169
  C       1.674214     -0.317647     -0.186188
  C       0.442113     -1.195675     -0.461864
  C      -0.860235     -0.512538     -0.171072
  C      -1.894952     -0.895631      0.656086
  N      -2.847879      0.096188      0.545153
  C      -2.380914      1.036047     -0.317196
  N      -1.179622      0.699702     -0.777401
  C       1.907050      0.038687      1.319101
  O       1.854563     -0.915911      2.135346
  O       2.167322      1.259085      1.561745
  H       2.105054      0.984084     -1.824897
  H       1.987632      1.684016     -0.266946
  H       0.578738      1.220551     -1.108767
  H       2.575742     -0.838119     -0.537480
  H       0.535048     -2.099855      0.151959
  H       0.470578     -1.515510     -1.516613
  H      -2.036276     -1.761144      1.293763
  H      -3.747379      0.117228      1.018813
  H      -2.941522      1.929579     -0.575373
20
Coordinates from ORCA-job geo_opt E -549.041795115396
  N       1.590644      0.986445     -0.938437
  C       1.674228     -0.317584     -0.186223
  C       0.442466     -1.196001     -0.462527
  C      -0.860004     -0.512974     -0.171627
  C      -1.894413     -0.895615      0.656175
  N      -2.847049      0.096511      0.545715
  C      -2.380266      1.036348     -0.316755
  N      -1.179168      0.699650     -0.777589
  C       1.905543      0.038927      1.319522
  O       1.852571     -0.915792      2.135640
  O       2.165281      1.259447      1.562362
  H       2.103739      0.983353     -1.825900
  H       1.987928      1.684286     -0.268358
  H       0.578326      1.220334     -1.107772
  H       2.576374     -0.837875     -0.536189
  H       0.535187     -2.100402      0.150988
  H       0.471151     -1.515343     -1.517438
  H      -2.035475     -1.761270      1.293759
  H      -3.746477      0.117470      1.019561
  H      -2.940587      1.930087     -0.574906
