20
zwitterion conformer 2
N       1.51935855     0.97065208    -0.94571082
C       1.66091238    -0.31586071    -0.23945039
C       0.46477506    -1.23532318    -0.48309404
C      -0.81265999    -0.52843374    -0.17898115
C      -1.84674508    -0.88424826     0.63984538
N      -2.76310689     0.12634667     0.55829383
C      -2.26440742     1.04689525    -0.28625322
N      -1.09656451     0.68415852    -0.75298633
C       1.80582925     0.04326689     1.29735871
O       1.75062314    -0.88484642     2.11011748
O       1.98394999     1.26017866     1.51582338
H       2.06910155     1.05179044    -1.79926162
H       1.81999543     1.65874515    -0.20952529
H       0.48510627     1.12265100    -1.12201232
H       2.58505548    -0.82483584    -0.52154974
H       0.56133248    -2.10179810     0.17112447
H       0.46581403    -1.57267756    -1.52199130
H      -1.98370201    -1.74439375     1.25972711
H      -3.64076919     0.16935000     1.05051345
H      -2.76389852     1.95838291    -0.54198757
