20
Coordinates from ORCA-job geo_opt_tzvp E -549.053266599607
  N       1.443190     -0.344386     -1.478750
  C       1.643079      0.440890     -0.206918
  C       0.404631      1.291652      0.119794
  C      -0.864256      0.497500      0.197499
  C      -1.771149      0.377373      1.229252
  N      -2.752380     -0.474996      0.766098
  C      -2.424927     -0.848811     -0.498141
  N      -1.287874     -0.274951     -0.880869
  C       2.044642     -0.585475      0.903840
  O       2.293444     -1.764942      0.499776
  O       2.119794     -0.139232      2.076534
  H       0.414117     -0.500681     -1.630681
  H       1.895289     -1.265106     -1.272381
  H       1.857687      0.099703     -2.304287
  H       2.507051      1.100971     -0.364069
  H       0.590704      1.793926      1.077027
  H       0.307956      2.078854     -0.646087
  H      -1.807190      0.811454      2.222232
  H      -3.579656     -0.767757      1.279647
  H      -3.034152     -1.525986     -1.089515
20
Coordinates from ORCA-job geo_opt_tzvp E -549.053273280997
  N       1.442565     -0.342498     -1.479084
  C       1.642997      0.440177     -0.206882
  C       0.405021      1.290886      0.120603
  C      -0.863699      0.496721      0.198668
  C      -1.772714      0.379358      1.228767
  N      -2.752852     -0.473666      0.765647
  C      -2.422558     -0.851317     -0.496235
  N      -1.284357     -0.279601     -0.877452
  C       2.044437     -0.587120      0.902684
  O       2.294491     -1.765122      0.497912
  O       2.118975     -0.142404      2.075170
  H       0.413086     -0.497223     -1.631475
  H       1.893283     -1.264246     -1.274436
  H       1.857482      0.102215     -2.304044
  H       2.507273      1.100356     -0.363288
  H       0.591519      1.793475      1.077673
  H       0.308170      2.078084     -0.645454
  H      -1.811104      0.816593      2.220232
  H      -3.581687     -0.764495      1.278074
  H      -3.030325     -1.530173     -1.087081
20
Coordinates from ORCA-job geo_opt_tzvp E -549.053271524614
  N       1.441723     -0.342252     -1.478831
  C       1.643575      0.439792     -0.207358
  C       0.405756      1.289848      0.122224
  C      -0.863022      0.495789      0.200079
  C      -1.774662      0.381024      1.228193
  N      -2.753621     -0.472694      0.764588
  C      -2.421245     -0.852233     -0.495848
  N      -1.282511     -0.281138     -0.875576
  C       2.047966     -0.586967      0.901555
  O       2.294969     -1.765106      0.497299
  O       2.118936     -0.143473      2.074229
  H       0.411799     -0.500294     -1.627861
  H       1.895736     -1.262914     -1.276938
  H       1.852425      0.104000     -2.305065
  H       2.507314      1.100650     -0.364714
  H       0.592929      1.791875      1.079483
  H       0.308525      2.077961     -0.643004
  H      -1.815099      0.820324      2.218642
  H      -3.583589     -0.762410      1.275913
  H      -3.027904     -1.531782     -1.087009
20
Coordinates from ORCA-job geo_opt_tzvp E -549.053264008656
  N       1.439570     -0.342802     -1.477662
  C       1.643495      0.438056     -0.207072
  C       0.406058      1.287409      0.125815
  C      -0.863298      0.494120      0.202422
  C      -1.780099      0.384147      1.226617
  N      -2.757442     -0.470077      0.761446
  C      -2.420937     -0.853013     -0.496438
  N      -1.280668     -0.283466     -0.872923
  C       2.052079     -0.588144      0.900924
  O       2.305528     -1.763582      0.495399
  O       2.134820     -0.142150      2.071309
  H       0.408910     -0.506766     -1.620964
  H       1.899322     -1.261509     -1.280775
  H       1.843001      0.106317     -2.305939
  H       2.506435      1.100021     -0.365298
  H       0.594121      1.788017      1.083647
  H       0.308872      2.077420     -0.637680
  H      -1.824271      0.826787      2.215394
  H      -3.589758     -0.757430      1.270349
  H      -3.025738     -1.533357     -1.088570
20
Coordinates from ORCA-job geo_opt_tzvp E -549.053275581681
  N       1.441744     -0.341220     -1.479560
  C       1.643478      0.439025     -0.207033
  C       0.405740      1.289062      0.123350
  C      -0.863241      0.495199      0.201037
  C      -1.777100      0.383301      1.227668
  N      -2.755943     -0.470564      0.763875
  C      -2.420614     -0.854498     -0.494556
  N      -1.280212     -0.285515     -0.872961
  C       2.047803     -0.589036      0.901137
  O       2.300139     -1.765524      0.494815
  O       2.123093     -0.145241      2.073729
  H       0.411458     -0.500047     -1.627722
  H       1.896624     -1.261805     -1.280272
  H       1.851041      0.106732     -2.305614
  H       2.507235      1.100122     -0.362987
  H       0.593102      1.790716      1.080725
  H       0.308415      2.077634     -0.641380
  H      -1.819386      0.825315      2.216846
  H      -3.587340     -0.757996      1.274056
  H      -3.026035     -1.535660     -1.085152
20
Coordinates from ORCA-job geo_opt_tzvp E -549.053274907714
  N       1.441550     -0.341150     -1.479596
  C       1.643714      0.438832     -0.207107
  C       0.406034      1.288655      0.123916
  C      -0.863025      0.494893      0.201426
  C      -1.778023      0.384488      1.227196
  N      -2.756222     -0.470206      0.763657
  C      -2.420251     -0.854895     -0.494349
  N      -1.279651     -0.286130     -0.872446
  C       2.048804     -0.589277      0.900748
  O       2.301285     -1.765628      0.494292
  O       2.122389     -0.146038      2.073648
  H       0.411167     -0.501701     -1.626006
  H       1.898191     -1.261050     -1.281817
  H       1.848690      0.107882     -2.306130
  H       2.507336      1.100101     -0.363177
  H       0.593598      1.789884      1.081478
  H       0.308611      2.077662     -0.640382
  H      -1.821064      0.827494      2.215890
  H      -3.587865     -0.757364      1.273635
  H      -3.025269     -1.536449     -1.084878
