20
Coordinates from ORCA-job geo_opt_tzvp E -549.053274907714
  N           1.44154986711110     -0.34115045390765     -1.47959603260509
  C           1.64371381195878      0.43883159056628     -0.20710652520973
  C           0.40603430913289      1.28865517506294      0.12391594481838
  C          -0.86302512478651      0.49489270437266      0.20142588986055
  C          -1.77802282460505      0.38448772978741      1.22719582822499
  N          -2.75622223737359     -0.47020633491213      0.76365728289319
  C          -2.42025081696910     -0.85489470380737     -0.49434948349968
  N          -1.27965056927884     -0.28612990380447     -0.87244583131560
  C           2.04880423811980     -0.58927729886203      0.90074848682748
  O           2.30128524586317     -1.76562841632951      0.49429229482488
  O           2.12238891493120     -0.14603836931414      2.07364830631403
  H           0.41116697173048     -0.50170128102678     -1.62600594559115
  H           1.89819072012425     -1.26105012480879     -1.28181708697925
  H           1.84868988955833      0.10788243577336     -2.30613014405416
  H           2.50733553992502      1.10010118829367     -0.36317672693228
  H           0.59359798419267      1.78988414856571      1.08147813038169
  H           0.30861107305045      2.07766191337086     -0.64038208057683
  H          -1.82106360997725      0.82749375909537      2.21588999695303
  H          -3.58786459948636     -0.75736449323029      1.27363534931668
  H          -3.02526878322143     -1.53644926488510     -1.08487762365112
