20
zwitterion conformer 2
N       1.44319025    -0.34438573    -1.47874959
C       1.64307868     0.44088983    -0.20691845
C       0.40463146     1.29165191     0.11979405
C      -0.86425605     0.49750024     0.19749914
C      -1.77114901     0.37737311     1.22925166
N      -2.75238040    -0.47499573     0.76609764
C      -2.42492737    -0.84881145    -0.49814119
N      -1.28787428    -0.27495096    -0.88086864
C       2.04464170    -0.58547534     0.90383970
O       2.29344445    -1.76494203     0.49977579
O       2.11979397    -0.13923163     2.07653406
H       0.41411743    -0.50068132    -1.63068143
H       1.89528911    -1.26510635    -1.27238131
H       1.85768659     0.09970271    -2.30428728
H       2.50705142     1.10097062    -0.36406886
H       0.59070394     1.79392645     1.07702682
H       0.30795594     2.07885430    -0.64608684
H      -1.80718974     0.81145442     2.22223224
H      -3.57965606    -0.76775670     1.27964704
H      -3.03415203    -1.52598635    -1.08951452
