17
Coordinates from ORCA-job geo_opt E -438.494033768948
  C       1.950036     -0.246676     -0.125763
  C       0.667589      0.412703      0.353794
  O       0.655195      1.812284      0.158290
  C      -0.565170     -0.211875     -0.341402
  N      -1.722277      0.677719     -0.137894
  C      -0.927473     -1.577623      0.375725
  O      -0.180587     -2.541219      0.193127
  O      -1.957463     -1.503868      1.077331
  H       2.802128      0.121465      0.438408
  H       1.865979     -1.321596      0.014865
  H       2.107302     -0.048316     -1.183821
  H       0.562131      0.272133      1.436476
  H       1.053207      2.020269     -0.700044
  H      -0.357361     -0.399656     -1.394205
  H      -1.385197      1.584244      0.222168
  H      -2.291889      0.812734     -0.974548
  H      -2.276148      0.137277      0.587491
17
Coordinates from ORCA-job geo_opt E -438.497358797879
  C       1.977340     -0.232776     -0.133070
  C       0.682107      0.398516      0.362139
  O       0.665313      1.820035      0.194088
  C      -0.564726     -0.234506     -0.328540
  N      -1.725703      0.676517     -0.152971
  C      -0.973004     -1.594685      0.378611
  O      -0.249356     -2.591490      0.178266
  O      -1.977770     -1.488684      1.142707
  H       2.833396      0.152214      0.435731
  H       1.922302     -1.320679     -0.009153
  H       2.124912     -0.010618     -1.200345
  H       0.587244      0.245962      1.449559
  H       1.035271      2.042009     -0.682029
  H      -0.364065     -0.414359     -1.390505
  H      -1.393160      1.596981      0.178097
  H      -2.286477      0.797347     -1.002383
  H      -2.293625      0.158216      0.579798
17
Coordinates from ORCA-job geo_opt E -438.495442888324
  C       2.000230     -0.221107     -0.128809
  C       0.702126      0.400542      0.372386
  O       0.679267      1.835057      0.186258
  C      -0.553271     -0.252888     -0.292947
  N      -1.720886      0.674021     -0.133792
  C      -0.971729     -1.597644      0.418076
  O      -0.311312     -2.628991      0.124764
  O      -2.081030     -1.530829      1.053974
  H       2.860319      0.190963      0.425794
  H       1.972272     -1.314173      0.007771
  H       2.131492     -0.007028     -1.206807
  H       0.619720      0.269537      1.465650
  H       1.014100      2.035083     -0.713862
  H      -0.378461     -0.424931     -1.364608
  H      -1.390758      1.612894      0.146196
  H      -2.288016      0.764526     -0.985094
  H      -2.284062      0.194969      0.625050
17
Coordinates from ORCA-job geo_opt E -438.498273622926
  C       1.986015     -0.233521     -0.125752
  C       0.691219      0.391795      0.372187
  O       0.677325      1.827082      0.194787
  C      -0.556896     -0.246970     -0.308802
  N      -1.724454      0.679522     -0.141560
  C      -0.975586     -1.595948      0.373408
  O      -0.261000     -2.605368      0.145556
  O      -2.011758     -1.515747      1.117425
  H       2.842627      0.170945      0.433106
  H       1.954531     -1.325299      0.004135
  H       2.123076     -0.015168     -1.198849
  H       0.598196      0.255052      1.461758
  H       1.005373      2.023198     -0.706390
  H      -0.375310     -0.397993     -1.380796
  H      -1.395727      1.615887      0.147317
  H      -2.286004      0.778521     -0.994119
  H      -2.291627      0.194011      0.606588
17
Coordinates from ORCA-job geo_opt E -438.498421068565
  C       1.982423     -0.237687     -0.117412
  C       0.688049      0.393076      0.372388
  O       0.679987      1.825163      0.184603
  C      -0.557641     -0.242630     -0.310612
  N      -1.725586      0.681404     -0.137268
  C      -0.968193     -1.594851      0.363719
  O      -0.261402     -2.601477      0.114345
  O      -1.982171     -1.518528      1.132043
  H       2.837349      0.170387      0.438468
  H       1.949944     -1.326196      0.021923
  H       2.121664     -0.030007     -1.190332
  H       0.589059      0.264822      1.461777
  H       0.999088      2.010080     -0.721112
  H      -0.375346     -0.385162     -1.382834
  H      -1.396556      1.616844      0.152987
  H      -2.287362      0.780458     -0.989325
  H      -2.293306      0.194302      0.606641
17
Coordinates from ORCA-job geo_opt E -438.498542296581
  C       1.979492     -0.245550     -0.101445
  C       0.684934      0.395544      0.372152
  O       0.687958      1.825537      0.165419
  C      -0.558214     -0.237236     -0.312401
  N      -1.727446      0.685104     -0.124820
  C      -0.958795     -1.596490      0.343213
  O      -0.253528     -2.596621      0.068227
  O      -1.957322     -1.536209      1.129161
  H       2.831989      0.172464      0.449372
  H       1.948183     -1.330649      0.056165
  H       2.122728     -0.057265     -1.176443
  H       0.575477      0.284215      1.462032
  H       0.986083      1.989812     -0.751142
  H      -0.379932     -0.359504     -1.387573
  H      -1.395989      1.624419      0.149040
  H      -2.301011      0.773392     -0.970315
  H      -2.284608      0.209035      0.629360
17
Coordinates from ORCA-job geo_opt E -438.498624282846
  C       1.978569     -0.252850     -0.081653
  C       0.682176      0.399954      0.370026
  O       0.696311      1.827473      0.141391
  C      -0.558667     -0.231515     -0.315722
  N      -1.728805      0.688273     -0.110697
  C      -0.949936     -1.600710      0.321619
  O      -0.258481     -2.598390      0.003835
  O      -1.928050     -1.554853      1.131577
  H       2.827384      0.178577      0.464264
  H       1.948541     -1.334184      0.099119
  H       2.128122     -0.088311     -1.159544
  H       0.560348      0.307775      1.460400
  H       0.973647      1.971606     -0.785185
  H      -0.384881     -0.333358     -1.393855
  H      -1.394816      1.632620      0.142473
  H      -2.319603      0.762064     -0.945789
  H      -2.271859      0.225831      0.657742
17
Coordinates from ORCA-job geo_opt E -438.498675809625
  C       1.978426     -0.258545     -0.064925
  C       0.679693      0.403897      0.366613
  O       0.702103      1.829477      0.122848
  C      -0.559451     -0.226418     -0.321182
  N      -1.729762      0.690034     -0.099907
  C      -0.944473     -1.605388      0.302055
  O      -0.265676     -2.600961     -0.051018
  O      -1.904204     -1.568270      1.133259
  H       2.823373      0.184396      0.478211
  H       1.948770     -1.336664      0.135904
  H       2.135075     -0.114107     -1.145014
  H       0.547107      0.324766      1.457039
  H       0.968268      1.962405     -0.808883
  H      -0.388710     -0.314057     -1.401220
  H      -1.393849      1.640260      0.128195
  H      -2.342691      0.745263     -0.920689
  H      -2.253999      0.243910      0.688713
17
Coordinates from ORCA-job geo_opt E -438.498702557080
  C       1.978396     -0.261199     -0.055287
  C       0.677850      0.406257      0.364026
  O       0.704151      1.831034      0.114618
  C      -0.560175     -0.223328     -0.325995
  N      -1.730061      0.690351     -0.095623
  C      -0.942527     -1.608691      0.290232
  O      -0.275988     -2.604231     -0.087748
  O      -1.886809     -1.573588      1.139223
  H       2.820373      0.188717      0.487299
  H       1.948772     -1.337328      0.157756
  H       2.140493     -0.128525     -1.136453
  H       0.539085      0.331720      1.454280
  H       0.970989      1.962166     -0.817274
  H      -0.390543     -0.305119     -1.406791
  H      -1.394260      1.645763      0.110691
  H      -2.361814      0.727955     -0.903309
  H      -2.237933      0.258047      0.710355
17
Coordinates from ORCA-job geo_opt E -438.498711643364
  C       1.977775     -0.261527     -0.052716
  C       0.676720      0.407167      0.363297
  O       0.703743      1.831789      0.113843
  C      -0.560587     -0.222340     -0.328206
  N      -1.730283      0.689940     -0.095933
  C      -0.942013     -1.609624      0.286578
  O      -0.282898     -2.606006     -0.102537
  O      -1.877388     -1.573539      1.145766
  H       2.818635      0.190096      0.490444
  H       1.947827     -1.337011      0.164165
  H       2.142261     -0.132238     -1.134039
  H       0.536503      0.332149      1.453413
  H       0.977987      1.964612     -0.815650
  H      -0.390983     -0.303553     -1.409067
  H      -1.395867      1.648153      0.099535
  H      -2.371022      0.717629     -0.897079
  H      -2.230409      0.264302      0.718186
17
Coordinates from ORCA-job geo_opt E -438.498715563956
  C       1.976842     -0.261378     -0.051828
  C       0.675722      0.407738      0.363278
  O       0.702802      1.832125      0.113862
  C      -0.560888     -0.221981     -0.329280
  N      -1.730695      0.689483     -0.096734
  C      -0.941307     -1.609663      0.284917
  O      -0.287398     -2.606747     -0.110908
  O      -1.870264     -1.572925      1.151240
  H       2.817315      0.190417      0.491835
  H       1.946568     -1.336528      0.166631
  H       2.142556     -0.133367     -1.133056
  H       0.535233      0.332028      1.453287
  H       0.985654      1.965612     -0.812895
  H      -0.391308     -0.302819     -1.410135
  H      -1.397867      1.649471      0.092404
  H      -2.376242      0.710859     -0.894293
  H      -2.226725      0.267676      0.721675
17
Coordinates from ORCA-job geo_opt E -438.498717011809
  C       1.976252     -0.261034     -0.052158
  C       0.675236      0.407835      0.363639
  O       0.701909      1.832085      0.114258
  C      -0.561050     -0.222152     -0.329278
  N      -1.731082      0.689256     -0.097307
  C      -0.940901     -1.609385      0.284909
  O      -0.288374     -2.606748     -0.112173
  O      -1.868061     -1.572650      1.153167
  H       2.816893      0.190104      0.491735
  H       1.945941     -1.336201      0.165958
  H       2.142006     -0.132598     -1.133238
  H       0.535149      0.331588      1.453605
  H       0.990491      1.965406     -0.810702
  H      -0.391419     -0.302637     -1.410111
  H      -1.399105      1.649888      0.089699
  H      -2.377555      0.708373     -0.894190
  H      -2.226331      0.268870      0.722188
17
Coordinates from ORCA-job geo_opt E -438.498717522723
  C       1.976008     -0.260764     -0.052654
  C       0.675073      0.407735      0.363974
  O       0.701328      1.831943      0.114540
  C      -0.561168     -0.222445     -0.328942
  N      -1.731326      0.689207     -0.097490
  C      -0.940797     -1.609253      0.285335
  O      -0.287724     -2.606573     -0.110858
  O      -1.868409     -1.572876      1.153032
  H       2.816909      0.189695      0.491339
  H       1.945786     -1.336082      0.164541
  H       2.141425     -0.131449     -1.133633
  H       0.535376      0.331218      1.453940
  H       0.992668      1.964887     -0.809578
  H      -0.391416     -0.302516     -1.409771
  H      -1.399462      1.649977      0.088864
  H      -2.377403      0.707797     -0.894689
  H      -2.226870      0.269498      0.722049
