17
Coordinates from ORCA-job geo_opt E -438.498717522723
  C           1.97600848054316     -0.26076366970879     -0.05265418863633
  C           0.67507330088074      0.40773539400514      0.36397435633117
  O           0.70132822925134      1.83194272072764      0.11454047722246
  C          -0.56116777969679     -0.22244482087035     -0.32894185104107
  N          -1.73132602062027      0.68920672590690     -0.09748955754075
  C          -0.94079726785528     -1.60925303668040      0.28533534065846
  O          -0.28772379143178     -2.60657313233178     -0.11085798093729
  O          -1.86840878734525     -1.57287595874829      1.15303220554494
  H           2.81690872392844      0.18969536784794      0.49133898655778
  H           1.94578580709222     -1.33608185126438      0.16454143458605
  H           2.14142485583203     -0.13144867056985     -1.13363343746210
  H           0.53537567072758      0.33121782952955      1.45393974979865
  H           0.99266807191762      1.96488712615392     -0.80957780855562
  H          -0.39141586761831     -0.30251586662898     -1.40977104027582
  H          -1.39946154858125      1.64997653803615      0.08886358145541
  H          -2.37740251748500      0.70779712058482     -0.89468877687942
  H          -2.22686956953918      0.26949814401076      0.72204852917348
