17
zwitterion conformer 1
C       1.95003635    -0.24667604    -0.12576305
C       0.66758867     0.41270306     0.35379447
O       0.65519524     1.81228432     0.15829042
C      -0.56517018    -0.21187550    -0.34140221
N      -1.72227723     0.67771933    -0.13789405
C      -0.92747255    -1.57762263     0.37572517
O      -0.18058744    -2.54121868     0.19312704
O      -1.95746341    -1.50386759     1.07733081
H       2.80212762     0.12146492     0.43840792
H       1.86597860    -1.32159602     0.01486513
H       2.10730160    -0.04831630    -1.18382078
H       0.56213056     0.27213325     1.43647649
H       1.05320678     2.02026899    -0.70004364
H      -0.35736067    -0.39965596    -1.39420502
H      -1.38519710     1.58424388     0.22216846
H      -2.29188896     0.81273430    -0.97454818
H      -2.27614789     0.13727663     0.58749104
