27
Coordinates from ORCA-job geo_opt E -43.683431273450
  N           2.00214284310551     -1.23642697639829      0.30592174907855
  C           2.48930676546253     -0.04997409011941     -0.42735073802179
  C           1.41308785956576      0.55018672315771     -1.33535951080428
  C           0.16189418046097      0.83222168883157     -0.56743558317744
  C          -0.11143892344809      1.95131195532642      0.16590127574150
  N          -1.32662055954794      1.83280902353659      0.77592624185019
  C          -1.87106124637571      0.62622762835178      0.45073106227661
  C          -3.08124853927860      0.05000158652090      0.81843607427572
  C          -3.37265367346501     -1.20212853685088      0.32176921604781
  C          -2.48670601293655     -1.87131508984798     -0.52837417151219
  C          -1.28504934648273     -1.31005315307115     -0.89618545345884
  C          -0.95693351389092     -0.04363142991490     -0.40203705275912
  C           2.91910502354374      0.98657456166727      0.69216634452872
  O           3.33311907596163      2.08964529848357      0.33173141795472
  O           2.79440145274966      0.53969218225488      1.85492834012047
  H           2.49226653554393     -2.10245926050980      0.08134955787827
  H           0.98861301189690     -1.35225365218887      0.19044292064933
  H           2.20337156769688     -0.92584771780399      1.31130947337386
  H           3.38291671790746     -0.27977221883033     -1.00886989182367
  H           1.81524202746737      1.48078479291648     -1.73836073434558
  H           1.20239695451658     -0.12931213739977     -2.16252740907229
  H           0.49900147512074      2.82492808912433      0.29503800576076
  H          -1.74625807572934      2.52484322875990      1.37263294127664
  H          -3.76964362158935      0.56833325490686      1.46838104473490
  H          -4.30550175052784     -1.67632863691631      0.58736626033356
  H          -2.75955298695625     -2.84667404104316     -0.90235367683750
  H          -0.62419723077134     -1.83138309294342     -1.57289515406888
