27
Coordinates from ORCA-job geo_opt E -43.632303062800
  N       2.050150     -1.362964      0.129988
  C       2.392941     -0.067418     -0.342895
  C       1.380447      0.655892     -1.150244
  C       0.096385      0.923224     -0.507000
  C      -0.310400      2.132165      0.055828
  N      -1.563835      1.986523      0.568472
  C      -1.974882      0.724252      0.353188
  C      -3.161665      0.105501      0.681688
  C      -3.338906     -1.222740      0.335150
  C      -2.346600     -1.941410     -0.335166
  C      -1.176570     -1.285461     -0.643774
  C      -0.954420      0.050311     -0.314608
  C       2.945292      0.775991      0.772261
  O       3.661245      1.755688      0.429433
  O       2.683464      0.494872      2.107288
  H       1.917851     -2.032823     -0.654500
  H       1.286602     -1.369936      0.841782
  H       2.929597     -1.730361      0.614620
  H       3.288975     -0.205817     -1.022395
  H       1.883204      1.593096     -1.513434
  H       1.237064      0.065086     -2.089407
  H       0.279509      3.063285      0.088138
  H      -2.057149      2.783940      1.039320
  H      -3.970411      0.625258      1.206784
  H      -4.283416     -1.695407      0.603003
  H      -2.494257     -2.994688     -0.607223
  H      -0.400215     -1.826060     -1.164015
27
Coordinates from ORCA-job geo_opt E -43.664068028110
  N       2.054778     -1.370487      0.140978
  C       2.441932     -0.049110     -0.345924
  C       1.406984      0.665994     -1.192018
  C       0.110098      0.921798     -0.528347
  C      -0.290071      2.115373      0.043247
  N      -1.537376      1.979427      0.576593
  C      -1.973490      0.713068      0.365041
  C      -3.166341      0.098620      0.711369
  C      -3.352404     -1.222613      0.356175
  C      -2.370768     -1.938194     -0.338643
  C      -1.192240     -1.311542     -0.672174
  C      -0.957349      0.024512     -0.330814
  C       2.945874      0.824234      0.795532
  O       3.649948      1.811447      0.509108
  O       2.642380      0.501245      2.016101
  H       1.915711     -2.040340     -0.629671
  H       1.264822     -1.337291      0.802570
  H       2.866794     -1.748506      0.670718
  H       3.341562     -0.177853     -0.986300
  H       1.879344      1.599748     -1.538626
  H       1.256145      0.075390     -2.114026
  H       0.283946      3.028326      0.079455
  H      -2.007144      2.746436      1.044705
  H      -3.951226      0.619845      1.247006
  H      -4.286953     -1.696981      0.628570
  H      -2.537919     -2.971512     -0.611263
  H      -0.437037     -1.861035     -1.217079
27
Coordinates from ORCA-job geo_opt E -43.673307238750
  N       2.012949     -1.346466      0.152031
  C       2.472208     -0.034633     -0.355300
  C       1.433710      0.655790     -1.246252
  C       0.138908      0.907609     -0.553324
  C      -0.241481      2.083324      0.034940
  N      -1.478257      1.957744      0.595644
  C      -1.936626      0.692247      0.381463
  C      -3.131160      0.085382      0.749597
  C      -3.332152     -1.226809      0.379099
  C      -2.369305     -1.933464     -0.350263
  C      -1.185605     -1.334394     -0.711794
  C      -0.938188     -0.006086     -0.349316
  C       2.897549      0.873390      0.826891
  O       3.583021      1.874928      0.568608
  O       2.530183      0.513072      1.938628
  H       1.861061     -2.018669     -0.606956
  H       1.179844     -1.234164      0.740345
  H       2.747537     -1.733002      0.754201
  H       3.381211     -0.176015     -0.947565
  H       1.882395      1.590809     -1.578246
  H       1.269470      0.049483     -2.142546
  H       0.325527      2.989549      0.080261
  H      -1.936724      2.704032      1.080520
  H      -3.888596      0.613350      1.306435
  H      -4.257392     -1.707727      0.657810
  H      -2.561566     -2.954285     -0.631850
  H      -0.458521     -1.884994     -1.290779
27
Coordinates from ORCA-job geo_opt E -43.676319597820
  N       2.010891     -1.314090      0.191343
  C       2.494805     -0.026350     -0.364245
  C       1.443143      0.614754     -1.282727
  C       0.157751      0.874850     -0.567868
  C      -0.194311      2.040615      0.049404
  N      -1.421932      1.922717      0.632518
  C      -1.904825      0.668857      0.398563
  C      -3.102944      0.074586      0.777180
  C      -3.333801     -1.223430      0.376078
  C      -2.399643     -1.922155     -0.395409
  C      -1.209736     -1.342004     -0.768413
  C      -0.933004     -0.030970     -0.368328
  C       2.852230      0.937669      0.820941
  O       3.485344      1.966638      0.531246
  O       2.494667      0.553973      1.944376
  H       1.855853     -2.010312     -0.544043
  H       1.152996     -1.147225      0.730772
  H       2.709629     -1.676823      0.848105
  H       3.415020     -0.180790     -0.931245
  H       1.871591      1.553132     -1.629428
  H       1.271315     -0.021797     -2.153543
  H       0.383815      2.939741      0.113184
  H      -1.867283      2.658321      1.147924
  H      -3.835489      0.606797      1.362275
  H      -4.259483     -1.701427      0.657135
  H      -2.622594     -2.929788     -0.703900
  H      -0.514002     -1.885488     -1.389611
27
Coordinates from ORCA-job geo_opt E -43.676140842160
  N       2.007589     -1.289231      0.222664
  C       2.516341     -0.027786     -0.372889
  C       1.458450      0.565200     -1.316193
  C       0.186555      0.840284     -0.578301
  C      -0.127075      1.991930      0.081281
  N      -1.348172      1.883312      0.680837
  C      -1.860103      0.646768      0.418783
  C      -3.064418      0.068535      0.802127
  C      -3.327937     -1.213130      0.368648
  C      -2.421319     -1.904695     -0.439473
  C      -1.223669     -1.343972     -0.819775
  C      -0.918120     -0.052464     -0.382818
  C       2.804148      0.989966      0.807794
  O       3.287437      2.080718      0.470608
  O       2.365936      0.635677      1.917413
  H       1.852742     -2.008224     -0.491026
  H       1.123335     -1.068686      0.701230
  H       2.663883     -1.620885      0.939240
  H       3.447941     -0.195369     -0.912231
  H       1.868622      1.505485     -1.685830
  H       1.275968     -0.104746     -2.156620
  H       0.467685      2.881389      0.172722
  H      -1.780875      2.603932      1.232892
  H      -3.771151      0.606275      1.415334
  H      -4.255568     -1.688204      0.649767
  H      -2.674668     -2.900134     -0.771933
  H      -0.553557     -1.881943     -1.471970
27
Coordinates from ORCA-job geo_opt E -43.676874004080
  N       2.000974     -1.259123      0.248718
  C       2.514845     -0.015172     -0.375199
  C       1.453507      0.537285     -1.335043
  C       0.188642      0.823027     -0.587856
  C      -0.104359      1.965803      0.096568
  N      -1.323416      1.859954      0.701328
  C      -1.848331      0.633557      0.422308
  C      -3.055689      0.062659      0.805387
  C      -3.333629     -1.210745      0.355286
  C      -2.438157     -1.897387     -0.468125
  C      -1.236846     -1.344104     -0.849975
  C      -0.921113     -0.062448     -0.394711
  C       2.755689      1.041926      0.793585
  O       3.261558      2.114914      0.443824
  O       2.480519      0.624673      1.933893
  H       1.851143     -1.996990     -0.447630
  H       1.099589     -1.009142      0.684261
  H       2.630744     -1.558927      1.004563
  H       3.455249     -0.194104     -0.893899
  H       1.848046      1.476954     -1.730278
  H       1.268222     -0.161384     -2.149788
  H       0.498373      2.851301      0.206545
  H      -1.754052      2.568855      1.275060
  H      -3.750159      0.603644      1.432110
  H      -4.261851     -1.687217      0.634625
  H      -2.704428     -2.888535     -0.811082
  H      -0.575066     -1.879275     -1.512194
27
Coordinates from ORCA-job geo_opt E -43.677522739920
  N       2.032737     -1.285199      0.239057
  C       2.508910     -0.019397     -0.367912
  C       1.443196      0.557998     -1.308032
  C       0.170226      0.838820     -0.575336
  C      -0.141851      1.990886      0.088785
  N      -1.364808      1.880569      0.684043
  C      -1.878293      0.647378      0.414266
  C      -3.084914      0.069835      0.790343
  C      -3.349585     -1.209608      0.350667
  C      -2.440631     -1.901422     -0.455128
  C      -1.241649     -1.338343     -0.828263
  C      -0.936598     -0.047939     -0.386974
  C       2.816240      1.009211      0.795678
  O       3.324325      2.086181      0.453974
  O       2.539406      0.607280      1.939722
  H       1.891109     -2.016662     -0.464780
  H       1.146058     -1.080075      0.721668
  H       2.699586     -1.591195      0.957402
  H       3.436928     -0.188811     -0.916239
  H       1.845434      1.491754     -1.703068
  H       1.261114     -0.126622     -2.137852
  H       0.452480      2.879899      0.183843
  H      -1.799368      2.596521      1.239830
  H      -3.792985      0.607076      1.403003
  H      -4.279376     -1.684138      0.626434
  H      -2.692485     -2.896533     -0.789830
  H      -0.565208     -1.877468     -1.473020
27
Coordinates from ORCA-job geo_opt E -43.677686406030
  N       2.035476     -1.277260      0.250186
  C       2.511483     -0.017610     -0.369702
  C       1.443202      0.545812     -1.313480
  C       0.173813      0.830690     -0.575854
  C      -0.127201      1.977548      0.101811
  N      -1.350278      1.870252      0.697708
  C      -1.872541      0.642663      0.418206
  C      -3.082266      0.069513      0.791672
  C      -3.354391     -1.205012      0.342780
  C      -2.449591     -1.896388     -0.468317
  C      -1.247772     -1.338028     -0.839476
  C      -0.936708     -0.051907     -0.390027
  C       2.813152      1.022782      0.786712
  O       3.271729      2.116894      0.431831
  O       2.559998      0.616755      1.934584
  H       1.906618     -2.020749     -0.443093
  H       1.139143     -1.068395      0.712846
  H       2.690747     -1.563127      0.987322
  H       3.440658     -0.190663     -0.914719
  H       1.839699      1.476632     -1.720815
  H       1.258192     -0.149347     -2.133609
  H       0.472009      2.862434      0.205000
  H      -1.781513      2.581504      1.262449
  H      -3.785485      0.607355      1.409344
  H      -4.286177     -1.677461      0.615246
  H      -2.707834     -2.887825     -0.809065
  H      -0.574163     -1.877061     -1.487258
27
Coordinates from ORCA-job geo_opt E -43.678047130210
  N       2.042361     -1.258303      0.278231
  C       2.513307     -0.012640     -0.372048
  C       1.438597      0.523026     -1.319825
  C       0.175635      0.816264     -0.574019
  C      -0.105250      1.952480      0.129965
  N      -1.328904      1.849382      0.726070
  C      -1.868242      0.633739      0.424985
  C      -3.084381      0.068124      0.790522
  C      -3.369757     -1.195727      0.321312
  C      -2.471239     -1.885683     -0.498921
  C      -1.264136     -1.334708     -0.863529
  C      -0.942859     -0.056941     -0.397202
  C       2.825403      1.048437      0.763680
  O       3.173967      2.172761      0.383485
  O       2.678189      0.623461      1.922764
  H       1.959515     -2.034682     -0.384618
  H       1.119798     -1.054113      0.688303
  H       2.667521     -1.484205      1.062199
  H       3.441201     -0.198330     -0.915877
  H       1.822893      1.444862     -1.757869
  H       1.247398     -0.194536     -2.119016
  H       0.502417      2.829609      0.248397
  H      -1.754809      2.550035      1.308438
  H      -3.779645      0.605278      1.417650
  H      -4.306111     -1.664098      0.584968
  H      -2.740173     -2.869891     -0.851971
  H      -0.592699     -1.873601     -1.513792
27
Coordinates from ORCA-job geo_opt E -43.678409081790
  N       2.040395     -1.246501      0.291970
  C       2.511069     -0.009664     -0.374077
  C       1.434348      0.515232     -1.322330
  C       0.174327      0.812236     -0.572717
  C      -0.098458      1.943145      0.143293
  N      -1.322595      1.840712      0.738847
  C      -1.868874      0.630217      0.427721
  C      -3.087451      0.066452      0.789093
  C      -3.376675     -1.192695      0.310647
  C      -2.479576     -1.881451     -0.512980
  C      -1.270887     -1.332096     -0.874134
  C      -0.947160     -0.057312     -0.400702
  C       2.842420      1.055069      0.751666
  O       3.138792      2.191937      0.367082
  O       2.766228      0.615064      1.911741
  H       1.996748     -2.044616     -0.347824
  H       1.098894     -1.052726      0.661526
  H       2.640181     -1.427391      1.108775
  H       3.436945     -0.205885     -0.918606
  H       1.813199      1.431204     -1.776869
  H       1.239342     -0.212577     -2.111494
  H       0.511746      2.817461      0.267926
  H      -1.747773      2.535534      1.328934
  H      -3.780140      0.602110      1.420225
  H      -4.314738     -1.660226      0.569691
  H      -2.751783     -2.862800     -0.871085
  H      -0.598522     -1.870433     -1.524037
27
Coordinates from ORCA-job geo_opt E -43.678741435460
  N       2.042291     -1.240246      0.299738
  C       2.510207     -0.007999     -0.375869
  C       1.431280      0.511299     -1.323639
  C       0.172594      0.809946     -0.572055
  C      -0.096555      1.938435      0.149317
  N      -1.320626      1.836307      0.745003
  C      -1.870447      0.628547      0.429009
  C      -3.090168      0.065887      0.788607
  C      -3.381822     -1.190701      0.305364
  C      -2.486124     -1.878752     -0.520688
  C      -1.276601     -1.330442     -0.880326
  C      -0.950825     -0.057519     -0.402823
  C       2.854319      1.056296      0.745853
  O       3.119933      2.200976      0.363120
  O       2.821795      0.605009      1.904166
  H       2.029979     -2.052910     -0.322549
  H       1.087561     -1.058040      0.640818
  H       2.624382     -1.386727      1.137755
  H       3.434725     -0.208977     -0.921487
  H       1.806882      1.424601     -1.786139
  H       1.234613     -0.221314     -2.108033
  H       0.514967      2.811375      0.276549
  H      -1.745300      2.528432      1.338636
  H      -3.781354      0.600690      1.422093
  H      -4.320802     -1.657538      0.562427
  H      -2.760471     -2.858448     -0.881623
  H      -0.604433     -1.868185     -1.530940
27
Coordinates from ORCA-job geo_opt E -43.679247677320
  N       2.044336     -1.229543      0.313722
  C       2.509420     -0.006169     -0.378760
  C       1.427176      0.503605     -1.325923
  C       0.171227      0.804978     -0.570557
  C      -0.090863      1.928722      0.160912
  N      -1.315016      1.827525      0.756679
  C      -1.871242      0.624823      0.431830
  C      -3.093230      0.064566      0.788096
  C      -3.389707     -1.187276      0.296072
  C      -2.496609     -1.873898     -0.534409
  C      -1.285247     -1.327955     -0.891120
  C      -0.955467     -0.058821     -0.405891
  C       2.870651      1.061245      0.734327
  O       3.085089      2.216417      0.353080
  O       2.902579      0.597665      1.888204
  H       2.076316     -2.062954     -0.279135
  H       1.072278     -1.063326      0.611729
  H       2.597080     -1.324067      1.180830
  H       3.431577     -0.215534     -0.925812
  H       1.797544      1.412705     -1.800641
  H       1.227762     -0.236900     -2.102198
  H       0.523570      2.798678      0.293737
  H      -1.738284      2.515033      1.356796
  H      -3.781527      0.598096      1.425735
  H      -4.330410     -1.652672      0.549456
  H      -2.775075     -2.850304     -0.900924
  H      -0.613930     -1.864635     -1.543551
27
Coordinates from ORCA-job geo_opt E -43.679804283110
  N       2.045880     -1.216442      0.331615
  C       2.508715     -0.005568     -0.382675
  C       1.422199      0.496576     -1.327398
  C       0.169040      0.800005     -0.567993
  C      -0.086667      1.918456      0.173965
  N      -1.310990      1.817495      0.769534
  C      -1.873195      0.620077      0.434942
  C      -3.097436      0.061822      0.787129
  C      -3.398610     -1.184812      0.285211
  C      -2.508009     -1.869028     -0.550280
  C      -1.294766     -1.325018     -0.903239
  C      -0.960892     -0.060339     -0.408865
  C       2.893030      1.065155      0.718978
  O       3.062301      2.227970      0.340360
  O       2.986603      0.592063      1.866228
  H       2.119899     -2.071061     -0.225537
  H       1.059496     -1.066038      0.588937
  H       2.570655     -1.254470      1.223235
  H       3.426536     -0.226445     -0.933023
  H       1.787666      1.401725     -1.813288
  H       1.219798     -0.250603     -2.096502
  H       0.530619      2.785293      0.313003
  H      -1.732809      2.500252      1.376171
  H      -3.783170      0.593304      1.429178
  H      -4.341073     -1.648896      0.534459
  H      -2.790420     -2.841687     -0.923561
  H      -0.624398     -1.859784     -1.558300
27
Coordinates from ORCA-job geo_opt E -43.680863683280
  N       2.055286     -1.208385      0.346023
  C       2.506667     -0.008427     -0.390755
  C       1.411676      0.506409     -1.323712
  C       0.156265      0.805207     -0.565619
  C      -0.109453      1.925562      0.170127
  N      -1.332931      1.819759      0.765601
  C      -1.889025      0.619803      0.432590
  C      -3.110923      0.057169      0.784443
  C      -3.409257     -1.190334      0.281940
  C      -2.518588     -1.870309     -0.555990
  C      -1.306915     -1.322063     -0.907681
  C      -0.973080     -0.058401     -0.410374
  C       2.938233      1.039735      0.712691
  O       3.132678      2.205340      0.354938
  O       3.066861      0.538218      1.847954
  H       2.173474     -2.084707     -0.167334
  H       1.059775     -1.081873      0.586277
  H       2.580867     -1.173817      1.246907
  H       3.414577     -0.235944     -0.954783
  H       1.780323      1.414644     -1.802013
  H       1.209787     -0.232142     -2.101006
  H       0.505598      2.794412      0.305282
  H      -1.755131      2.506186      1.367107
  H      -3.800078      0.584226      1.426582
  H      -4.350862     -1.655559      0.532688
  H      -2.798403     -2.842837     -0.931970
  H      -0.637420     -1.851871     -1.567631
27
Coordinates from ORCA-job geo_opt E -43.681607877110
  N       2.055254     -1.207330      0.347457
  C       2.501753     -0.010403     -0.396169
  C       1.407022      0.511485     -1.325570
  C       0.152134      0.806523     -0.566682
  C      -0.115802      1.927042      0.167525
  N      -1.338439      1.820558      0.763947
  C      -1.893149      0.619901      0.431894
  C      -3.113866      0.056460      0.785418
  C      -3.412595     -1.191496      0.283634
  C      -2.523608     -1.870126     -0.556571
  C      -1.312642     -1.321188     -0.909914
  C      -0.977210     -0.058554     -0.411918
  C       2.952460      1.026084      0.713226
  O       3.146210      2.196296      0.373276
  O       3.109727      0.504649      1.838497
  H       2.232876     -2.096285     -0.123694
  H       1.048180     -1.114238      0.544686
  H       2.553333     -1.101715      1.267356
  H       3.406090     -0.238437     -0.965416
  H       1.778778      1.423518     -1.794505
  H       1.206283     -0.221756     -2.107812
  H       0.500756      2.795378      0.300833
  H      -1.758713      2.510325      1.362729
  H      -3.803398      0.581807      1.428547
  H      -4.353589     -1.656429      0.537150
  H      -2.803196     -2.842630     -0.932927
  H      -0.644649     -1.849440     -1.572715
27
Coordinates from ORCA-job geo_opt E -43.682355252420
  N       2.047825     -1.218174      0.332275
  C       2.492730     -0.016049     -0.404522
  C       1.405380      0.526389     -1.330493
  C       0.149890      0.813624     -0.571605
  C      -0.123147      1.936812      0.155844
  N      -1.343590      1.828838      0.755930
  C      -1.893419      0.624304      0.430872
  C      -3.110531      0.058247      0.790809
  C      -3.407043     -1.193685      0.296545
  C      -2.518937     -1.872425     -0.543661
  C      -1.310554     -1.321172     -0.903117
  C      -0.976389     -0.056076     -0.411843
  C       2.952076      1.001079      0.721515
  O       3.162915      2.174143      0.408213
  O       3.098356      0.456198      1.839840
  H       2.322378     -2.110855     -0.078402
  H       1.027337     -1.185345      0.452369
  H       2.487180     -1.021713      1.282039
  H       3.396674     -0.237058     -0.977297
  H       1.786003      1.447064     -1.774855
  H       1.207706     -0.192177     -2.126424
  H       0.494458      2.805608      0.282515
  H      -1.761156      2.526320      1.347500
  H      -3.801513      0.582375      1.433331
  H      -4.345741     -1.659077      0.557296
  H      -2.795415     -2.847618     -0.915327
  H      -0.643471     -1.849578     -1.567063
27
Coordinates from ORCA-job geo_opt E -43.682793913720
  N       2.017804     -1.236415      0.303012
  C       2.482023     -0.027189     -0.412077
  C       1.410475      0.551246     -1.334686
  C       0.152504      0.829357     -0.577729
  C      -0.130076      1.956873      0.138642
  N      -1.347908      1.843912      0.743316
  C      -1.886709      0.631385      0.430837
  C      -3.097081      0.057869      0.800219
  C      -3.384574     -1.201830      0.319275
  C      -2.493671     -1.879723     -0.517848
  C      -1.291028     -1.321294     -0.886398
  C      -0.965509     -0.049400     -0.407869
  C       2.937286      0.974241      0.731232
  O       3.212969      2.134927      0.427554
  O       2.998852      0.430006      1.859348
  H       2.364858     -2.122085     -0.062475
  H       0.992644     -1.246816      0.345328
  H       2.395197     -0.996808      1.281377
  H       3.387047     -0.244883     -0.984111
  H       1.806241      1.482218     -1.742572
  H       1.215551     -0.142591     -2.152628
  H       0.484288      2.829417      0.256664
  H      -1.766694      2.549038      1.324870
  H      -3.791663      0.580521      1.440030
  H      -4.318197     -1.671933      0.589292
  H      -2.761815     -2.860676     -0.880470
  H      -0.622813     -1.849364     -1.549851
27
Coordinates from ORCA-job geo_opt E -43.682547885760
  N       1.975434     -1.211347      0.333729
  C       2.477961     -0.044762     -0.423453
  C       1.412583      0.552211     -1.337067
  C       0.159675      0.833297     -0.568677
  C      -0.111835      1.949380      0.170927
  N      -1.328434      1.827382      0.779233
  C      -1.873429      0.622215      0.447233
  C      -3.084773      0.043719      0.809122
  C      -3.372351     -1.207190      0.307346
  C      -2.480500     -1.874991     -0.538802
  C      -1.278155     -1.311628     -0.900291
  C      -0.956503     -0.043884     -0.404346
  C       2.969276      0.977704      0.675745
  O       3.251507      2.123256      0.330153
  O       2.983565      0.474909      1.820902
  H       2.401143     -2.102409      0.083017
  H       0.951147     -1.274728      0.249961
  H       2.215914     -0.897609      1.334017
  H       3.370132     -0.311574     -0.996375
  H       1.808519      1.479323     -1.751854
  H       1.203615     -0.135591     -2.157798
  H       0.499621      2.820844      0.303843
  H      -1.752909      2.516108      1.377180
  H      -3.775812      0.560318      1.457467
  H      -4.306008     -1.683358      0.566127
  H      -2.750497     -2.849883     -0.915384
  H      -0.608886     -1.831710     -1.569674
27
Coordinates from ORCA-job geo_opt E -43.683286000930
  N       1.970564     -1.243698      0.294123
  C       2.476862     -0.053679     -0.423584
  C       1.420358      0.568368     -1.336245
  C       0.163337      0.843146     -0.573624
  C      -0.119768      1.968265      0.146958
  N      -1.333805      1.845067      0.759656
  C      -1.867688      0.630986      0.445690
  C      -3.073371      0.048819      0.818263
  C      -3.354975     -1.210666      0.333409
  C      -2.463020     -1.880719     -0.509372
  C      -1.265194     -1.313877     -0.881591
  C      -0.947324     -0.040197     -0.399022
  C       2.920071      0.968403      0.702122
  O       3.302009      2.084844      0.354564
  O       2.815484      0.499681      1.858891
  H       2.416685     -2.119654      0.024233
  H       0.950201     -1.317103      0.198754
  H       2.214460     -0.967042      1.305242
  H       3.376493     -0.294756     -0.993702
  H       1.829927      1.506525     -1.711988
  H       1.217657     -0.094686     -2.178588
  H       0.488060      2.844822      0.267849
  H      -1.758428      2.544925      1.344016
  H      -3.767126      0.567738      1.462038
  H      -4.284544     -1.688751      0.603111
  H      -2.727579     -2.861351     -0.875686
  H      -0.599349     -1.835412     -1.553236
27
Coordinates from ORCA-job geo_opt E -43.683376300860
  N       1.996653     -1.239487      0.304788
  C       2.483863     -0.050493     -0.424535
  C       1.415934      0.556857     -1.336589
  C       0.160631      0.834355     -0.572468
  C      -0.117977      1.958058      0.151866
  N      -1.331982      1.838226      0.764443
  C      -1.871583      0.627883      0.446492
  C      -3.079802      0.050166      0.817677
  C      -3.368501     -1.205390      0.327270
  C      -2.481856     -1.875390     -0.521003
  C      -1.281667     -1.312993     -0.892281
  C      -0.955328     -0.044219     -0.402319
  C       2.917310      0.977474      0.701724
  O       3.297683      2.095315      0.353053
  O       2.831513      0.504347      1.858566
  H       2.451197     -2.113614      0.041813
  H       0.976765     -1.324566      0.222277
  H       2.245602     -0.946031      1.306193
  H       3.382957     -0.282916     -0.997566
  H       1.820109      1.493795     -1.722086
  H       1.212097     -0.113434     -2.172637
  H       0.492723      2.832333      0.275376
  H      -1.753088      2.537105      1.352054
  H      -3.769989      0.569554      1.464909
  H      -4.300011     -1.680215      0.596238
  H      -2.752446     -2.852642     -0.891976
  H      -0.620809     -1.834078     -1.568998
27
Coordinates from ORCA-job geo_opt E -43.683412157330
  N       1.996220     -1.237034      0.308747
  C       2.485284     -0.052542     -0.426018
  C       1.414974      0.554339     -1.335628
  C       0.161301      0.833188     -0.569549
  C      -0.114330      1.954137      0.160314
  N      -1.329001      1.834383      0.771525
  C      -1.870997      0.626119      0.449251
  C      -3.080441      0.048899      0.817893
  C      -3.370166     -1.204567      0.323455
  C      -2.483606     -1.873551     -0.526108
  C      -1.282577     -1.311559     -0.894969
  C      -0.955520     -0.044282     -0.401422
  C       2.920755      0.982785      0.693362
  O       3.314287      2.093262      0.334098
  O       2.822330      0.525297      1.854891
  H       2.465946     -2.108960      0.065079
  H       0.978890     -1.335095      0.210072
  H       2.222815     -0.933944      1.311082
  H       3.380848     -0.288444     -1.002474
  H       1.818761      1.489660     -1.725747
  H       1.207745     -0.116800     -2.170189
  H       0.496124      2.827951      0.287383
  H      -1.750517      2.530166      1.362537
  H      -3.769792      0.567671      1.466458
  H      -4.302296     -1.679578      0.590026
  H      -2.755276     -2.849444     -0.899602
  H      -0.621761     -1.832054     -1.572186
27
Coordinates from ORCA-job geo_opt E -43.683426197480
  N       1.995839     -1.235661      0.309235
  C       2.486799     -0.053380     -0.427885
  C       1.414238      0.553369     -1.335234
  C       0.161968      0.833413     -0.567905
  C      -0.112211      1.952631      0.165099
  N      -1.326924      1.832646      0.775931
  C      -1.870354      0.625520      0.451100
  C      -3.080183      0.048170      0.818755
  C      -3.370268     -1.204115      0.322069
  C      -2.483726     -1.872419     -0.528346
  C      -1.282580     -1.310231     -0.896209
  C      -0.955512     -0.043565     -0.401332
  C       2.921386      0.984734      0.688979
  O       3.333814      2.087530      0.325330
  O       2.801449      0.539198      1.852351
  H       2.479648     -2.104634      0.082301
  H       0.981218     -1.345830      0.196877
  H       2.202775     -0.926212      1.312771
  H       3.379824     -0.289397     -1.007776
  H       1.818410      1.486664     -1.729950
  H       1.203926     -0.119178     -2.168027
  H       0.497411      2.826760      0.293881
  H      -1.748417      2.525872      1.369921
  H      -3.768932      0.566226      1.468479
  H      -4.302528     -1.679490      0.587600
  H      -2.755669     -2.847863     -0.902629
  H      -0.621403     -1.830758     -1.573101
27
Coordinates from ORCA-job geo_opt E -43.683429250710
  N       1.998408     -1.235760      0.308419
  C       2.487880     -0.052146     -0.427663
  C       1.413611      0.551983     -1.334955
  C       0.161803      0.832931     -0.567472
  C      -0.111993      1.951901      0.166024
  N      -1.326895      1.832418      0.776426
  C      -1.870892      0.625678      0.451038
  C      -3.080932      0.048727      0.818478
  C      -3.371540     -1.203313      0.321431
  C      -2.485148     -1.871895     -0.528899
  C      -1.283766     -1.310020     -0.896474
  C      -0.956333     -0.043531     -0.401687
  C       2.921670      0.985851      0.689642
  O       3.335430      2.088263      0.326320
  O       2.800293      0.540973      1.853298
  H       2.485040     -2.103620      0.083069
  H       0.984200     -1.348574      0.194900
  H       2.202452     -0.925680      1.312638
  H       3.380561     -0.286089     -1.008894
  H       1.817133      1.483977     -1.733466
  H       1.202732     -0.123398     -2.165429
  H       0.497753      2.825961      0.295130
  H      -1.747876      2.524964      1.371597
  H      -3.769527      0.566809      1.468385
  H      -4.304106     -1.678267      0.586700
  H      -2.757463     -2.847256     -0.903211
  H      -0.622493     -1.830888     -1.573061
27
Coordinates from ORCA-job geo_opt E -43.683430978210
  N       2.001055     -1.236178      0.306487
  C       2.488955     -0.050508     -0.427523
  C       1.413145      0.550838     -1.335132
  C       0.161800      0.832578     -0.567371
  C      -0.111782      1.951585      0.166035
  N      -1.326920      1.832794      0.776037
  C      -1.871181      0.626143      0.450759
  C      -3.081297      0.049630      0.818356
  C      -3.372359     -1.202510      0.321617
  C      -2.486159     -1.871560     -0.528428
  C      -1.284597     -1.310053     -0.896094
  C      -0.956827     -0.043531     -0.401928
  C       2.920343      0.986169      0.691478
  O       3.335100      2.088800      0.330345
  O       2.796193      0.539909      1.854478
  H       2.490286     -2.102719      0.081873
  H       0.987323     -1.351256      0.191657
  H       2.202859     -0.925847      1.311646
  H       3.382047     -0.281422     -1.009366
  H       1.815839      1.481665     -1.737100
  H       1.202188     -0.127581     -2.163152
  H       0.498297      2.825454      0.295135
  H      -1.747104      2.524944      1.372218
  H      -3.769820      0.567873      1.468233
  H      -4.305146     -1.676949      0.587022
  H      -2.758786     -2.846969     -0.902430
  H      -0.623452     -1.831300     -1.572572
27
Coordinates from ORCA-job geo_opt E -43.683431273450
  N       2.002143     -1.236427      0.305922
  C       2.489307     -0.049974     -0.427351
  C       1.413088      0.550187     -1.335360
  C       0.161894      0.832222     -0.567436
  C      -0.111439      1.951312      0.165901
  N      -1.326621      1.832809      0.775926
  C      -1.871061      0.626228      0.450731
  C      -3.081249      0.050002      0.818436
  C      -3.372654     -1.202129      0.321769
  C      -2.486706     -1.871315     -0.528374
  C      -1.285049     -1.310053     -0.896185
  C      -0.956934     -0.043631     -0.402037
  C       2.919105      0.986575      0.692166
  O       3.333119      2.089645      0.331731
  O       2.794401      0.539692      1.854928
  H       2.492267     -2.102459      0.081350
  H       0.988613     -1.352254      0.190443
  H       2.203372     -0.925848      1.311309
  H       3.382917     -0.279772     -1.008870
  H       1.815242      1.480785     -1.738361
  H       1.202397     -0.129312     -2.162527
  H       0.499001      2.824928      0.295038
  H      -1.746258      2.524843      1.372633
  H      -3.769644      0.568333      1.468381
  H      -4.305502     -1.676329      0.587366
  H      -2.759553     -2.846674     -0.902354
  H      -0.624197     -1.831383     -1.572895
