27
zwitterion conformer 5
N       2.05015017    -1.36296419     0.12998811
C       2.39294136    -0.06741824    -0.34289462
C       1.38044680     0.65589210    -1.15024422
C       0.09638497     0.92322411    -0.50700021
C      -0.31040037     2.13216451     0.05582832
N      -1.56383470     1.98652335     0.56847236
C      -1.97488219     0.72425239     0.35318798
C      -3.16166506     0.10550135     0.68168805
C      -3.33890612    -1.22274006     0.33515046
C      -2.34659957    -1.94140996    -0.33516587
C      -1.17657026    -1.28546073    -0.64377446
C      -0.95442014     0.05031127    -0.31460791
C       2.94529201     0.77599095     0.77226121
O       3.66124465     1.75568790     0.42943283
O       2.68346387     0.49487241     2.10728831
H       1.91785129    -2.03282273    -0.65450007
H       1.28660243    -1.36993608     0.84178166
H       2.92959655    -1.73036109     0.61461982
H       3.28897541    -0.20581670    -1.02239530
H       1.88320390     1.59309601    -1.51343442
H       1.23706374     0.06508630    -2.08940714
H       0.27950884     3.06328471     0.08813807
H      -2.05714871     2.78394010     1.03932013
H      -3.97041070     0.62525805     1.20678377
H      -4.28341552    -1.69540738     0.60300347
H      -2.49425750    -2.99468849    -0.60722251
H      -0.40021514    -1.82605988    -1.16401527
