20
neutral_epsilon CPCM-opt conformer 2
N      -1.35801046    -0.26763075     1.84583979
C      -1.59801656    -0.50842256     0.42375751
C      -0.41359783    -1.18229215    -0.35287743
C       0.85337879    -0.38748888    -0.36919008
C       1.94071366    -0.48444327     0.47929698
N       2.83117077     0.47945316     0.05861573
C       2.27483165     1.12033993    -1.00578103
N       1.07700717     0.62443767    -1.29538101
C      -2.00133154     0.79368118    -0.25286451
O      -1.81539701     1.91342363     0.19620284
O      -2.59366759     0.57132657    -1.45041343
H      -1.12659249    -1.16003844     2.29122354
H      -0.52861723     0.32479743     1.95631301
H      -2.45677092    -1.19197350     0.33210578
H      -0.73847740    -1.38947871    -1.38377254
H      -0.23762719    -2.15110627     0.13713068
H       2.15793723    -1.14340622     1.31296185
H       3.74445384     0.66810106     0.46352341
H       2.77978912     1.92657944    -1.53084655
H      -2.79117603     1.44414071    -1.85584455
