24
Coordinates from ORCA-job geo_opt E -43.532496374840
  N          -3.60954081516919     -0.79327180807466      0.13303236198096
  C          -3.56807123681691      0.67709958938963      0.00609170008290
  C          -2.20820678723333      1.33280755880256      0.24484343794651
  O          -2.12159208681929      2.55326814168750      0.26146645331144
  N          -1.18049412549076      0.50885313919448      0.47854017770786
  C           0.18479621243754      0.96625923735481      0.58608332339005
  C           1.07192801850139     -0.14514476256526      0.02251466245427
  O           0.55650111700138     -1.20370070626440     -0.34141353979843
  N           2.36732792386712      0.11579157185513     -0.01030947239169
  C           3.38413842079361     -0.75874485681284     -0.52711414787861
  C           4.72446683126202      0.04907247769076     -0.58730289428847
  O           5.71248006336792     -0.54357647492126     -1.04684671446688
  O           4.66843219027019      1.21989260933045     -0.16067277990207
  H          -4.57681175698334     -1.11937540891765      0.00286045865465
  H          -3.29039741857860     -1.08662906811780      1.06493605523881
  H          -3.02315770409071     -1.24863461671498     -0.57760408380226
  H          -4.25643281036121      1.13617234904951      0.71846880642189
  H          -3.88623047625055      0.98207848410586     -0.99288942623125
  H          -1.18050516282611     -0.48108101042806      0.23107974392227
  H           0.32732402038630      1.89650017123690      0.02943435456782
  H           0.45802689510391      1.15044680181346      1.62963499485935
  H           2.76695847588272      1.01964164041549      0.24820648010455
  H           3.53772947407274     -1.62864740687787      0.11829203157599
  H           3.14133074767315     -1.11585966223175     -1.53133195345966
