24
Coordinates from ORCA-job geo_opt E -43.470689699510
  N      -3.870355     -0.395057      0.618112
  C      -3.370002      0.397231     -0.467497
  C      -1.922396      0.734394     -0.330224
  O      -1.364932      1.425997     -1.219149
  N      -1.217616      0.259489      0.808002
  C       0.169350      0.538727      1.013010
  C       1.036251      0.011999     -0.089785
  O       0.565118     -0.606791     -1.079405
  N       2.440593      0.261433      0.059734
  C       3.318531     -0.233319     -0.989167
  C       4.711497      0.140080     -0.619400
  O       5.689724     -0.163358     -1.352791
  O       5.002437      0.845441      0.559226
  H      -4.857213     -0.594157      0.432846
  H      -3.764722      0.041946      1.554596
  H      -3.341053     -1.280225      0.641745
  H      -3.967768      1.303820     -0.664630
  H      -3.449975     -0.245233     -1.383084
  H      -1.757020     -0.319024      1.516139
  H       0.288470      1.656552      1.098892
  H       0.486586      0.160431      2.007469
  H       2.811240      0.784755      0.902323
  H       3.322925     -1.362636     -1.014704
  H       3.040329      0.120724     -2.002256
24
Coordinates from ORCA-job geo_opt E -43.509283498810
  N      -3.876402     -0.431978      0.624714
  C      -3.336221      0.395238     -0.455625
  C      -1.883496      0.754257     -0.313399
  O      -1.334671      1.462841     -1.160617
  N      -1.210460      0.285626      0.786873
  C       0.179559      0.561687      0.997153
  C       1.048186      0.012294     -0.099451
  O       0.598292     -0.611446     -1.062077
  N       2.395157      0.250117      0.045750
  C       3.300031     -0.242048     -0.962869
  C       4.704518      0.149134     -0.603512
  O       5.666608     -0.163160     -1.332975
  O       4.931955      0.829659      0.504737
  H      -4.866393     -0.623023      0.424360
  H      -3.793630     -0.003492      1.560390
  H      -3.363269     -1.324921      0.651750
  H      -3.923590      1.302054     -0.631228
  H      -3.401635     -0.197991     -1.387136
  H      -1.727447     -0.279152      1.463922
  H       0.314821      1.662761      1.066217
  H       0.490846      0.181016      1.978991
  H       2.752315      0.768222      0.850333
  H       3.303124     -1.352857     -0.976046
  H       3.031803      0.098380     -1.970254
24
Coordinates from ORCA-job geo_opt E -43.522176110170
  N      -3.873008     -0.472076      0.613946
  C      -3.313881      0.396225     -0.445975
  C      -1.859082      0.797254     -0.288569
  O      -1.336809      1.542019     -1.101018
  N      -1.211698      0.322171      0.783377
  C       0.186907      0.590045      0.994729
  C       1.046932     -0.004584     -0.106004
  O       0.583966     -0.651511     -1.031491
  N       2.352732      0.227442      0.026205
  C       3.296458     -0.266240     -0.937792
  C       4.718363      0.171124     -0.584916
  O       5.656808     -0.162108     -1.331032
  O       4.869334      0.835649      0.446981
  H      -4.860882     -0.663942      0.398668
  H      -3.817626     -0.048486      1.548837
  H      -3.366121     -1.366843      0.635417
  H      -3.907411      1.299390     -0.584369
  H      -3.359837     -0.144441     -1.396698
  H      -1.705249     -0.248538      1.443240
  H       0.346319      1.676262      1.033701
  H       0.496029      0.202130      1.965902
  H       2.712858      0.762887      0.797917
  H       3.307179     -1.364653     -0.931906
  H       3.037720      0.054042     -1.949149
24
Coordinates from ORCA-job geo_opt E -43.526403801920
  N      -3.840172     -0.540424      0.535114
  C      -3.286148      0.418588     -0.449894
  C      -1.855154      0.894501     -0.221808
  O      -1.366795      1.722240     -0.974219
  N      -1.210357      0.394373      0.841976
  C       0.197796      0.636214      1.035579
  C       1.023589     -0.042888     -0.053592
  O       0.520243     -0.773283     -0.895939
  N       2.331661      0.204116      0.017980
  C       3.270792     -0.336026     -0.924598
  C       4.695947      0.185869     -0.630583
  O       5.610890     -0.183448     -1.392509
  O       4.828708      0.927068      0.362527
  H      -4.810367     -0.762417      0.272390
  H      -3.846898     -0.159871      1.489370
  H      -3.298009     -1.414098      0.526101
  H      -3.917596      1.302598     -0.532090
  H      -3.279567     -0.045437     -1.439150
  H      -1.680902     -0.221567      1.479942
  H       0.393239      1.713617      1.014353
  H       0.505288      0.266631      2.012682
  H       2.720781      0.811990      0.724280
  H       3.307894     -1.429118     -0.848987
  H       2.985135     -0.086008     -1.948924
24
Coordinates from ORCA-job geo_opt E -43.528354277380
  N      -3.808068     -0.559306      0.455049
  C      -3.216351      0.426897     -0.476995
  C      -1.817000      0.953848     -0.146767
  O      -1.312094      1.791448     -0.879079
  N      -1.205192      0.441552      0.930946
  C       0.207999      0.658835      1.122704
  C       0.988744     -0.095488      0.037554
  O       0.422105     -0.852917     -0.743169
  N       2.294689      0.159939      0.027619
  C       3.220630     -0.395853     -0.920776
  C       4.638720      0.223210     -0.692449
  O       5.518335     -0.130191     -1.498078
  O       4.735475      1.043817      0.239314
  H      -4.749047     -0.808050      0.120411
  H      -3.906204     -0.171716      1.401232
  H      -3.244465     -1.418412      0.482278
  H      -3.866559      1.298815     -0.564872
  H      -3.130870     -0.006458     -1.475087
  H      -1.647504     -0.244710      1.519858
  H       0.439615      1.723413      1.044732
  H       0.510590      0.293790      2.102498
  H       2.727199      0.820859      0.666153
  H       3.300212     -1.481724     -0.807200
  H       2.899042     -0.188378     -1.945874
24
Coordinates from ORCA-job geo_opt E -43.527454853410
  N      -3.779773     -0.586658      0.414395
  C      -3.199958      0.439211     -0.474297
  C      -1.807829      0.972126     -0.116995
  O      -1.328568      1.858065     -0.811382
  N      -1.202596      0.463561      0.968737
  C       0.210562      0.699590      1.145129
  C       0.967261     -0.096027      0.061928
  O       0.368442     -0.905794     -0.642798
  N       2.270620      0.156769      0.002657
  C       3.198621     -0.426417     -0.929349
  C       4.598354      0.270680     -0.734422
  O       5.500715     -0.165717     -1.465077
  O       4.684289      1.029955      0.249095
  H      -4.713879     -0.838816      0.063573
  H      -3.895970     -0.221147      1.367873
  H      -3.205051     -1.438351      0.417178
  H      -3.858907      1.310829     -0.510936
  H      -3.104646      0.057368     -1.492076
  H      -1.586930     -0.302336      1.502031
  H       0.438480      1.758056      1.013587
  H       0.528985      0.356520      2.128208
  H       2.730848      0.862620      0.579713
  H       3.311663     -1.503648     -0.772836
  H       2.875265     -0.267221     -1.963934
24
Coordinates from ORCA-job geo_opt E -43.529388417810
  N      -3.788467     -0.581826      0.421492
  C      -3.227665      0.459204     -0.459708
  C      -1.818398      0.958826     -0.135489
  O      -1.353603      1.867235     -0.810627
  N      -1.204962      0.448193      0.946174
  C       0.207948      0.691693      1.120735
  C       0.978349     -0.096351      0.042021
  O       0.394823     -0.921055     -0.657370
  N       2.283588      0.148641      0.002825
  C       3.221905     -0.449700     -0.909032
  C       4.617598      0.242576     -0.694229
  O       5.528868     -0.141508     -1.442686
  O       4.660836      1.112102      0.198969
  H      -4.736249     -0.816987      0.095885
  H      -3.865276     -0.241899      1.388720
  H      -3.221306     -1.437759      0.382698
  H      -3.874544      1.340314     -0.456454
  H      -3.169508      0.099362     -1.488798
  H      -1.575405     -0.337353      1.459153
  H       0.425695      1.753014      0.989510
  H       0.528394      0.359494      2.107005
  H       2.738992      0.852152      0.585899
  H       3.330356     -1.524891     -0.735999
  H       2.918030     -0.300261     -1.950694
24
Coordinates from ORCA-job geo_opt E -43.529785056840
  N      -3.789354     -0.565577      0.427334
  C      -3.217772      0.460182     -0.467592
  C      -1.817380      0.968392     -0.128139
  O      -1.314503      1.826798     -0.839459
  N      -1.210057      0.455373      0.955565
  C       0.206687      0.675644      1.133817
  C       0.984168     -0.124853      0.073067
  O       0.400995     -0.914925     -0.663883
  N       2.285466      0.132859      0.025034
  C       3.210012     -0.438937     -0.915080
  C       4.602605      0.249271     -0.709033
  O       5.514810     -0.107917     -1.471415
  O       4.655279      1.111133      0.191931
  H      -4.729032     -0.816891      0.089855
  H      -3.882153     -0.209925      1.387221
  H      -3.213299     -1.416643      0.418362
  H      -3.866095      1.337385     -0.503936
  H      -3.139576      0.071921     -1.485352
  H      -1.585999     -0.339989      1.446445
  H       0.435983      1.735436      1.004563
  H       0.513603      0.353262      2.126742
  H       2.738062      0.831815      0.613152
  H       3.329183     -1.515417     -0.761503
  H       2.888368     -0.275178     -1.947696
24
Coordinates from ORCA-job geo_opt E -43.530246156220
  N      -3.772199     -0.585250      0.418158
  C      -3.229292      0.474965     -0.453300
  C      -1.826796      0.981512     -0.123191
  O      -1.342536      1.865923     -0.815563
  N      -1.212081      0.465667      0.956006
  C       0.203995      0.700020      1.121054
  C       0.977763     -0.110825      0.064691
  O       0.389648     -0.921612     -0.646771
  N       2.280499      0.133573      0.016495
  C       3.209205     -0.458869     -0.906010
  C       4.598289      0.238498     -0.699186
  O       5.524068     -0.137279     -1.434314
  O       4.636053      1.117152      0.185442
  H      -4.715352     -0.837514      0.091357
  H      -3.848391     -0.259973      1.390288
  H      -3.187241     -1.428841      0.370661
  H      -3.883627      1.348560     -0.443990
  H      -3.168679      0.123674     -1.485533
  H      -1.546017     -0.378904      1.394430
  H       0.421642      1.758913      0.971197
  H       0.521084      0.396020      2.116870
  H       2.742047      0.843258      0.587255
  H       3.328244     -1.531908     -0.731022
  H       2.899673     -0.313543     -1.945025
24
Coordinates from ORCA-job geo_opt E -43.530567391170
  N      -3.744251     -0.614043      0.404385
  C      -3.253818      0.501201     -0.428530
  C      -1.843658      1.000496     -0.127218
  O      -1.388601      1.921065     -0.790940
  N      -1.215621      0.478119      0.945407
  C       0.198836      0.733531      1.096571
  C       0.975550     -0.106149      0.068003
  O       0.383442     -0.932364     -0.623859
  N       2.278853      0.127882      0.019738
  C       3.210668     -0.486621     -0.884234
  C       4.594123      0.221842     -0.686928
  O       5.534595     -0.174434     -1.390832
  O       4.619954      1.124036      0.174163
  H      -4.697310     -0.864246      0.106526
  H      -3.776483     -0.344787      1.395930
  H      -3.150526     -1.444071      0.284061
  H      -3.913581      1.366113     -0.338129
  H      -3.238105      0.211787     -1.481422
  H      -1.484720     -0.431412      1.293073
  H       0.399051      1.789230      0.907023
  H       0.521299      0.472994      2.103646
  H       2.747448      0.856519      0.563172
  H       3.334031     -1.554266     -0.680617
  H       2.908823     -0.369207     -1.928988
24
Coordinates from ORCA-job geo_opt E -43.530680036190
  N      -3.723202     -0.644919      0.395561
  C      -3.278430      0.512783     -0.405099
  C      -1.873192      1.033724     -0.116144
  O      -1.440522      1.968947     -0.772923
  N      -1.216132      0.493958      0.933914
  C       0.197531      0.765912      1.070107
  C       0.974167     -0.078872      0.048661
  O       0.383386     -0.914789     -0.632963
  N       2.281100      0.136612      0.016390
  C       3.214472     -0.501072     -0.869870
  C       4.604989      0.188048     -0.668712
  O       5.548104     -0.233174     -1.354775
  O       4.636695      1.102610      0.179000
  H      -4.677754     -0.905943      0.112514
  H      -3.733052     -0.416183      1.397544
  H      -3.114052     -1.455494      0.228555
  H      -3.955280      1.357697     -0.265058
  H      -3.285149      0.263795     -1.468377
  H      -1.453085     -0.440341      1.238532
  H       0.382494      1.821863      0.866448
  H       0.528857      0.525284      2.079802
  H       2.752980      0.865116      0.556762
  H       3.321582     -1.567665     -0.650908
  H       2.923492     -0.394679     -1.918962
24
Coordinates from ORCA-job geo_opt E -43.530822975200
  N      -3.706442     -0.671020      0.378079
  C      -3.301348      0.526659     -0.384209
  C      -1.896880      1.060641     -0.111737
  O      -1.490023      2.016808     -0.752885
  N      -1.214442      0.504730      0.915965
  C       0.197734      0.790362      1.048122
  C       0.980411     -0.077428      0.053338
  O       0.392150     -0.918605     -0.624275
  N       2.288518      0.135279      0.025897
  C       3.222408     -0.517697     -0.849551
  C       4.614980      0.168875     -0.663401
  O       5.553091     -0.269422     -1.346536
  O       4.653168      1.098730      0.167302
  H      -4.666236     -0.932543      0.114264
  H      -3.685625     -0.487359      1.389051
  H      -3.092354     -1.464902      0.157126
  H      -3.987499      1.352895     -0.186599
  H      -3.339044      0.323560     -1.456405
  H      -1.435031     -0.440617      1.198985
  H       0.374236      1.842626      0.818265
  H       0.526087      0.579935      2.065856
  H       2.757132      0.872533      0.555760
  H       3.327139     -1.580938     -0.612739
  H       2.927870     -0.429882     -1.899673
24
Coordinates from ORCA-job geo_opt E -43.531026816050
  N      -3.652798     -0.737518      0.313164
  C      -3.354743      0.562781     -0.319593
  C      -1.960125      1.137980     -0.076636
  O      -1.622985      2.151858     -0.664382
  N      -1.211044      0.536612      0.876368
  C       0.196826      0.855556      0.987699
  C       0.992204     -0.074860      0.065476
  O       0.410794     -0.945425     -0.580549
  N       2.302210      0.132714      0.043762
  C       3.238802     -0.571165     -0.790585
  C       4.633020      0.122030     -0.655130
  O       5.559934     -0.364896     -1.322214
  O       4.679059      1.104174      0.112551
  H      -4.620363     -1.008853      0.092068
  H      -3.556861     -0.678783      1.334707
  H      -3.027571     -1.469344     -0.049595
  H      -4.059820      1.319653      0.033250
  H      -3.472598      0.492436     -1.402244
  H      -1.388558     -0.434124      1.097479
  H       0.350881      1.891659      0.680878
  H       0.522781      0.729775      2.020718
  H       2.762422      0.900043      0.533746
  H       3.343152     -1.618069     -0.488800
  H       2.935381     -0.551016     -1.842138
24
Coordinates from ORCA-job geo_opt E -43.531161345470
  N      -3.634498     -0.756170      0.280874
  C      -3.374060      0.579422     -0.291532
  C      -1.985596      1.169927     -0.050682
  O      -1.676775      2.211588     -0.605649
  N      -1.208333      0.542347      0.859050
  C       0.197004      0.873956      0.963032
  C       0.998737     -0.083021      0.074324
  O       0.422722     -0.976847     -0.544209
  N       2.307973      0.129428      0.048432
  C       3.247429     -0.596513     -0.763945
  C       4.637002      0.113116     -0.660748
  O       5.562415     -0.390412     -1.317606
  O       4.679280      1.121879      0.071497
  H      -4.600273     -1.035678      0.062232
  H      -3.524526     -0.745327      1.302619
  H      -3.000233     -1.456370     -0.125844
  H      -4.085114      1.302641      0.116406
  H      -3.516652      0.562264     -1.373310
  H      -1.373343     -0.435733      1.057355
  H       0.343312      1.900486      0.621596
  H       0.522718      0.784877      2.000304
  H       2.761293      0.915121      0.514537
  H       3.361333     -1.630826     -0.425052
  H       2.938184     -0.616937     -1.813682
24
Coordinates from ORCA-job geo_opt E -43.531660454930
  N      -3.564562     -0.804752      0.135220
  C      -3.435260      0.631307     -0.178568
  C      -2.072796      1.271955      0.074643
  O      -1.867998      2.409087     -0.327808
  N      -1.197241      0.561979      0.802190
  C       0.197571      0.936526      0.873713
  C       1.019946     -0.113534      0.118938
  O       0.463491     -1.099337     -0.363046
  N       2.323846      0.121445      0.058566
  C       3.275082     -0.691141     -0.651855
  C       4.636094      0.084828     -0.705528
  O       5.562583     -0.479209     -1.308790
  O       4.652007      1.194728     -0.138634
  H      -4.516545     -1.113813     -0.103608
  H      -3.420298     -0.978425      1.137911
  H      -2.894800     -1.362855     -0.410595
  H      -4.155820      1.202243      0.413610
  H      -3.664743      0.813787     -1.229784
  H      -1.318878     -0.437847      0.904843
  H       0.318492      1.915082      0.403539
  H       0.526994      0.985268      1.914003
  H       2.749522      0.979083      0.408600
  H       3.440153     -1.650435     -0.153307
  H       2.943159     -0.892753     -1.674250
24
Coordinates from ORCA-job geo_opt E -43.531757405050
  N      -3.552254     -0.798054      0.093749
  C      -3.433911      0.649213     -0.169394
  C      -2.080447      1.288176      0.127486
  O      -1.888927      2.450866     -0.212613
  N      -1.191857      0.550094      0.799521
  C       0.197949      0.932979      0.876476
  C       1.024571     -0.141363      0.158245
  O       0.475952     -1.165870     -0.246029
  N       2.321096      0.111425      0.059199
  C       3.276796     -0.717418     -0.623035
  C       4.610059      0.102201     -0.756240
  O       5.543534     -0.455786     -1.352270
  O       4.600215      1.238667     -0.244801
  H      -4.480914     -1.116392     -0.215996
  H      -3.475628     -1.000485      1.098412
  H      -2.836758     -1.327937     -0.420050
  H      -4.174137      1.195573      0.420489
  H      -3.633335      0.864837     -1.220915
  H      -1.307749     -0.454138      0.873906
  H       0.323999      1.897718      0.379240
  H       0.529182      1.008307      1.914756
  H       2.733989      0.996842      0.353816
  H       3.485615     -1.636842     -0.069913
  H       2.932960     -0.989395     -1.624040
24
Coordinates from ORCA-job geo_opt E -43.531999734680
  N      -3.534407     -0.805355      0.055585
  C      -3.476181      0.660668     -0.106388
  C      -2.124148      1.316836      0.160677
  O      -1.973164      2.501138     -0.114524
  N      -1.188319      0.555599      0.742295
  C       0.196014      0.960555      0.811222
  C       1.036325     -0.141468      0.156722
  O       0.493954     -1.183630     -0.210560
  N       2.333464      0.109114      0.063955
  C       3.297026     -0.742134     -0.578840
  C       4.627244      0.074863     -0.741336
  O       5.563404     -0.503093     -1.314187
  O       4.613020      1.230649     -0.274762
  H      -4.464845     -1.136615     -0.234131
  H      -3.400030     -1.075564      1.037874
  H      -2.826171     -1.271427     -0.525639
  H      -4.194856      1.136478      0.565811
  H      -3.747159      0.945011     -1.124858
  H      -1.270333     -0.456318      0.744260
  H       0.314797      1.903108      0.271798
  H       0.516655      1.091876      1.847566
  H       2.741272      1.007889      0.321801
  H       3.508863     -1.635962      0.013999
  H       2.957576     -1.058999     -1.568340
24
Coordinates from ORCA-job geo_opt E -43.532179249710
  N      -3.544734     -0.804758      0.072169
  C      -3.517757      0.667115     -0.054984
  C      -2.156571      1.329530      0.156418
  O      -2.024301      2.522876     -0.070351
  N      -1.187049      0.548739      0.663732
  C       0.192301      0.970974      0.744601
  C       1.043394     -0.132703      0.111515
  O       0.500885     -1.170099     -0.271366
  N       2.342792      0.110421      0.047880
  C       3.322014     -0.749678     -0.558335
  C       4.658712      0.055774     -0.691041
  O       5.609068     -0.530385     -1.232095
  O       4.637400      1.216265     -0.234803
  H      -4.479539     -1.151737     -0.182976
  H      -3.349944     -1.094152      1.038706
  H      -2.857525     -1.244796     -0.553398
  H      -4.201852      1.116021      0.668445
  H      -3.851217      0.972230     -1.048199
  H      -1.233581     -0.465433      0.592233
  H       0.319417      1.916637      0.212364
  H       0.496057      1.109171      1.785236
  H       2.755800      1.007700      0.305155
  H       3.516602     -1.636406      0.052023
  H       3.009627     -1.080087     -1.552930
24
Coordinates from ORCA-job geo_opt E -43.532221220010
  N      -3.526715     -0.808272      0.011692
  C      -3.540057      0.669066      0.004644
  C      -2.187277      1.348996      0.218902
  O      -2.089295      2.559507      0.080553
  N      -1.183306      0.557383      0.624254
  C       0.190354      0.999128      0.688769
  C       1.049678     -0.133961      0.123083
  O       0.512197     -1.196288     -0.194867
  N       2.346643      0.112563      0.044254
  C       3.334080     -0.777196     -0.503036
  C       4.659014      0.035195     -0.700705
  O       5.613434     -0.573960     -1.207537
  O       4.623997      1.223984     -0.324993
  H      -4.458144     -1.159645     -0.249087
  H      -3.299305     -1.168799      0.946562
  H      -2.844843     -1.179265     -0.662667
  H      -4.204593      1.039044      0.788227
  H      -3.920115      1.044196     -0.947162
  H      -1.203394     -0.451145      0.482125
  H       0.315546      1.918246      0.110685
  H       0.491217      1.194388      1.722189
  H       2.754273      1.027589      0.243139
  H       3.544336     -1.613704      0.169941
  H       3.022277     -1.183830     -1.468967
24
Coordinates from ORCA-job geo_opt E -43.532290454090
  N      -3.537806     -0.807453      0.022362
  C      -3.529407      0.668878     -0.018453
  C      -2.174323      1.340025      0.207757
  O      -2.064541      2.547555      0.047389
  N      -1.184035      0.551999      0.647215
  C       0.191117      0.988754      0.710042
  C       1.048272     -0.136251      0.124024
  O       0.512142     -1.196146     -0.203902
  N       2.344092      0.114306      0.039851
  C       3.330695     -0.768802     -0.519537
  C       4.655600      0.045647     -0.705278
  O       5.610526     -0.556261     -1.219463
  O       4.621951      1.228743     -0.311920
  H      -4.473570     -1.150239     -0.233092
  H      -3.317022     -1.150721      0.965480
  H      -2.861608     -1.202831     -0.644020
  H      -4.203806      1.067945      0.741920
  H      -3.884827      1.024985     -0.987264
  H      -1.212068     -0.460646      0.544757
  H       0.318755      1.915001      0.144022
  H       0.497934      1.169679      1.744606
  H       2.752578      1.026090      0.251605
  H       3.540461     -1.614363      0.142443
  H       3.018889     -1.162675     -1.490544
24
Coordinates from ORCA-job geo_opt E -43.532319845020
  N      -3.547335     -0.804999      0.026862
  C      -3.534622      0.671132     -0.012898
  C      -2.176611      1.338029      0.206228
  O      -2.066035      2.546579      0.053177
  N      -1.183847      0.546048      0.632287
  C       0.190250      0.984938      0.699525
  C       1.051439     -0.138875      0.117997
  O       0.519012     -1.201370     -0.207590
  N       2.346499      0.114790      0.035056
  C       3.336817     -0.767778     -0.518298
  C       4.660999      0.047897     -0.697047
  O       5.620049     -0.550980     -1.207200
  O       4.624634      1.230342     -0.301296
  H      -4.488618     -1.144858     -0.211862
  H      -3.308025     -1.150486      0.964642
  H      -2.885920     -1.201461     -0.653582
  H      -4.202344      1.073522      0.751575
  H      -3.894710      1.028120     -0.979577
  H      -1.207416     -0.467148      0.527524
  H       0.321917      1.911313      0.135074
  H       0.493607      1.167962      1.734901
  H       2.754787      1.026406      0.248033
  H       3.544863     -1.611741      0.146346
  H       3.030611     -1.164162     -1.489877
24
Coordinates from ORCA-job geo_opt E -43.532352429020
  N      -3.562618     -0.799695      0.030521
  C      -3.540941      0.676011     -0.007485
  C      -2.179312      1.334603      0.210943
  O      -2.067984      2.545813      0.077286
  N      -1.183012      0.534149      0.609751
  C       0.188964      0.976839      0.687040
  C       1.057755     -0.146922      0.117422
  O       0.532290     -1.216355     -0.196530
  N       2.350766      0.114437      0.029898
  C       3.347201     -0.767484     -0.513312
  C       4.667010      0.054634     -0.691775
  O       5.631333     -0.538663     -1.198541
  O       4.623248      1.237846     -0.298582
  H      -4.511770     -1.132681     -0.186466
  H      -3.301653     -1.149317      0.960927
  H      -2.921186     -1.198668     -0.667189
  H      -4.203971      1.083300      0.758613
  H      -3.900347      1.036018     -0.973158
  H      -1.198650     -0.478135      0.492348
  H       0.326447      1.901057      0.120724
  H       0.484794      1.166221      1.723644
  H       2.756994      1.028394      0.237758
  H       3.557819     -1.604915      0.158781
  H       3.046823     -1.173267     -1.482619
24
Coordinates from ORCA-job geo_opt E -43.532376671860
  N      -3.574656     -0.796279      0.035450
  C      -3.549281      0.679417      0.002424
  C      -2.185432      1.333728      0.218728
  O      -2.078009      2.548262      0.114001
  N      -1.181975      0.525348      0.579913
  C       0.187800      0.972781      0.667386
  C       1.063887     -0.151331      0.110993
  O       0.544451     -1.225928     -0.195330
  N       2.355603      0.115509      0.023882
  C       3.357963     -0.768136     -0.505695
  C       4.676522      0.056430     -0.681537
  O       5.644964     -0.536103     -1.181403
  O       4.627795      1.241086     -0.293358
  H      -4.530591     -1.124843     -0.157608
  H      -3.290061     -1.150895      0.956917
  H      -2.952956     -1.194124     -0.680339
  H      -4.207973      1.085816      0.772850
  H      -3.912378      1.044246     -0.960030
  H      -1.189898     -0.484650      0.440343
  H       0.328969      1.894835      0.097940
  H       0.474690      1.168714      1.705326
  H       2.759374      1.031587      0.227800
  H       3.566612     -1.599391      0.174668
  H       3.064582     -1.182864     -1.473322
24
Coordinates from ORCA-job geo_opt E -43.532409713230
  N      -3.588281     -0.793295      0.053028
  C      -3.557299      0.682033      0.008218
  C      -2.192192      1.332719      0.226776
  O      -2.089779      2.550343      0.158746
  N      -1.181148      0.516053      0.543576
  C       0.186510      0.967769      0.644146
  C       1.069733     -0.153963      0.095480
  O       0.555606     -1.230474     -0.213210
  N       2.360979      0.117035      0.015131
  C       3.369287     -0.766723     -0.503261
  C       4.690410      0.057596     -0.662708
  O       5.663202     -0.534081     -1.155118
  O       4.638227      1.240889     -0.271058
  H      -4.550879     -1.117528     -0.112156
  H      -3.282466     -1.142395      0.969817
  H      -2.986213     -1.199168     -0.674598
  H      -4.218407      1.095922      0.772682
  H      -3.915975      1.041654     -0.957903
  H      -1.182792     -0.489568      0.373653
  H       0.330344      1.890330      0.075672
  H       0.463011      1.164284      1.684669
  H       2.762436      1.032921      0.224232
  H       3.569169     -1.598753      0.178740
  H       3.086518     -1.180382     -1.474555
24
Coordinates from ORCA-job geo_opt E -43.532454548360
  N      -3.605896     -0.789909      0.100310
  C      -3.564116      0.682791      0.003570
  C      -2.199281      1.330694      0.230298
  O      -2.102313      2.550345      0.209142
  N      -1.181538      0.504796      0.495936
  C       0.184471      0.958956      0.615106
  C       1.074582     -0.153811      0.060442
  O       0.564435     -1.224549     -0.274053
  N       2.366705      0.118548      0.000591
  C       3.381375     -0.759821     -0.515201
  C       4.712200      0.058413     -0.623186
  O       5.691136     -0.529420     -1.107886
  O       4.658678      1.232239     -0.204598
  H      -4.576055     -1.108802     -0.025989
  H      -3.279831     -1.108510      1.021395
  H      -3.025820     -1.226542     -0.626850
  H      -4.239428      1.125500      0.739021
  H      -3.901982      1.011829     -0.980945
  H      -1.179392     -0.492002      0.280293
  H       0.329967      1.888564      0.058127
  H       0.448670      1.142576      1.660905
  H       2.766818      1.028285      0.236643
  H       3.558085     -1.610300      0.150111
  H       3.118529     -1.146653     -1.503180
24
Coordinates from ORCA-job geo_opt E -43.532477521960
  N      -3.606893     -0.791768      0.113695
  C      -3.565075      0.680071      0.002314
  C      -2.202630      1.331796      0.235927
  O      -2.110003      2.551897      0.230575
  N      -1.181368      0.506333      0.490060
  C       0.184744      0.962198      0.604702
  C       1.073836     -0.149079      0.045176
  O       0.561881     -1.214954     -0.302048
  N       2.367192      0.119492     -0.004767
  C       3.382143     -0.758647     -0.520406
  C       4.718126      0.053822     -0.609392
  O       5.698759     -0.537025     -1.086753
  O       4.665935      1.225627     -0.185271
  H      -4.576787     -1.112341     -0.009774
  H      -3.281933     -1.099040      1.039053
  H      -3.025818     -1.236904     -0.607438
  H      -4.247959      1.129203      0.726650
  H      -3.894295      0.998307     -0.988801
  H      -1.180432     -0.487742      0.261536
  H       0.327044      1.893147      0.049141
  H       0.451397      1.143514      1.650318
  H       2.767471      1.026055      0.242559
  H       3.548270     -1.616835      0.137660
  H       3.126395     -1.133909     -1.514716
24
Coordinates from ORCA-job geo_opt E -43.532491569220
  N      -3.605555     -0.794052      0.120174
  C      -3.565691      0.677514      0.003882
  C      -2.205610      1.333283      0.242531
  O      -2.116802      2.553664      0.248129
  N      -1.180836      0.509805      0.490292
  C       0.185290      0.967211      0.596267
  C       1.072078     -0.145016      0.034128
  O       0.557305     -1.206898     -0.321207
  N       2.366655      0.118679     -0.007901
  C       3.381337     -0.759393     -0.523510
  C       4.720379      0.049291     -0.600466
  O       5.703554     -0.544506     -1.068704
  O       4.668101      1.221298     -0.176687
  H      -4.573130     -1.118665     -0.010473
  H      -3.286957     -1.094962      1.049915
  H      -3.018067     -1.242385     -0.593820
  H      -4.253173      1.128995      0.722082
  H      -3.888879      0.989970     -0.991139
  H      -1.181456     -0.482662      0.253663
  H       0.325155      1.897491      0.039385
  H       0.457617      1.150456      1.640238
  H       2.766864      1.023554      0.245413
  H       3.540767     -1.622424      0.129790
  H       3.131054     -1.127029     -1.521982
24
Coordinates from ORCA-job geo_opt E -43.532494813620
  N      -3.607360     -0.793653      0.129660
  C      -3.566649      0.676995      0.003834
  C      -2.207053      1.333149      0.242935
  O      -2.119281      2.553539      0.254487
  N      -1.180890      0.509308      0.484206
  C       0.184936      0.966627      0.590745
  C       1.071623     -0.144488      0.025996
  O       0.556175     -1.203689     -0.336183
  N       2.366773      0.117251     -0.010018
  C       3.382433     -0.758534     -0.527172
  C       4.722913      0.048785     -0.591780
  O       5.708694     -0.543917     -1.055953
  O       4.669213      1.219070     -0.163365
  H      -4.574658     -1.119517     -0.000329
  H      -3.289158     -1.087624      1.061753
  H      -3.019817     -1.247726     -0.580734
  H      -4.255917      1.134447      0.716399
  H      -3.885445      0.982486     -0.994791
  H      -1.181632     -0.481521      0.240630
  H       0.325763      1.897851      0.035707
  H       0.458020      1.148510      1.634784
  H       2.766834      1.020696      0.248757
  H       3.537369     -1.626747      0.120256
  H       3.137112     -1.118079     -1.529823
24
Coordinates from ORCA-job geo_opt E -43.532495974000
  N      -3.608487     -0.793427      0.131935
  C      -3.567261      0.676990      0.004728
  C      -2.207650      1.332963      0.244108
  O      -2.120501      2.553397      0.258359
  N      -1.180633      0.509091      0.481685
  C       0.184874      0.966427      0.588478
  C       1.071560     -0.144863      0.023930
  O       0.555820     -1.203426     -0.339580
  N       2.366897      0.116177     -0.010241
  C       3.383186     -0.758675     -0.527549
  C       4.723563      0.049023     -0.589201
  O       5.710760     -0.543427     -1.050714
  O       4.668349      1.219516     -0.161574
  H      -4.575561     -1.119715      0.000903
  H      -3.290654     -1.086333      1.064462
  H      -3.020896     -1.248737     -0.577718
  H      -4.256373      1.135941      0.716442
  H      -3.884866      0.981514     -0.994580
  H      -1.180949     -0.481138      0.235573
  H       0.326718      1.897198      0.032735
  H       0.458462      1.149420      1.632184
  H       2.766804      1.019769      0.248604
  H       3.537359     -1.628130      0.118344
  H       3.139480     -1.116339     -1.531313
24
Coordinates from ORCA-job geo_opt E -43.532496374840
  N      -3.609541     -0.793272      0.133032
  C      -3.568071      0.677100      0.006092
  C      -2.208207      1.332808      0.244843
  O      -2.121592      2.553268      0.261466
  N      -1.180494      0.508853      0.478540
  C       0.184796      0.966259      0.586083
  C       1.071928     -0.145145      0.022515
  O       0.556501     -1.203701     -0.341414
  N       2.367328      0.115792     -0.010309
  C       3.384138     -0.758745     -0.527114
  C       4.724467      0.049072     -0.587303
  O       5.712480     -0.543576     -1.046847
  O       4.668432      1.219893     -0.160673
  H      -4.576812     -1.119375      0.002860
  H      -3.290397     -1.086629      1.064936
  H      -3.023158     -1.248635     -0.577604
  H      -4.256433      1.136172      0.718469
  H      -3.886230      0.982078     -0.992889
  H      -1.180505     -0.481081      0.231080
  H       0.327324      1.896500      0.029434
  H       0.458027      1.150447      1.629635
  H       2.766958      1.019642      0.248206
  H       3.537729     -1.628647      0.118292
  H       3.141331     -1.115860     -1.531332
