24
zwitterion conformer 8
N      -3.87035481    -0.39505735     0.61811191
C      -3.37000196     0.39723104    -0.46749672
C      -1.92239578     0.73439406    -0.33022387
O      -1.36493189     1.42599656    -1.21914943
N      -1.21761570     0.25948944     0.80800170
C       0.16935050     0.53872653     1.01300955
C       1.03625134     0.01199932    -0.08978523
O       0.56511780    -0.60679113    -1.07940540
N       2.44059280     0.26143347     0.05973401
C       3.31853064    -0.23331930    -0.98916714
C       4.71149738     0.14008040    -0.61940028
O       5.68972430    -0.16335788    -1.35279091
O       5.00243735     0.84544056     0.55922551
H      -4.85721280    -0.59415705     0.43284622
H      -3.76472250     0.04194565     1.55459564
H      -3.34105349    -1.28022524     0.64174501
H      -3.96776780     1.30381975    -0.66463008
H      -3.44997535    -0.24523348    -1.38308376
H      -1.75701994    -0.31902358     1.51613948
H       0.28847044     1.65655244     1.09889211
H       0.48658580     0.16043105     2.00746870
H       2.81123995     0.78475534     0.90232279
H       3.32292495    -1.36263627    -1.01470380
H       3.04032878     0.12072366    -2.00225598
