20
Coordinates from ORCA-job geo_opt E -34.364496088450
  N          -1.83410621518373     -0.49989674426120     -1.26409079987518
  C          -1.57697972116119     -0.69512798052671      0.14947248625569
  C          -0.24055573683956     -1.41664554937014      0.36273134019135
  C           0.89891520055335     -0.50101884863448      0.05719135286861
  C           2.23997076125333     -0.76753410583377     -0.00162161366022
  N           2.85324760220606      0.42203767183592     -0.28002600950544
  C           1.87880407268053      1.34802135811169     -0.37770925656667
  N           0.69413021118198      0.82878345281312     -0.18247337825781
  C          -1.57646331434563      0.58777861122210      0.98027602208911
  O          -1.19591443423841      0.65142926530572      2.13247597212226
  O          -2.13718666785950      1.61059423799546      0.35659550070536
  H          -1.08407667277847      0.06902188357996     -1.64603478043283
  H          -2.69336721441709      0.02626242925462     -1.38285935298025
  H          -2.38333397609195     -1.32069604928509      0.55640934581573
  H          -0.17479130208135     -1.73534868900599      1.40537560070318
  H          -0.20568939750446     -2.29672363614187     -0.27923363892521
  H           2.78199167319537     -1.67927861537798      0.13033296851902
  H           3.84395664612978      0.56829738297899     -0.38785825066924
  H           2.05648285682345      2.38164007420134     -0.59335972306278
  H          -2.14503439152252      2.41840384113831      0.90332738466533
