20
Coordinates from ORCA-job geo_opt E -34.320136927040
  N      -1.763366     -0.323390     -1.217522
  C      -1.523798     -0.721177      0.179387
  C      -0.178248     -1.281927      0.342344
  C       0.944199     -0.387814     -0.002522
  C       2.268937     -0.766695      0.096733
  N       2.975600      0.316280     -0.303989
  C       2.137433      1.315285     -0.634835
  N       0.868072      0.889605     -0.451502
  C      -1.881599      0.418825      1.016337
  O      -1.778131      0.372583      2.291787
  O      -2.359171      1.639393      0.521590
  H      -1.419581      0.675043     -1.342511
  H      -2.801955     -0.319582     -1.333312
  H      -2.242356     -1.561497      0.362196
  H      -0.050178     -1.617894      1.395739
  H      -0.106147     -2.190180     -0.291790
  H       2.688730     -1.715983      0.420932
  H       4.011863      0.414995     -0.365823
  H       2.358149      2.312162     -0.992498
  H      -2.148451      2.531969      0.948180
20
Coordinates from ORCA-job geo_opt E -34.346977659180
  N      -1.786346     -0.341053     -1.253328
  C      -1.559556     -0.708027      0.165470
  C      -0.190582     -1.303834      0.352093
  C       0.943366     -0.400528      0.008776
  C       2.276127     -0.750686      0.100684
  N       2.963952      0.344601     -0.297314
  C       2.084156      1.308906     -0.610994
  N       0.839271      0.875507     -0.430296
  C      -1.842621      0.444363      1.044813
  O      -1.721177      0.396343      2.278796
  O      -2.254974      1.614102      0.512008
  H      -1.407813      0.598114     -1.396183
  H      -2.793869     -0.278628     -1.392176
  H      -2.294156     -1.507168      0.380761
  H      -0.072170     -1.628798      1.397724
  H      -0.122809     -2.201719     -0.275065
  H       2.718502     -1.675316      0.412513
  H       3.970840      0.459439     -0.361501
  H       2.287517      2.298467     -0.959589
  H      -2.037657      2.455916      0.961728
20
Coordinates from ORCA-job geo_opt E -34.357054098950
  N      -1.806617     -0.370993     -1.271639
  C      -1.585597     -0.697888      0.148455
  C      -0.208425     -1.328224      0.354925
  C       0.933314     -0.418597      0.018751
  C       2.270246     -0.740500      0.099526
  N       2.944539      0.374621     -0.286753
  C       2.025809      1.312330     -0.576605
  N       0.803860      0.865272     -0.400176
  C      -1.776303      0.474846      1.064358
  O      -1.626072      0.420166      2.266985
  O      -2.147789      1.591025      0.476435
  H      -1.377781      0.525187     -1.452442
  H      -2.799453     -0.255004     -1.424396
  H      -2.336411     -1.455451      0.404285
  H      -0.104715     -1.641253      1.396900
  H      -0.148249     -2.217895     -0.272023
  H       2.739405     -1.651836      0.393749
  H       3.939228      0.501122     -0.351047
  H       2.221967      2.307317     -0.910403
  H      -1.960956      2.405754      0.960038
20
Coordinates from ORCA-job geo_opt E -34.360911394110
  N      -1.817536     -0.409062     -1.274744
  C      -1.593767     -0.698514      0.140965
  C      -0.219905     -1.354369      0.353067
  C       0.920370     -0.438718      0.025704
  C       2.258927     -0.742689      0.082538
  N       2.921186      0.393040     -0.279369
  C       1.980477      1.323709     -0.529046
  N       0.770013      0.860041     -0.352975
  C      -1.709710      0.505059      1.056067
  O      -1.523223      0.462961      2.252831
  O      -2.074603      1.599192      0.425498
  H      -1.328679      0.449150     -1.499602
  H      -2.802513     -0.234534     -1.427564
  H      -2.357394     -1.424488      0.442905
  H      -0.125835     -1.664615      1.395208
  H      -0.164923     -2.238348     -0.281070
  H       2.749804     -1.653129      0.344430
  H       3.915142      0.525095     -0.348973
  H       2.174661      2.329584     -0.835373
  H      -1.972492      2.410634      0.948426
20
Coordinates from ORCA-job geo_opt E -34.363059495810
  N      -1.824751     -0.457940     -1.265598
  C      -1.593449     -0.701774      0.142541
  C      -0.231202     -1.386925      0.352112
  C       0.903408     -0.465357      0.035868
  C       2.242665     -0.753097      0.043684
  N       2.886918      0.410263     -0.272403
  C       1.927944      1.340931     -0.453030
  N       0.727991      0.852918     -0.275331
  C      -1.632742      0.545684      1.023402
  O      -1.378106      0.545175      2.209825
  O      -2.026038      1.614103      0.360245
  H      -1.240844      0.324977     -1.546590
  H      -2.788679     -0.179049     -1.411387
  H      -2.369938     -1.386206      0.505733
  H      -0.148112     -1.702342      1.394087
  H      -0.183271     -2.264250     -0.292942
  H       2.758195     -1.667522      0.245627
  H       3.880968      0.547441     -0.355179
  H       2.119799      2.362366     -0.712426
  H      -2.030756      2.420603      0.910683
20
Coordinates from ORCA-job geo_opt E -34.363773972480
  N      -1.824015     -0.471770     -1.257752
  C      -1.584784     -0.697221      0.147752
  C      -0.230767     -1.397730      0.355581
  C       0.905830     -0.480146      0.045328
  C       2.243798     -0.766599      0.017192
  N       2.881133      0.406504     -0.278365
  C       1.919964      1.342922     -0.412298
  N       0.723902      0.847320     -0.224712
  C      -1.602127      0.573870      0.997432
  O      -1.295819      0.610517      2.172716
  O      -2.093480      1.608485      0.340851
  H      -1.175702      0.250024     -1.565373
  H      -2.762592     -0.111363     -1.396192
  H      -2.366569     -1.359227      0.541563
  H      -0.156453     -1.718394      1.397075
  H      -0.189002     -2.273821     -0.292058
  H       2.767369     -1.685074      0.179117
  H       3.874884      0.540541     -0.377637
  H       2.114025      2.370132     -0.647088
  H      -2.149596      2.411031      0.895789
20
Coordinates from ORCA-job geo_opt E -34.363985567620
  N      -1.824311     -0.507842     -1.255111
  C      -1.577961     -0.702752      0.154162
  C      -0.242235     -1.429394      0.362485
  C       0.887062     -0.505886      0.063102
  C       2.226774     -0.768966     -0.015304
  N       2.834885      0.427931     -0.275429
  C       1.857193      1.354425     -0.341884
  N       0.675158      0.828430     -0.143671
  C      -1.562824      0.594500      0.966532
  O      -1.161417      0.679526      2.111437
  O      -2.079490      1.620256      0.308786
  H      -1.095285      0.113312     -1.601930
  H      -2.712971     -0.036716     -1.392739
  H      -2.372267     -1.326996      0.583788
  H      -0.180704     -1.760003      1.402017
  H      -0.204585     -2.301284     -0.291185
  H       2.773020     -1.682687      0.088480
  H       3.824491      0.577272     -0.395731
  H       2.035250      2.392501     -0.537446
  H      -2.099784      2.434374      0.848563
20
Coordinates from ORCA-job geo_opt E -34.364371331990
  N      -1.823551     -0.490748     -1.263023
  C      -1.575807     -0.695909      0.150572
  C      -0.235614     -1.414344      0.363838
  C       0.903058     -0.499479      0.060152
  C       2.242660     -0.772354     -0.004313
  N       2.859963      0.415455     -0.281398
  C       1.889677      1.345990     -0.376828
  N       0.703045      0.830374     -0.179879
  C      -1.584713      0.589496      0.978687
  O      -1.217308      0.659108      2.135767
  O      -2.137222      1.611403      0.344031
  H      -1.106421      0.140003     -1.609341
  H      -2.715884     -0.025899     -1.393466
  H      -2.370784     -1.331090      0.563427
  H      -0.174840     -1.737886      1.405524
  H      -0.199201     -2.292593     -0.280850
  H       2.781579     -1.686991      0.121979
  H       3.851129      0.557375     -0.394681
  H       2.073689      2.378771     -0.591840
  H      -2.163455      2.419317      0.890563
20
Coordinates from ORCA-job geo_opt E -34.364446157230
  N      -1.823827     -0.493692     -1.265007
  C      -1.574971     -0.694908      0.149109
  C      -0.238160     -1.417346      0.364576
  C       0.901378     -0.502671      0.060892
  C       2.242196     -0.770272     -0.002524
  N       2.854588      0.419289     -0.282757
  C       1.880577      1.346029     -0.377307
  N       0.696515      0.826819     -0.177260
  C      -1.578647      0.589039      0.978695
  O      -1.209725      0.655347      2.134565
  O      -2.135703      1.611109      0.350074
  H      -1.093573      0.115718     -1.622483
  H      -2.704205     -0.006205     -1.391980
  H      -2.376767     -1.323375      0.559248
  H      -0.178888     -1.738915      1.406763
  H      -0.203263     -2.296842     -0.278129
  H       2.785087     -1.681953      0.125824
  H       3.844911      0.564218     -0.396211
  H       2.060687      2.379180     -0.592802
  H      -2.148211      2.419431      0.895635
20
Coordinates from ORCA-job geo_opt E -34.364484283650
  N      -1.827693     -0.498099     -1.266369
  C      -1.575360     -0.694562      0.147942
  C      -0.240936     -1.419720      0.364988
  C       0.899597     -0.505364      0.060201
  C       2.241336     -0.768045     -0.002476
  N       2.850018      0.423805     -0.281383
  C       1.872646      1.346865     -0.377204
  N       0.690318      0.823383     -0.179990
  C      -1.574055      0.587829      0.979294
  O      -1.196137      0.651470      2.132274
  O      -2.133165      1.611822      0.355659
  H      -1.083498      0.084456     -1.639339
  H      -2.693348      0.016584     -1.388026
  H      -2.384236     -1.316769      0.554737
  H      -0.181198     -1.738292      1.408020
  H      -0.207325     -2.300887     -0.275306
  H       2.787679     -1.677178      0.128333
  H       3.840090      0.571925     -0.391473
  H       2.049027      2.380727     -0.592218
  H      -2.133759      2.420049      0.901255
20
Coordinates from ORCA-job geo_opt E -34.364490550420
  N      -1.829336     -0.498513     -1.265861
  C      -1.575514     -0.694535      0.148090
  C      -0.241108     -1.419406      0.364422
  C       0.899262     -0.504949      0.059397
  C       2.240909     -0.767762     -0.001631
  N       2.850199      0.423595     -0.281379
  C       1.873165      1.347051     -0.377372
  N       0.690576      0.824340     -0.179437
  C      -1.573373      0.587887      0.979140
  O      -1.193094      0.651376      2.131424
  O      -2.134667      1.611308      0.356334
  H      -1.081950      0.077548     -1.642695
  H      -2.691566      0.022530     -1.385863
  H      -2.385172     -1.316582      0.553992
  H      -0.179680     -1.737519      1.407512
  H      -0.207384     -2.300567     -0.276031
  H       2.786707     -1.677205      0.130122
  H       3.840418      0.571440     -0.391184
  H       2.049356      2.380888     -0.592972
  H      -2.137748      2.419078      0.902913
20
Coordinates from ORCA-job geo_opt E -34.364494527570
  N      -1.831943     -0.499135     -1.264975
  C      -1.576136     -0.694801      0.148748
  C      -0.240890     -1.418024      0.363614
  C       0.899028     -0.503199      0.057947
  C       2.240320     -0.767662     -0.001556
  N       2.851701      0.422812     -0.280470
  C       1.875931      1.347502     -0.377698
  N       0.692233      0.826431     -0.181638
  C      -1.574359      0.587800      0.979598
  O      -1.192967      0.651246      2.131556
  O      -2.135904      1.610946      0.356641
  H      -1.082953      0.072405     -1.645456
  H      -2.692205      0.025589     -1.383633
  H      -2.384855     -1.318374      0.554318
  H      -0.176743     -1.735823      1.406663
  H      -0.206631     -2.298890     -0.277338
  H       2.784285     -1.678214      0.130909
  H       3.842267      0.569852     -0.388839
  H       2.052718      2.381238     -0.593583
  H      -2.142894      2.418304      0.904115
20
Coordinates from ORCA-job geo_opt E -34.364495622890
  N      -1.833163     -0.499420     -1.264474
  C      -1.576604     -0.695014      0.149177
  C      -0.240669     -1.417135      0.363094
  C       0.898974     -0.501885      0.057405
  C       2.240097     -0.767603     -0.001458
  N       2.852732      0.422248     -0.280181
  C       1.877818      1.347761     -0.377914
  N       0.693483      0.827893     -0.182329
  C      -1.575658      0.587723      0.980049
  O      -1.194680      0.651239      2.132146
  O      -2.136700      1.610743      0.356688
  H      -1.083805      0.070894     -1.645808
  H      -2.693025      0.025896     -1.383053
  H      -2.384000     -1.319903      0.555193
  H      -0.175359     -1.735302      1.405947
  H      -0.205996     -2.297589     -0.278406
  H       2.782827     -1.678896      0.130945
  H       3.843414      0.568738     -0.388174
  H       2.055137      2.381385     -0.593900
  H      -2.144822      2.418226      0.903974
20
Coordinates from ORCA-job geo_opt E -34.364496088450
  N      -1.834106     -0.499897     -1.264091
  C      -1.576980     -0.695128      0.149472
  C      -0.240556     -1.416646      0.362731
  C       0.898915     -0.501019      0.057191
  C       2.239971     -0.767534     -0.001622
  N       2.853248      0.422038     -0.280026
  C       1.878804      1.348021     -0.377709
  N       0.694130      0.828783     -0.182473
  C      -1.576463      0.587779      0.980276
  O      -1.195914      0.651429      2.132476
  O      -2.137187      1.610594      0.356596
  H      -1.084077      0.069022     -1.646035
  H      -2.693367      0.026262     -1.382859
  H      -2.383334     -1.320696      0.556409
  H      -0.174791     -1.735349      1.405376
  H      -0.205689     -2.296724     -0.279234
  H       2.781992     -1.679279      0.130333
  H       3.843957      0.568297     -0.387858
  H       2.056483      2.381640     -0.593360
  H      -2.145034      2.418404      0.903327
