20
neutral_epsilon conformer 1
N      -1.76336609    -0.32339039    -1.21752185
C      -1.52379829    -0.72117714     0.17938730
C      -0.17824804    -1.28192747     0.34234392
C       0.94419860    -0.38781354    -0.00252163
C       2.26893658    -0.76669494     0.09673336
N       2.97560004     0.31627992    -0.30398919
C       2.13743267     1.31528516    -0.63483465
N       0.86807165     0.88960470    -0.45150220
C      -1.88159938     0.41882543     1.01633661
O      -1.77813055     0.37258306     2.29178650
O      -2.35917130     1.63939260     0.52159004
H      -1.41958104     0.67504324    -1.34251147
H      -2.80195501    -0.31958189    -1.33331188
H      -2.24235598    -1.56149710     0.36219650
H      -0.05017789    -1.61789440     1.39573913
H      -0.10614721    -2.19017963    -0.29178983
H       2.68873011    -1.71598302     0.42093173
H       4.01186306     0.41499504    -0.36582322
H       2.35814873     2.31216173    -0.99249774
H      -2.14845068     2.53196863     0.94817974
