17
zwitterion CPCM-opt conformer 3
C       2.02180576     0.29242396     0.10743826
C       0.75553424    -0.55202679     0.10061710
O       0.41281580    -1.04469529     1.41240143
C      -0.46840623     0.12797357    -0.54579579
N      -1.59658670    -0.86738497    -0.60538668
C      -1.05631547     1.39378130     0.17389626
O      -0.27446739     2.35074886     0.38358735
O      -2.29757975     1.33074236     0.44352314
H       2.85629982    -0.31058251     0.49090354
H       2.27162703     0.62335169    -0.91097339
H       1.89454755     1.18294299     0.73591536
H       0.94523773    -1.46759013    -0.48371849
H       0.37887376    -0.28125235     2.02072001
H      -0.22022797     0.41242012    -1.57748244
H      -2.42661688    -0.28995773    -0.30267408
H      -1.46041678    -1.61662451     0.08861516
H      -1.73612454    -1.28427056    -1.53158674
