24
Coordinates from ORCA-job geo_opt E -43.478028978030
  N      -3.821963      0.715649      1.095197
  C      -3.206689     -0.464441      0.540783
  C      -1.872737     -0.159622     -0.060299
  O      -1.409584      1.026943     -0.042180
  N      -1.158641     -1.242145     -0.643499
  C       0.146795     -0.906497     -1.223853
  C       1.048225     -0.342800     -0.175176
  O       0.671334     -0.202807      1.026801
  N       2.351063      0.030861     -0.585396
  C       3.236498      0.578597      0.418696
  C       4.558942      0.923100     -0.149580
  O       5.495329      1.418903      0.548107
  O       4.873863      0.726160     -1.503364
  H      -4.860663      0.603885      1.140001
  H      -3.636572      1.572556      0.527057
  H      -3.425941      0.875678      2.059961
  H      -3.066603     -1.211199      1.357654
  H      -3.881113     -0.870969     -0.226422
  H      -1.517620     -2.223626     -0.670528
  H       0.019633     -0.226417     -2.092875
  H       0.616578     -1.826430     -1.609823
  H       2.651376     -0.091271     -1.589445
  H       2.831857      1.478036      0.905331
  H       3.356634     -0.182147      1.214378
24
Coordinates from ORCA-job geo_opt E -43.516627281780
  N      -3.868273      0.691063      1.072512
  C      -3.203203     -0.496028      0.531830
  C      -1.872621     -0.140554     -0.068544
  O      -1.469099      1.030695     -0.076421
  N      -1.155565     -1.168149     -0.619662
  C       0.147025     -0.852804     -1.182002
  C       1.076749     -0.309340     -0.132082
  O       0.751098     -0.185466      1.055012
  N       2.330183      0.032242     -0.556776
  C       3.270066      0.552868      0.405117
  C       4.593653      0.882115     -0.203052
  O       5.526762      1.355263      0.483711
  O       4.811107      0.684939     -1.491556
  H      -4.890451      0.553586      1.123209
  H      -3.701671      1.528271      0.486557
  H      -3.490832      0.895388      2.014877
  H      -3.037146     -1.221912      1.342761
  H      -3.840821     -0.947151     -0.236314
  H      -1.499162     -2.122606     -0.638775
  H       0.030871     -0.165295     -2.032505
  H       0.596360     -1.771887     -1.576078
  H       2.588889     -0.078203     -1.536675
  H       2.893540      1.455532      0.901949
  H       3.412539     -0.202569      1.194434
24
Coordinates from ORCA-job geo_opt E -43.529497420170
  N      -3.894750      0.664414      1.066703
  C      -3.198734     -0.520850      0.523814
  C      -1.871887     -0.107355     -0.096191
  O      -1.521179      1.058251     -0.119883
  N      -1.158214     -1.098998     -0.623391
  C       0.151643     -0.820938     -1.164222
  C       1.084033     -0.287708     -0.089055
  O       0.750423     -0.175097      1.079241
  N       2.306466      0.029673     -0.516240
  C       3.295134      0.538805      0.399666
  C       4.630179      0.850024     -0.263459
  O       5.547318      1.314866      0.438426
  O       4.749312      0.628126     -1.473198
  H      -4.905141      0.504573      1.138936
  H      -3.742941      1.483585      0.460148
  H      -3.515871      0.903006      1.988250
  H      -3.002434     -1.233910      1.324579
  H      -3.814329     -0.999275     -0.239938
  H      -1.495130     -2.043287     -0.621836
  H       0.068300     -0.118810     -1.998566
  H       0.583259     -1.745746     -1.553229
  H       2.550512     -0.075953     -1.484765
  H       2.939149      1.451614      0.890895
  H       3.464878     -0.199011      1.194842
24
Coordinates from ORCA-job geo_opt E -43.533711912580
  N      -3.910884      0.668413      1.044425
  C      -3.186276     -0.522287      0.551207
  C      -1.904600     -0.076369     -0.154585
  O      -1.650103      1.108891     -0.301234
  N      -1.162203     -1.073024     -0.643806
  C       0.158260     -0.806287     -1.164995
  C       1.090456     -0.322326     -0.054609
  O       0.756685     -0.311630      1.122070
  N       2.304762      0.037341     -0.476570
  C       3.319748      0.497246      0.434415
  C       4.631440      0.859268     -0.287775
  O       5.561345      1.293839      0.421743
  O       4.674331      0.690559     -1.522015
  H      -4.907412      0.472495      1.185895
  H      -3.816039      1.438630      0.365876
  H      -3.495573      0.998206      1.921770
  H      -2.921796     -1.171659      1.384263
  H      -3.804225     -1.077181     -0.155503
  H      -1.464916     -2.029009     -0.568795
  H       0.099200     -0.062340     -1.963885
  H       0.575958     -1.722628     -1.584029
  H       2.543051      0.009158     -1.456592
  H       2.974005      1.379726      0.985053
  H       3.534783     -0.279031      1.179200
24
Coordinates from ORCA-job geo_opt E -43.535991953960
  N      -3.799991      0.696827      1.081641
  C      -3.161258     -0.514879      0.526481
  C      -1.910436     -0.081608     -0.254237
  O      -1.650516      1.105144     -0.396762
  N      -1.177677     -1.093475     -0.726422
  C       0.162491     -0.863294     -1.207468
  C       1.054652     -0.394128     -0.047037
  O       0.646815     -0.383028      1.108309
  N       2.266230      0.010914     -0.425361
  C       3.261560      0.505136      0.487040
  C       4.559335      0.903558     -0.285121
  O       5.468045      1.381387      0.420132
  O       4.552295      0.719547     -1.518516
  H      -4.789763      0.542602      1.301289
  H      -3.706448      1.458091      0.390849
  H      -3.303610      1.009357      1.923865
  H      -2.866680     -1.192696      1.325672
  H      -3.839565     -1.027922     -0.154916
  H      -1.453410     -2.045703     -0.546698
  H       0.153364     -0.094020     -1.983475
  H       0.572467     -1.783632     -1.619711
  H       2.549780      0.009496     -1.398034
  H       2.891038      1.384300      1.025564
  H       3.521281     -0.251975      1.234439
24
Coordinates from ORCA-job geo_opt E -43.536984151900
  N      -3.810727      0.679714      1.070975
  C      -3.175037     -0.530029      0.515727
  C      -1.908302     -0.083940     -0.235899
  O      -1.700478      1.108320     -0.422648
  N      -1.171083     -1.086830     -0.723594
  C       0.163579     -0.835780     -1.210255
  C       1.043130     -0.360530     -0.035398
  O       0.614513     -0.380705      1.114394
  N       2.261249      0.036342     -0.392806
  C       3.272715      0.513274      0.510249
  C       4.556237      0.885343     -0.322089
  O       5.506608      1.316730      0.350609
  O       4.498443      0.649306     -1.542446
  H      -4.805780      0.537201      1.278042
  H      -3.682459      1.438444      0.380237
  H      -3.319882      0.983221      1.921526
  H      -2.897700     -1.221984      1.309773
  H      -3.843513     -1.027599     -0.187529
  H      -1.387108     -2.035397     -0.452670
  H       0.145987     -0.042015     -1.960778
  H       0.584207     -1.741894     -1.640335
  H       2.574584      0.040190     -1.361346
  H       2.932953      1.403574      1.048735
  H       3.547861     -0.244957      1.249051
24
Coordinates from ORCA-job geo_opt E -43.536383317200
  N      -3.808774      0.675489      1.063526
  C      -3.186127     -0.536416      0.506167
  C      -1.913742     -0.094663     -0.234818
  O      -1.740569      1.096322     -0.464765
  N      -1.169819     -1.094803     -0.723542
  C       0.161818     -0.819913     -1.210676
  C       1.035510     -0.340643     -0.029610
  O       0.590385     -0.362737      1.115465
  N       2.263427      0.034614     -0.367658
  C       3.285061      0.495313      0.532434
  C       4.562845      0.828575     -0.333820
  O       5.516877      1.312432      0.290799
  O       4.417637      0.710650     -1.563666
  H      -4.809511      0.552572      1.256357
  H      -3.644018      1.434426      0.377913
  H      -3.322431      0.961762      1.923344
  H      -2.923166     -1.240390      1.295731
  H      -3.856840     -1.017907     -0.207166
  H      -1.329707     -2.028811     -0.370117
  H       0.133136     -0.012495     -1.946064
  H       0.592253     -1.713960     -1.654997
  H       2.608513      0.023276     -1.329726
  H       2.977609      1.399466      1.065472
  H       3.559634     -0.262161      1.270942
24
Coordinates from ORCA-job geo_opt E -43.537902231060
  N      -3.782641      0.674161      1.085239
  C      -3.180480     -0.538121      0.505120
  C      -1.931598     -0.104389     -0.273163
  O      -1.743936      1.086621     -0.488413
  N      -1.176208     -1.103599     -0.747487
  C       0.158922     -0.819526     -1.221689
  C       1.030903     -0.345060     -0.040856
  O       0.578995     -0.335054      1.101249
  N       2.257863      0.035354     -0.374264
  C       3.261719      0.519869      0.532946
  C       4.547191      0.850730     -0.310944
  O       5.517663      1.301456      0.315444
  O       4.459254      0.638113     -1.536991
  H      -4.780896      0.559450      1.290828
  H      -3.623705      1.441110      0.406919
  H      -3.281778      0.944944      1.940457
  H      -2.902076     -1.247927      1.284048
  H      -3.874923     -1.011695     -0.190318
  H      -1.332765     -2.035551     -0.390372
  H       0.128856     -0.016771     -1.962048
  H       0.593802     -1.712030     -1.665561
  H       2.608817      0.017393     -1.333527
  H       2.940004      1.428451      1.049254
  H       3.527018     -0.227928      1.285653
24
Coordinates from ORCA-job geo_opt E -43.538094823860
  N      -3.797817      0.660318      1.084653
  C      -3.183194     -0.549449      0.509581
  C      -1.942448     -0.105621     -0.274263
  O      -1.776235      1.085049     -0.505849
  N      -1.170143     -1.095556     -0.739501
  C       0.157321     -0.791889     -1.219337
  C       1.030978     -0.317572     -0.042476
  O       0.576863     -0.289105      1.098377
  N       2.262630      0.043367     -0.375890
  C       3.270279      0.522374      0.528935
  C       4.560473      0.824610     -0.312147
  O       5.542458      1.257376      0.309213
  O       4.475188      0.592593     -1.534252
  H      -4.799131      0.545203      1.271471
  H      -3.626755      1.429043      0.410477
  H      -3.313465      0.929311      1.949329
  H      -2.899947     -1.254846      1.289624
  H      -3.873022     -1.032641     -0.184250
  H      -1.304550     -2.024016     -0.365971
  H       0.109704      0.014508     -1.954037
  H       0.599234     -1.675792     -1.674542
  H       2.618712      0.013759     -1.332668
  H       2.961454      1.440990      1.034991
  H       3.521413     -0.222014      1.290059
24
Coordinates from ORCA-job geo_opt E -43.538370165060
  N      -3.836827      0.625506      1.080976
  C      -3.191266     -0.577887      0.522815
  C      -1.972388     -0.107598     -0.276876
  O      -1.861367      1.081014     -0.547478
  N      -1.156495     -1.072999     -0.716988
  C       0.152038     -0.722856     -1.213354
  C       1.033795     -0.251919     -0.045939
  O       0.577531     -0.182251      1.092269
  N       2.277915      0.058562     -0.380377
  C       3.295882      0.525790      0.518152
  C       4.599007      0.752926     -0.314677
  O       5.599262      1.156189      0.298226
  O       4.516196      0.487381     -1.530510
  H      -4.845470      0.510692      1.217662
  H      -3.632263      1.396227      0.415706
  H      -3.396683      0.891284      1.969091
  H      -2.893124     -1.269065      1.308339
  H      -3.868548     -1.087866     -0.164990
  H      -1.239293     -1.991766     -0.307032
  H       0.060452      0.096155     -1.929261
  H       0.608096     -1.582673     -1.701472
  H       2.644425     -0.000553     -1.331769
  H       3.018986      1.470326      0.994792
  H       3.510138     -0.204617      1.304220
24
Coordinates from ORCA-job geo_opt E -43.538573896500
  N      -3.888352      0.589184      1.069066
  C      -3.204375     -0.604691      0.535277
  C      -1.998346     -0.104206     -0.265273
  O      -1.939310      1.081512     -0.564766
  N      -1.141986     -1.043021     -0.682549
  C       0.147949     -0.655140     -1.198761
  C       1.046879     -0.196861     -0.041752
  O       0.595620     -0.088018      1.095197
  N       2.299711      0.066229     -0.384162
  C       3.331369      0.526344      0.502807
  C       4.642127      0.683365     -0.327428
  O       5.654710      1.067477      0.278542
  O       4.554603      0.389913     -1.536696
  H      -4.903814      0.475947      1.135102
  H      -3.636704      1.363375      0.420501
  H      -3.510593      0.847214      1.987201
  H      -2.897681     -1.280844      1.329507
  H      -3.858817     -1.141854     -0.154319
  H      -1.185043     -1.955417     -0.252499
  H       0.016022      0.181240     -1.888243
  H       0.608226     -1.489626     -1.725728
  H       2.667737     -0.021760     -1.332705
  H       3.084365      1.494339      0.949157
  H       3.515703     -0.184701      1.314051
24
Coordinates from ORCA-job geo_opt E -43.538721630430
  N      -3.959572      0.546243      1.044357
  C      -3.217397     -0.631434      0.553939
  C      -2.024832     -0.094847     -0.245845
  O      -2.014166      1.089012     -0.561392
  N      -1.125852     -1.001958     -0.636101
  C       0.144137     -0.579890     -1.175701
  C       1.065344     -0.129117     -0.033794
  O       0.629090      0.008388      1.105601
  N       2.325559      0.079716     -0.390229
  C       3.378701      0.519440      0.483359
  C       4.693370      0.606161     -0.348931
  O       5.718611      0.962463      0.253797
  O       4.592901      0.301796     -1.554564
  H      -4.975648      0.423815      1.021724
  H      -3.660986      1.323339      0.414360
  H      -3.665606      0.804927      1.992299
  H      -2.895827     -1.277480      1.366971
  H      -3.835237     -1.212437     -0.133826
  H      -1.136772     -1.912105     -0.198914
  H      -0.027881      0.272331     -1.837452
  H       0.604615     -1.389241     -1.739980
  H       2.684542     -0.039110     -1.338602
  H       3.169226      1.506868      0.907166
  H       3.533678     -0.176879      1.313285
24
Coordinates from ORCA-job geo_opt E -43.538843603180
  N      -3.992499      0.541923      1.022128
  C      -3.220858     -0.629933      0.566325
  C      -2.025080     -0.086343     -0.227445
  O      -2.017444      1.099635     -0.538180
  N      -1.124465     -0.990485     -0.615679
  C       0.144447     -0.570991     -1.161630
  C       1.081110     -0.142401     -0.021532
  O       0.654949     -0.008794      1.122019
  N       2.338176      0.071182     -0.390144
  C       3.398962      0.505947      0.477999
  C       4.707705      0.606651     -0.367621
  O       5.733366      0.962468      0.234535
  O       4.595581      0.324198     -1.577436
  H      -5.005971      0.412400      0.954122
  H      -3.673281      1.316709      0.396582
  H      -3.743240      0.808653      1.980609
  H      -2.893405     -1.250982      1.397098
  H      -3.816643     -1.238709     -0.116539
  H      -1.142287     -1.907654     -0.193176
  H      -0.027861      0.296055     -1.804980
  H       0.593115     -1.373381     -1.744026
  H       2.682925     -0.037241     -1.344844
  H       3.189100      1.488301      0.913395
  H       3.563599     -0.197209      1.299946
24
Coordinates from ORCA-job geo_opt E -43.538935606610
  N      -3.992120      0.548643      1.011813
  C      -3.211824     -0.624603      0.579868
  C      -2.026444     -0.087146     -0.235647
  O      -2.018149      1.100623     -0.542467
  N      -1.129017     -0.993597     -0.622874
  C       0.142375     -0.576857     -1.166270
  C       1.080474     -0.156576     -0.021089
  O       0.656047     -0.049256      1.126021
  N       2.336276      0.068850     -0.388283
  C       3.396748      0.495052      0.484920
  C       4.703279      0.620244     -0.370446
  O       5.727911      0.971310      0.234919
  O       4.583020      0.363193     -1.584933
  H      -5.004356      0.417785      0.926802
  H      -3.663231      1.315915      0.379655
  H      -3.760098      0.827175      1.971098
  H      -2.860217     -1.213245      1.425279
  H      -3.805047     -1.262558     -0.077423
  H      -1.149306     -1.910596     -0.199435
  H      -0.023233      0.299503     -1.799175
  H       0.588025     -1.376276     -1.754017
  H       2.675300     -0.023660     -1.346873
  H       3.182505      1.468055      0.937886
  H       3.571082     -0.221977      1.292196
24
Coordinates from ORCA-job geo_opt E -43.538994869460
  N      -3.993740      0.553991      1.002369
  C      -3.208042     -0.621228      0.588122
  C      -2.023609     -0.087838     -0.230983
  O      -2.016223      1.099794     -0.538624
  N      -1.130343     -0.996272     -0.623187
  C       0.141402     -0.581213     -1.166183
  C       1.082695     -0.172194     -0.019367
  O       0.660428     -0.075732      1.129644
  N       2.335741      0.064428     -0.387814
  C       3.395488      0.488475      0.486583
  C       4.698311      0.633465     -0.374126
  O       5.724349      0.982577      0.229388
  O       4.574242      0.387627     -1.590499
  H      -5.003669      0.430356      0.887408
  H      -3.642285      1.321141      0.380354
  H      -3.788318      0.828853      1.968314
  H      -2.847000     -1.190511      1.442870
  H      -3.796015     -1.276078     -0.056454
  H      -1.151391     -1.913492     -0.200328
  H      -0.019537      0.301063     -1.791736
  H       0.582907     -1.378886     -1.759363
  H       2.668846     -0.015368     -1.349548
  H       3.176697      1.454582      0.951177
  H       3.579066     -0.237541      1.283508
24
Coordinates from ORCA-job geo_opt E -43.539078591680
  N      -4.004960      0.558282      0.985169
  C      -3.198046     -0.615391      0.608041
  C      -2.018496     -0.085862     -0.220827
  O      -2.008737      1.102438     -0.525420
  N      -1.131389     -0.995555     -0.623645
  C       0.139630     -0.582077     -1.167584
  C       1.084761     -0.184508     -0.021096
  O       0.669293     -0.110059      1.132151
  N       2.334543      0.063481     -0.391984
  C       3.395234      0.474889      0.485530
  C       4.693618      0.647497     -0.376511
  O       5.722456      0.987400      0.227354
  O       4.567294      0.423430     -1.596552
  H      -5.007150      0.436194      0.816916
  H      -3.623755      1.327247      0.379958
  H      -3.851259      0.832513      1.960215
  H      -2.817192     -1.142883      1.480859
  H      -3.771069     -1.307565     -0.008970
  H      -1.154026     -1.914871     -0.205933
  H      -0.015792      0.302971     -1.789730
  H       0.576956     -1.380254     -1.763860
  H       2.656430      0.002671     -1.358247
  H       3.173823      1.429111      0.972121
  H       3.587833     -0.269100      1.263574
24
Coordinates from ORCA-job geo_opt E -43.539125938040
  N      -4.045942      0.547279      0.938989
  C      -3.184338     -0.613034      0.652701
  C      -2.020508     -0.079241     -0.195376
  O      -2.027056      1.108831     -0.502004
  N      -1.129844     -0.979355     -0.608447
  C       0.133827     -0.555287     -1.159277
  C       1.093748     -0.185976     -0.016914
  O       0.692776     -0.139128      1.143126
  N       2.339896      0.066379     -0.396378
  C       3.412983      0.444718      0.478856
  C       4.699146      0.645404     -0.393878
  O       5.740380      0.957184      0.203755
  O       4.555151      0.462754     -1.618672
  H      -5.015774      0.424399      0.637063
  H      -3.592841      1.321922      0.385805
  H      -4.026119      0.816028      1.926454
  H      -2.772732     -1.050004      1.561302
  H      -3.713148     -1.381845      0.091768
  H      -1.137693     -1.896786     -0.186174
  H      -0.025807      0.341517     -1.762295
  H       0.562237     -1.342959     -1.776476
  H       2.642803      0.033883     -1.369384
  H       3.202707      1.381806      1.001781
  H       3.616149     -0.328488      1.225199
24
Coordinates from ORCA-job geo_opt E -43.539181597960
  N      -4.040828      0.552030      0.949545
  C      -3.186148     -0.608964      0.642599
  C      -2.015106     -0.076433     -0.197458
  O      -2.005960      1.113817     -0.495130
  N      -1.131703     -0.982695     -0.614482
  C       0.136917     -0.567354     -1.161863
  C       1.092727     -0.192368     -0.017690
  O       0.688884     -0.143076      1.141133
  N       2.338881      0.063190     -0.395384
  C       3.409532      0.450975      0.479344
  C       4.695775      0.651159     -0.391475
  O       5.732662      0.975889      0.207210
  O       4.555766      0.459103     -1.615577
  H      -5.016852      0.427385      0.668212
  H      -3.603336      1.329636      0.391206
  H      -4.000142      0.816510      1.937833
  H      -2.783357     -1.066450      1.545068
  H      -3.723005     -1.362656      0.068123
  H      -1.148656     -1.901981     -0.196263
  H      -0.017326      0.323116     -1.775680
  H       0.565808     -1.362348     -1.769308
  H       2.647110      0.027455     -1.366881
  H       3.193897      1.390186      0.996791
  H       3.614459     -0.316127      1.231653
24
Coordinates from ORCA-job geo_opt E -43.539220768910
  N      -4.047941      0.550890      0.946618
  C      -3.186326     -0.606325      0.643139
  C      -2.012385     -0.071378     -0.190963
  O      -1.994653      1.121423     -0.477659
  N      -1.132987     -0.979584     -0.613455
  C       0.138234     -0.568647     -1.159476
  C       1.094605     -0.195480     -0.015064
  O       0.691620     -0.147760      1.144045
  N       2.340378      0.060154     -0.394038
  C       3.413662      0.451402      0.476638
  C       4.695956      0.650879     -0.398061
  O       5.732215      0.983782      0.197563
  O       4.553142      0.454103     -1.621336
  H      -5.014828      0.431609      0.632626
  H      -3.595362      1.336743      0.413776
  H      -4.038494      0.797417      1.940388
  H      -2.787960     -1.062812      1.548304
  H      -3.717897     -1.362957      0.067270
  H      -1.152912     -1.899451     -0.196057
  H      -0.014613      0.319350     -1.777293
  H       0.565126     -1.366483     -1.764730
  H       2.651560      0.024368     -1.365135
  H       3.197639      1.391363      0.993158
  H       3.622220     -0.312606      1.231268
24
Coordinates from ORCA-job geo_opt E -43.539244682130
  N      -4.049097      0.553444      0.941498
  C      -3.180322     -0.601606      0.650005
  C      -2.008677     -0.068380     -0.187381
  O      -1.985883      1.125525     -0.468731
  N      -1.135636     -0.980134     -0.616253
  C       0.138131     -0.573905     -1.160634
  C       1.093727     -0.202884     -0.014639
  O       0.691080     -0.162553      1.144879
  N       2.338349      0.058334     -0.393485
  C       3.413530      0.447103      0.476689
  C       4.691510      0.658135     -0.401675
  O       5.727302      0.993509      0.193437
  O       4.545120      0.468838     -1.625699
  H      -5.005948      0.437560      0.596480
  H      -3.583312      1.343542      0.427872
  H      -4.070684      0.789465      1.937578
  H      -2.779510     -1.045094      1.560884
  H      -3.706613     -1.368608      0.083157
  H      -1.159471     -1.900812     -0.200439
  H      -0.011706      0.313155     -1.780701
  H       0.563319     -1.374183     -1.763741
  H       2.651562      0.028849     -1.364680
  H       3.195195      1.381887      1.001763
  H       3.628034     -0.321187      1.225341
24
Coordinates from ORCA-job geo_opt E -43.539203390530
  N      -4.066926      0.559597      0.897031
  C      -3.153232     -0.579657      0.696966
  C      -1.990517     -0.052679     -0.150712
  O      -1.945415      1.147768     -0.398384
  N      -1.147534     -0.976571     -0.615354
  C       0.134789     -0.589672     -1.157276
  C       1.095701     -0.240046     -0.008626
  O       0.704380     -0.242596      1.155481
  N       2.332183      0.048452     -0.393425
  C       3.421054      0.418686      0.470608
  C       4.672619      0.693310     -0.427552
  O       5.710133      1.034900      0.161458
  O       4.502967      0.548401     -1.654720
  H      -4.935577      0.468790      0.361284
  H      -3.524161      1.371713      0.509673
  H      -4.289245      0.735869      1.880407
  H      -2.744429     -0.934744      1.643956
  H      -3.637233     -1.411342      0.187625
  H      -1.190808     -1.904796     -0.216874
  H      -0.003296      0.298145     -1.779486
  H       0.546534     -1.396964     -1.760014
  H       2.645064      0.056711     -1.367033
  H       3.195341      1.322547      1.045078
  H       3.667608     -0.375823      1.181416
24
Coordinates from ORCA-job geo_opt E -43.539270369990
  N      -4.056792      0.560048      0.920433
  C      -3.164443     -0.587742      0.675185
  C      -1.996819     -0.061393     -0.170701
  O      -1.959066      1.135518     -0.436890
  N      -1.141751     -0.981587     -0.618755
  C       0.136842     -0.586632     -1.161595
  C       1.094560     -0.226443     -0.013898
  O       0.697619     -0.209998      1.148216
  N       2.334528      0.052219     -0.395002
  C       3.414343      0.431476      0.474693
  C       4.679417      0.682076     -0.411820
  O       5.715463      1.020732      0.181113
  O       4.523074      0.518473     -1.638380
  H      -4.974266      0.454641      0.477545
  H      -3.551028      1.361902      0.467137
  H      -4.179132      0.766976      1.915560
  H      -2.756295     -0.982717      1.605727
  H      -3.671160     -1.390169      0.141129
  H      -1.177608     -1.906522     -0.213051
  H      -0.004731      0.300745     -1.783213
  H       0.555122     -1.391410     -1.763404
  H       2.646499      0.044986     -1.367677
  H       3.188912      1.347998      1.028296
  H       3.646712     -0.353179      1.200879
24
Coordinates from ORCA-job geo_opt E -43.539275485150
  N      -4.053778      0.561149      0.922623
  C      -3.165823     -0.589223      0.673588
  C      -1.997853     -0.064363     -0.173234
  O      -1.961476      1.132077     -0.441766
  N      -1.140998     -0.983829     -0.618841
  C       0.136466     -0.586688     -1.162328
  C       1.094421     -0.225924     -0.014990
  O       0.697017     -0.206812      1.146947
  N       2.334801      0.051297     -0.395641
  C       3.412542      0.432813      0.475260
  C       4.679261      0.682421     -0.409635
  O       5.714915      1.021558      0.183539
  O       4.524679      0.516199     -1.636048
  H      -4.974291      0.458280      0.485744
  H      -3.547645      1.361364      0.466213
  H      -4.168942      0.769239      1.918241
  H      -2.757227     -0.987513      1.602357
  H      -3.676169     -1.388332      0.138113
  H      -1.175254     -1.908288     -0.212149
  H      -0.006243      0.302125     -1.781536
  H       0.555503     -1.389682     -1.765958
  H       2.646424      0.042414     -1.368138
  H       3.185802      1.350462      1.026259
  H       3.643869     -0.350744      1.202906
24
Coordinates from ORCA-job geo_opt E -43.539278346940
  N      -4.052686      0.562912      0.922206
  C      -3.166208     -0.588916      0.674065
  C      -1.996453     -0.065748     -0.171750
  O      -1.957915      1.130841     -0.439295
  N      -1.140769     -0.985822     -0.617966
  C       0.136145     -0.588710     -1.162315
  C       1.094897     -0.227789     -0.015700
  O       0.698236     -0.208015      1.146480
  N       2.335188      0.049098     -0.396820
  C       3.411444      0.432299      0.474918
  C       4.678250      0.686010     -0.409042
  O       5.713096      1.026948      0.184385
  O       4.524784      0.519561     -1.635538
  H      -4.971839      0.462781      0.481904
  H      -3.543800      1.363110      0.468680
  H      -4.170627      0.769140      1.917836
  H      -2.758123     -0.986748      1.603159
  H      -3.677436     -1.387397      0.138669
  H      -1.176522     -1.911189     -0.213769
  H      -0.006295      0.301041     -1.780166
  H       0.554856     -1.391141     -1.766852
  H       2.645496      0.040720     -1.369494
  H       3.182147      1.348874      1.026485
  H       3.644134     -0.351861      1.201446
24
Coordinates from ORCA-job geo_opt E -43.539280854570
  N      -4.053300      0.564669      0.919230
  C      -3.165176     -0.587257      0.677185
  C      -1.993933     -0.065825     -0.167860
  O      -1.951453      1.131411     -0.431968
  N      -1.141307     -0.987201     -0.617134
  C       0.135690     -0.591281     -1.161941
  C       1.095551     -0.231385     -0.015896
  O       0.699988     -0.212233      1.146663
  N       2.335589      0.045588     -0.397779
  C       3.411270      0.429867      0.474146
  C       4.676264      0.691383     -0.410330
  O       5.710383      1.035178      0.182611
  O       4.522338      0.526853     -1.637007
  H      -4.965246      0.468716      0.463205
  H      -3.537050      1.366528      0.477081
  H      -4.186987      0.764730      1.914103
  H      -2.757429     -0.979675      1.608744
  H      -3.674591     -1.388892      0.144947
  H      -1.179557     -1.913800     -0.216173
  H      -0.005678      0.299307     -1.778836
  H       0.553296     -1.393677     -1.767206
  H       2.644744      0.039511     -1.370730
  H       3.178941      1.343629      1.029008
  H       3.647654     -0.356145      1.197463
24
Coordinates from ORCA-job geo_opt E -43.539265690110
  N      -4.059851      0.572619      0.896020
  C      -3.156202     -0.576107      0.701219
  C      -1.979692     -0.063788     -0.142252
  O      -1.915871      1.137203     -0.384405
  N      -1.145640     -0.991885     -0.612036
  C       0.132390     -0.603511     -1.159081
  C       1.099269     -0.253126     -0.015844
  O       0.710961     -0.242267      1.149231
  N       2.337499      0.025236     -0.402579
  C       3.412757      0.411580      0.468973
  C       4.663547      0.722278     -0.420478
  O       5.694270      1.080931      0.169154
  O       4.503336      0.574898     -1.648466
  H      -4.915024      0.500058      0.336653
  H      -3.500815      1.384693      0.530981
  H      -4.302655      0.735289      1.876769
  H      -2.748837     -0.925107      1.650384
  H      -3.649246     -1.404408      0.196018
  H      -1.197814     -1.925232     -0.229236
  H      -0.002426      0.291899     -1.770507
  H       0.542369     -1.405940     -1.769151
  H       2.639485      0.036678     -1.377424
  H       3.164960      1.305613      1.048356
  H       3.673233     -0.387606      1.169229
24
Coordinates from ORCA-job geo_opt E -43.539285232210
  N      -4.056219      0.566046      0.913499
  C      -3.162391     -0.583955      0.683513
  C      -1.990303     -0.064306     -0.161594
  O      -1.942404      1.133949     -0.420149
  N      -1.142470     -0.987459     -0.616440
  C       0.135025     -0.593684     -1.161478
  C       1.096420     -0.236277     -0.015908
  O       0.702137     -0.218185      1.147086
  N       2.336480      0.039442     -0.398679
  C       3.412167      0.424582      0.472906
  C       4.673413      0.698631     -0.413182
  O       5.706589      1.046832      0.178763
  O       4.517838      0.538188     -1.640188
  H      -4.954298      0.474638      0.429640
  H      -3.529298      1.371556      0.491323
  H      -4.218937      0.755828      1.906042
  H      -2.754170     -0.964510      1.619900
  H      -3.666833     -1.393435      0.158642
  H      -1.183991     -1.915656     -0.219569
  H      -0.004455      0.297900     -1.777406
  H       0.550712     -1.396351     -1.767645
  H       2.644134      0.037465     -1.372090
  H       3.175789      1.333435      1.034015
  H       3.655064     -0.364675      1.190525
24
Coordinates from ORCA-job geo_opt E -43.539286705850
  N      -4.057575      0.566281      0.911261
  C      -3.161576     -0.582885      0.685636
  C      -1.989339     -0.063601     -0.159409
  O      -1.939992      1.134975     -0.416157
  N      -1.142828     -0.987194     -0.615950
  C       0.134833     -0.594060     -1.161060
  C       1.096798     -0.237715     -0.015625
  O       0.702792     -0.219506      1.147458
  N       2.337059      0.036737     -0.398678
  C       3.412954      0.422401      0.472448
  C       4.672536      0.700986     -0.414601
  O       5.705434      1.050965      0.176779
  O       4.516035      0.541980     -1.641680
  H      -4.950351      0.476523      0.417257
  H      -3.526848      1.373184      0.496759
  H      -4.231044      0.752193      1.902713
  H      -2.753295     -0.959281      1.623737
  H      -3.664054     -1.395208      0.163329
  H      -1.185094     -1.915771     -0.220012
  H      -0.004170      0.297931     -1.776522
  H       0.549809     -1.396711     -1.767726
  H       2.644155      0.036122     -1.372290
  H       3.175206      1.329504      1.035796
  H       3.658555     -0.367850      1.188060
24
Coordinates from ORCA-job geo_opt E -43.539283399830
  N      -4.065531      0.567714      0.896766
  C      -3.155452     -0.575456      0.699825
  C      -1.984000     -0.058883     -0.147371
  O      -1.927142      1.141197     -0.395155
  N      -1.145253     -0.985158     -0.613450
  C       0.133495     -0.596217     -1.158992
  C       1.098947     -0.247460     -0.014111
  O       0.706662     -0.229894      1.149549
  N       2.340546      0.019249     -0.398560
  C       3.417831      0.406839      0.470075
  C       4.666243      0.716953     -0.422366
  O       5.697256      1.076970      0.166287
  O       4.503689      0.570147     -1.650154
  H      -4.925350      0.484834      0.345853
  H      -3.516100      1.382383      0.525085
  H      -4.301207      0.733613      1.878871
  H      -2.745092     -0.923035      1.648470
  H      -3.645349     -1.406979      0.196514
  H      -1.191706     -1.915641     -0.222271
  H      -0.002187      0.298399     -1.771481
  H       0.543787     -1.398834     -1.768837
  H       2.643192      0.029089     -1.373627
  H       3.171395      1.301171      1.049784
  H       3.681326     -0.391001      1.170822
24
Coordinates from ORCA-job geo_opt E -43.539290089530
  N      -4.061500      0.566017      0.906190
  C      -3.159349     -0.580181      0.690500
  C      -1.988242     -0.061233     -0.156057
  O      -1.937572      1.137655     -0.410925
  N      -1.143513     -0.985419     -0.615078
  C       0.134489     -0.593456     -1.160277
  C       1.097628     -0.240129     -0.014885
  O       0.703642     -0.220686      1.148180
  N       2.339034      0.029127     -0.398075
  C       3.415608      0.415769      0.471804
  C       4.670902      0.705995     -0.417583
  O       5.703128      1.059860      0.172701
  O       4.512001      0.551512     -1.644923
  H      -4.943867      0.476722      0.393540
  H      -3.525615      1.376023      0.505246
  H      -4.255548      0.745773      1.894965
  H      -2.749637     -0.945938      1.632337
  H      -3.656873     -1.399989      0.175284
  H      -1.186252     -1.914200     -0.219517
  H      -0.003636      0.299570     -1.774487
  H       0.547830     -1.395882     -1.768359
  H       2.644464      0.031991     -1.372282
  H       3.174680      1.318247      1.041180
  H       3.668201     -0.377150      1.182046
24
Coordinates from ORCA-job geo_opt E -43.539291207600
  N      -4.063078      0.565910      0.904351
  C      -3.158636     -0.579101      0.692076
  C      -1.988168     -0.060286     -0.155346
  O      -1.937578      1.138543     -0.410425
  N      -1.143642     -0.984626     -0.614577
  C       0.134423     -0.593003     -1.159898
  C       1.098067     -0.240993     -0.014530
  O       0.703990     -0.220697      1.148492
  N       2.340079      0.025606     -0.397682
  C       3.416880      0.412696      0.471703
  C       4.670301      0.708189     -0.418599
  O       5.702231      1.063611      0.171288
  O       4.510380      0.555895     -1.646076
  H      -4.942547      0.475822      0.386840
  H      -3.526448      1.376869      0.506640
  H      -4.262758      0.744483      1.892225
  H      -2.748218     -0.941003      1.635147
  H      -3.654431     -1.401599      0.179515
  H      -1.186219     -1.913254     -0.218588
  H      -0.003489      0.300522     -1.773447
  H       0.547100     -1.395219     -1.768711
  H       2.644697      0.029965     -1.372154
  H       3.174505      1.313082      1.043759
  H       3.672558     -0.381411      1.179522
