24
Coordinates from ORCA-job geo_opt E -43.539291207600
  N          -4.06307834612660      0.56590954983980      0.90435078766628
  C          -3.15863603149099     -0.57910149448443      0.69207647044615
  C          -1.98816761186267     -0.06028643734963     -0.15534632256532
  O          -1.93757794945959      1.13854322237348     -0.41042521384521
  N          -1.14364232153216     -0.98462614880912     -0.61457700048112
  C           0.13442315314847     -0.59300259067993     -1.15989795101117
  C           1.09806691129943     -0.24099312213530     -0.01452971854109
  O           0.70398994489673     -0.22069742531754      1.14849225649674
  N           2.34007886300348      0.02560622208682     -0.39768185780402
  C           3.41688027014991      0.41269586696538      0.47170271008636
  C           4.67030127645274      0.70818897632759     -0.41859907438028
  O           5.70223142642722      1.06361118183002      0.17128810778887
  O           4.51038000693185      0.55589492928480     -1.64607574318716
  H          -4.94254711835254      0.47582178296003      0.38683994314086
  H          -3.52644750249022      1.37686893009604      0.50664015008748
  H          -4.26275847794475      0.74448323899446      1.89222514571487
  H          -2.74821821978524     -0.94100317022439      1.63514732467945
  H          -3.65443116677581     -1.40159891015259      0.17951541751913
  H          -1.18621911902223     -1.91325402233959     -0.21858795178767
  H          -0.00348860305176      0.30052197177566     -1.77344742957807
  H           0.54710011110938     -1.39521939128454     -1.76871134308779
  H           2.64469666940821      0.02996540086098     -1.37215359981617
  H           3.17450544407069      1.31308219615580      1.04375856741870
  H           3.67255837099643     -0.38141073677381      1.17952221504018
