24
zwitterion conformer 12
N      -3.82196303     0.71564878     1.09519730
C      -3.20668892    -0.46444076     0.54078304
C      -1.87273728    -0.15962208    -0.06029900
O      -1.40958395     1.02694278    -0.04218046
N      -1.15864120    -1.24214467    -0.64349857
C       0.14679543    -0.90649662    -1.22385328
C       1.04822540    -0.34279990    -0.17517578
O       0.67133380    -0.20280655     1.02680130
N       2.35106328     0.03086136    -0.58539623
C       3.23649808     0.57859687     0.41869625
C       4.55894160     0.92309970    -0.14957987
O       5.49532915     1.41890344     0.54810672
O       4.87386266     0.72616016    -1.50336409
H      -4.86066279     0.60388540     1.14000136
H      -3.63657227     1.57255556     0.52705746
H      -3.42594137     0.87567835     2.05996094
H      -3.06660311    -1.21119875     1.35765353
H      -3.88111280    -0.87096871    -0.22642158
H      -1.51761997    -2.22362590    -0.67052820
H       0.01963263    -0.22641665    -2.09287536
H       0.61657754    -1.82643023    -1.60982303
H       2.65137619    -0.09127078    -1.58944529
H       2.83185667     1.47803619     0.90533118
H       3.35663424    -0.18214697     1.21437755
