24
Coordinates from ORCA-job geo_opt E -43.531465321920
  N          -3.35471834839975      1.07119832738577      0.24294877166156
  C          -3.33230665021478     -0.35653805141491      0.61719932574463
  C          -2.07854580238243     -1.13250524677539      0.21580899513302
  O          -2.02748423201606     -2.33883881128136      0.41279200973688
  N          -1.11841717174029     -0.43737322875572     -0.40756509558571
  C           0.17532374211155     -1.00456298780726     -0.70685257843661
  C           1.19827085063894      0.12533831463801     -0.59770829680976
  O           0.81554456786260      1.26222548089390     -0.32675962105796
  N           2.45375008408157     -0.20110593573304     -0.92651396217632
  C           3.54489588565280      0.62758848563534     -0.47823591441920
  C           3.75674072987487      0.45860040195155      1.07387631768543
  O           4.77740394850066      0.98601122750837      1.54638640010787
  O           2.87764472032567     -0.18205465490421      1.67704027829029
  H          -3.22843889252742      1.18266521461791     -0.77092409449282
  H          -2.61639205431483      1.59579879285062      0.72857073876311
  H          -4.26194484948095      1.47873936144332      0.50624384595427
  H          -3.43181132281045     -0.46970507909499      1.69852655711636
  H          -4.17396125758578     -0.87884812654538      0.15762051191273
  H          -1.02367898370542      0.57591683872762     -0.33104333227262
  H           0.19320028710582     -1.42834527261739     -1.71531339784791
  H           0.42303412010235     -1.79480508955221      0.00916076410266
  H           2.66578608435516     -1.18814406399046     -0.97206374591678
  H           3.30048998395608      1.67656407104942     -0.65419311617064
  H           4.46561457061010      0.37218001177049     -0.99900136102248
