24
Coordinates from ORCA-job geo_opt E -43.467320707850
  N      -3.507660      1.017541      0.548926
  C      -3.538148     -0.379010      0.243656
  C      -2.229749     -0.975352     -0.075038
  O      -2.206070     -2.208810     -0.351849
  N      -1.005086     -0.251024     -0.089028
  C       0.206516     -0.975753     -0.422386
  C       1.372370     -0.058572     -0.385262
  O       1.139850      1.143507     -0.085660
  N       2.669087     -0.556226     -0.680414
  C       3.776240      0.375055     -0.631797
  C       3.847050      0.926424      0.753113
  O       4.767020      1.775420      1.003971
  O       2.955453      0.546573      1.754635
  H      -3.530735      1.617452     -0.309292
  H      -2.704341      1.255388      1.178328
  H      -4.362676      1.247032      1.138375
  H      -3.973458     -0.969559      1.075793
  H      -4.267549     -0.522359     -0.600035
  H      -1.014645      0.749569      0.134154
  H       0.107203     -1.458201     -1.429723
  H       0.287957     -1.804554      0.308395
  H       2.794050     -1.572436     -0.923495
  H       3.679188      1.237569     -1.299593
  H       4.738132     -0.159674     -0.855774
24
Coordinates from ORCA-job geo_opt E -43.507742145690
  N      -3.476180      1.041112      0.537631
  C      -3.515320     -0.386030      0.231559
  C      -2.208397     -1.019010     -0.089999
  O      -2.184325     -2.233939     -0.350777
  N      -1.034083     -0.306124     -0.104733
  C       0.189252     -0.997694     -0.418159
  C       1.332926     -0.035619     -0.374632
  O       1.104332      1.151456     -0.099710
  N       2.583718     -0.511616     -0.665569
  C       3.709297      0.391474     -0.603972
  C       3.894806      0.931428      0.797087
  O       4.838823      1.736276      0.997837
  O       3.119589      0.546884      1.782415
  H      -3.483204      1.629037     -0.311999
  H      -2.679688      1.277197      1.155224
  H      -4.315580      1.288772      1.106331
  H      -3.950008     -0.963049      1.062162
  H      -4.223414     -0.543183     -0.605584
  H      -1.036583      0.685230      0.104482
  H       0.111241     -1.479541     -1.411974
  H       0.300739     -1.814452      0.313117
  H       2.694978     -1.494443     -0.912857
  H       3.597087      1.257850     -1.261629
  H       4.629993     -0.152017     -0.876250
24
Coordinates from ORCA-job geo_opt E -43.521483340020
  N      -3.408978      1.063408      0.543376
  C      -3.492326     -0.381758      0.234726
  C      -2.198979     -1.081209     -0.100961
  O      -2.212107     -2.283305     -0.344195
  N      -1.065388     -0.380300     -0.129098
  C       0.183460     -1.028172     -0.427704
  C       1.298412     -0.002872     -0.385846
  O       1.060987      1.171839     -0.127354
  N       2.511073     -0.461493     -0.666872
  C       3.657047      0.405123     -0.577658
  C       3.883701      0.932667      0.850254
  O       4.834157      1.719872      1.021445
  O       3.129244      0.559244      1.740984
  H      -3.382599      1.638228     -0.304557
  H      -2.605769      1.275210      1.147429
  H      -4.233260      1.345157      1.090982
  H      -3.932491     -0.931565      1.070781
  H      -4.183946     -0.534500     -0.597430
  H      -1.044707      0.611172      0.061288
  H       0.130141     -1.510767     -1.410182
  H       0.349869     -1.827647      0.305500
  H       2.621964     -1.429639     -0.900787
  H       3.547986      1.275707     -1.230225
  H       4.552509     -0.144401     -0.863895
24
Coordinates from ORCA-job geo_opt E -43.525138755220
  N      -3.409305      1.070169      0.508997
  C      -3.503466     -0.386272      0.250998
  C      -2.208790     -1.117214     -0.058391
  O      -2.233224     -2.331474     -0.230385
  N      -1.086095     -0.401650     -0.145512
  C       0.187434     -1.026166     -0.398267
  C       1.263722      0.052098     -0.424965
  O       0.971422      1.235463     -0.274288
  N       2.487104     -0.389173     -0.711169
  C       3.637823      0.466692     -0.578445
  C       3.919815      0.861538      0.902567
  O       4.891267      1.626919      1.081145
  O       3.283264      0.270428      1.787453
  H      -3.333057      1.605181     -0.362394
  H      -2.618289      1.292511      1.125422
  H      -4.251524      1.388206      1.006283
  H      -3.944979     -0.895228      1.110384
  H      -4.185752     -0.570997     -0.580190
  H      -1.061023      0.603155     -0.030514
  H       0.156891     -1.569537     -1.347807
  H       0.397524     -1.760933      0.387534
  H       2.618174     -1.364511     -0.920041
  H       3.499240      1.389426     -1.149535
  H       4.521826     -0.048633     -0.948884
24
Coordinates from ORCA-job geo_opt E -43.525545553650
  N      -3.351164      1.085358      0.518572
  C      -3.490206     -0.373589      0.282962
  C      -2.209987     -1.158368     -0.021360
  O      -2.268754     -2.377479     -0.129393
  N      -1.090568     -0.446348     -0.173965
  C       0.199658     -1.046718     -0.412764
  C       1.235052      0.079718     -0.508403
  O       0.893723      1.257257     -0.406563
  N       2.471370     -0.345673     -0.788235
  C       3.627548      0.488022     -0.576345
  C       3.921671      0.739662      0.959505
  O       4.766828      1.635464      1.174161
  O       3.144406      0.184388      1.781304
  H      -3.196545      1.588605     -0.362371
  H      -2.572618      1.287219      1.157615
  H      -4.207398      1.451015      0.953848
  H      -3.935044     -0.847183      1.159340
  H      -4.169054     -0.562405     -0.548665
  H      -1.037589      0.564568     -0.128429
  H       0.179378     -1.628618     -1.337655
  H       0.470142     -1.722504      0.403879
  H       2.626163     -1.331751     -0.933380
  H       3.480732      1.457536     -1.061902
  H       4.512255      0.021823     -1.001756
24
Coordinates from ORCA-job geo_opt E -43.529124320490
  N      -3.317016      1.088793      0.530712
  C      -3.477650     -0.364067      0.291375
  C      -2.206191     -1.159820     -0.016108
  O      -2.273150     -2.377934     -0.109935
  N      -1.084235     -0.458502     -0.181762
  C       0.199737     -1.063848     -0.438589
  C       1.229687      0.063822     -0.542310
  O       0.887294      1.235165     -0.400908
  N       2.469570     -0.349369     -0.806055
  C       3.607460      0.503841     -0.583489
  C       3.832023      0.791910      0.954193
  O       4.722978      1.623880      1.206293
  O       3.098013      0.178520      1.751321
  H      -3.133800      1.589678     -0.347054
  H      -2.547336      1.274658      1.185982
  H      -4.177431      1.468101      0.946841
  H      -3.926273     -0.835496      1.167830
  H      -4.158699     -0.539637     -0.543169
  H      -1.017989      0.553065     -0.143140
  H       0.170040     -1.643079     -1.366493
  H       0.483911     -1.738961      0.374220
  H       2.642686     -1.339875     -0.875163
  H       3.463877      1.462802     -1.087297
  H       4.512492      0.036354     -0.967294
24
Coordinates from ORCA-job geo_opt E -43.530081793400
  N      -3.294759      1.088187      0.533418
  C      -3.483850     -0.351037      0.259789
  C      -2.218026     -1.163895     -0.020971
  O      -2.298387     -2.380872     -0.115242
  N      -1.084187     -0.477674     -0.162956
  C       0.199262     -1.089559     -0.404568
  C       1.226965      0.040624     -0.476245
  O       0.863036      1.207510     -0.354114
  N       2.460023     -0.346676     -0.802691
  C       3.583325      0.533639     -0.614663
  C       3.837934      0.802725      0.919771
  O       4.743234      1.612934      1.173466
  O       3.136076      0.160984      1.713374
  H      -3.029645      1.595161     -0.320332
  H      -2.567749      1.236646      1.245074
  H      -4.173309      1.488381      0.889148
  H      -3.969885     -0.831146      1.111672
  H      -4.138112     -0.491160     -0.603499
  H      -0.995538      0.534088     -0.115364
  H       0.187725     -1.660169     -1.339614
  H       0.471453     -1.765617      0.411595
  H       2.660356     -1.335369     -0.801196
  H       3.396993      1.497938     -1.090677
  H       4.487065      0.094358     -1.035174
24
Coordinates from ORCA-job geo_opt E -43.530663320530
  N      -3.253484      1.097513      0.526662
  C      -3.465734     -0.341084      0.279922
  C      -2.207894     -1.172128      0.013968
  O      -2.293712     -2.391861     -0.031783
  N      -1.074217     -0.496092     -0.167867
  C       0.206968     -1.107888     -0.418137
  C       1.217218      0.034705     -0.529472
  O       0.834983      1.194970     -0.390587
  N       2.456302     -0.330302     -0.865267
  C       3.556718      0.567073     -0.624408
  C       3.774616      0.766270      0.928627
  O       4.679071      1.552521      1.247138
  O       3.038493      0.096071      1.670442
  H      -2.930801      1.575327     -0.324185
  H      -2.556546      1.244025      1.267840
  H      -4.139757      1.527456      0.823908
  H      -3.955290     -0.801192      1.140593
  H      -4.119005     -0.486053     -0.583243
  H      -0.967723      0.517527     -0.150952
  H       0.189829     -1.695942     -1.341169
  H       0.504016     -1.760082      0.409187
  H       2.680986     -1.310780     -0.776001
  H       3.349600      1.548903     -1.051081
  H       4.475364      0.171044     -1.054134
24
Coordinates from ORCA-job geo_opt E -43.530904774170
  N      -3.265756      1.097417      0.509874
  C      -3.468595     -0.345713      0.281438
  C      -2.205556     -1.169937      0.026610
  O      -2.281065     -2.391827     -0.005786
  N      -1.074653     -0.491388     -0.162681
  C       0.208781     -1.101682     -0.404425
  C       1.217229      0.040753     -0.525849
  O       0.830904      1.200842     -0.391044
  N       2.456271     -0.318094     -0.880031
  C       3.555243      0.580960     -0.630026
  C       3.798701      0.729582      0.922965
  O       4.724531      1.485274      1.258409
  O       3.038877      0.075069      1.658524
  H      -2.926834      1.564939     -0.340160
  H      -2.587003      1.258127      1.264774
  H      -4.160175      1.528336      0.780196
  H      -3.956430     -0.801190      1.145449
  H      -4.120624     -0.502982     -0.580464
  H      -0.967617      0.523328     -0.143495
  H       0.197116     -1.699959     -1.320279
  H       0.503583     -1.745824      0.430566
  H       2.685627     -1.297855     -0.784115
  H       3.330310      1.574809     -1.018108
  H       4.467137      0.207016     -1.092342
24
Coordinates from ORCA-job geo_opt E -43.531072625520
  N      -3.288240      1.095617      0.480656
  C      -3.471873     -0.356687      0.289181
  C      -2.200447     -1.167795      0.041878
  O      -2.259792     -2.391585      0.022562
  N      -1.077448     -0.480853     -0.160875
  C       0.210789     -1.085103     -0.389695
  C       1.215881      0.057958     -0.521883
  O       0.829714      1.218055     -0.386882
  N       2.453024     -0.297240     -0.891252
  C       3.555301      0.596001     -0.629743
  C       3.835002      0.679325      0.918847
  O       4.805827      1.373377      1.264773
  O       3.044742      0.055728      1.650750
  H      -2.944762      1.545345     -0.376805
  H      -2.623664      1.286080      1.241058
  H      -4.191254      1.522811      0.726705
  H      -3.946549     -0.800957      1.165957
  H      -4.129547     -0.541246     -0.562785
  H      -0.974715      0.534108     -0.133677
  H       0.207668     -1.697126     -1.296064
  H       0.502987     -1.719298      0.454251
  H       2.681627     -1.278163     -0.804208
  H       3.311178      1.603566     -0.968229
  H       4.454551      0.248080     -1.134518
24
Coordinates from ORCA-job geo_opt E -43.531152469700
  N      -3.300395      1.093342      0.463926
  C      -3.474121     -0.363528      0.294562
  C      -2.199169     -1.167493      0.044344
  O      -2.251199     -2.391549      0.026726
  N      -1.081170     -0.474482     -0.166311
  C       0.210764     -1.074963     -0.384248
  C       1.213838      0.068637     -0.518049
  O       0.829177      1.228736     -0.381920
  N       2.450506     -0.286797     -0.888976
  C       3.555257      0.603210     -0.626376
  C       3.858046      0.656361      0.917462
  O       4.863537      1.302540      1.258053
  O       3.051077      0.059537      1.653375
  H      -2.957299      1.531848     -0.399362
  H      -2.640633      1.300283      1.224019
  H      -4.206832      1.518749      0.700111
  H      -3.936173     -0.799381      1.182149
  H      -4.139518     -0.564695     -0.547609
  H      -0.981315      0.539572     -0.127191
  H       0.214627     -1.694841     -1.285424
  H       0.500284     -1.703572      0.465093
  H       2.677362     -1.268600     -0.808953
  H       3.297076      1.615730     -0.939463
  H       4.446272      0.271356     -1.155937
24
Coordinates from ORCA-job geo_opt E -43.531200407400
  N      -3.309805      1.091629      0.446720
  C      -3.476098     -0.368553      0.299773
  C      -2.198494     -1.168595      0.048152
  O      -2.246955     -2.392281      0.030774
  N      -1.084369     -0.470568     -0.169517
  C       0.210173     -1.067888     -0.382721
  C       1.211190      0.077379     -0.511898
  O       0.827792      1.236620     -0.368121
  N       2.447242     -0.277890     -0.882990
  C       3.553748      0.609999     -0.622375
  C       3.879000      0.639403      0.917136
  O       4.914760      1.241721      1.246350
  O       3.062820      0.063363      1.658447
  H      -2.965542      1.517033     -0.422783
  H      -2.653606      1.313276      1.205796
  H      -4.218797      1.517054      0.673222
  H      -3.926641     -0.792674      1.198938
  H      -4.148403     -0.586721     -0.532667
  H      -0.986899      0.542469     -0.118274
  H       0.217661     -1.689516     -1.282831
  H       0.499643     -1.695311      0.467762
  H       2.673062     -1.260444     -0.811959
  H       3.280995      1.625727     -0.913164
  H       4.437523      0.294766     -1.173770
24
Coordinates from ORCA-job geo_opt E -43.531211654740
  N      -3.312689      1.091705      0.436920
  C      -3.475956     -0.369983      0.305689
  C      -2.198309     -1.169293      0.049288
  O      -2.245891     -2.392775      0.035383
  N      -1.085628     -0.469754     -0.172589
  C       0.209309     -1.066171     -0.387296
  C       1.209994      0.080210     -0.510254
  O       0.826344      1.238634     -0.360922
  N       2.446354     -0.274409     -0.879491
  C       3.552671      0.613169     -0.618779
  C       3.886255      0.632573      0.919792
  O       4.931620      1.220104      1.244490
  O       3.068341      0.061011      1.662191
  H      -2.972364      1.507884     -0.438733
  H      -2.653814      1.322425      1.191104
  H      -4.221726      1.517615      0.662647
  H      -3.916526     -0.785297      1.214000
  H      -4.155355     -0.599279     -0.517920
  H      -0.989119      0.542996     -0.115706
  H       0.216368     -1.684619     -1.289559
  H       0.499502     -1.696002      0.461218
  H       2.672106     -1.257336     -0.814153
  H       3.273839      1.630251     -0.899631
  H       4.434675      0.306343     -1.177689
24
Coordinates from ORCA-job geo_opt E -43.531216584660
  N      -3.313099      1.092428      0.431425
  C      -3.475115     -0.370002      0.310844
  C      -2.197628     -1.169843      0.053410
  O      -2.246665     -2.393136      0.036903
  N      -1.085813     -0.470359     -0.173450
  C       0.208502     -1.066745     -0.392380
  C       1.209419      0.080380     -0.510413
  O       0.824896      1.238144     -0.357729
  N       2.446272     -0.273300     -0.877673
  C       3.551451      0.615104     -0.616594
  C       3.888746      0.629770      0.922100
  O       4.936688      1.213259      1.245153
  O       3.071120      0.057948      1.664401
  H      -2.972761      1.501732     -0.447561
  H      -2.654201      1.328933      1.183883
  H      -4.222404      1.519334      0.654209
  H      -3.910683     -0.778897      1.224542
  H      -4.158013     -0.606533     -0.507816
  H      -0.989442      0.542348     -0.113981
  H       0.213330     -1.680920     -1.297447
  H       0.499968     -1.699760      0.453319
  H       2.672650     -1.256220     -0.814853
  H       3.269292      1.632810     -0.892043
  H       4.433489      0.313523     -1.178248
24
Coordinates from ORCA-job geo_opt E -43.531221266690
  N      -3.311270      1.093705      0.427202
  C      -3.472882     -0.369525      0.318758
  C      -2.197306     -1.170110      0.053491
  O      -2.247127     -2.393459      0.039263
  N      -1.086102     -0.471416     -0.178601
  C       0.207400     -1.068129     -0.401169
  C       1.209137      0.079386     -0.513610
  O       0.823331      1.236699     -0.359859
  N       2.447187     -0.273290     -0.876901
  C       3.550482      0.616235     -0.613110
  C       3.886207      0.628599      0.926729
  O       4.932328      1.213940      1.251998
  O       3.068575      0.053884      1.666764
  H      -2.975953      1.496022     -0.456958
  H      -2.648259      1.336279      1.174123
  H      -4.219565      1.521682      0.652010
  H      -3.898532     -0.772036      1.239994
  H      -4.163776     -0.613358     -0.490973
  H      -0.989327      0.541291     -0.117031
  H       0.210557     -1.677330     -1.309467
  H       0.498890     -1.705055      0.441524
  H       2.674250     -1.256080     -0.814709
  H       3.267400      1.634331     -0.886009
  H       4.434359      0.317733     -1.173458
24
Coordinates from ORCA-job geo_opt E -43.531226962590
  N      -3.310130      1.095382      0.419695
  C      -3.469445     -0.369412      0.331181
  C      -2.196005     -1.170127      0.056666
  O      -2.246052     -2.393669      0.045056
  N      -1.086457     -0.472209     -0.185013
  C       0.205936     -1.068852     -0.413426
  C       1.208849      0.078974     -0.517777
  O       0.821845      1.235682     -0.361414
  N       2.448345     -0.271950     -0.877176
  C       3.549716      0.617964     -0.607996
  C       3.882945      0.624757      0.932970
  O       4.925801      1.213215      1.262965
  O       3.065566      0.044606      1.669116
  H      -2.981303      1.486800     -0.471769
  H      -2.643009      1.348835      1.159296
  H      -4.217788      1.524307      0.645145
  H      -3.880744     -0.762039      1.263145
  H      -4.171310     -0.625193     -0.465311
  H      -0.989264      0.540508     -0.121584
  H       0.207189     -1.670088     -1.326926
  H       0.497010     -1.712711      0.424022
  H       2.675901     -1.254780     -0.817610
  H       3.266771      1.637181     -0.876406
  H       4.435632      0.322819     -1.166849
24
Coordinates from ORCA-job geo_opt E -43.531236506010
  N      -3.310536      1.097528      0.403291
  C      -3.462501     -0.370032      0.355867
  C      -2.192503     -1.169775      0.064548
  O      -2.241160     -2.393661      0.059273
  N      -1.087645     -0.472130     -0.198026
  C       0.203322     -1.067667     -0.436273
  C       1.208104      0.080459     -0.524555
  O       0.819925      1.236030     -0.361651
  N       2.449779     -0.267403     -0.878484
  C       3.548925      0.621262     -0.597788
  C       3.878117      0.614323      0.944437
  O       4.917410      1.203957      1.283476
  O       3.060059      0.025366      1.672960
  H      -2.993650      1.466657     -0.501890
  H      -2.637409      1.374371      1.128876
  H      -4.218096      1.527220      0.627492
  H      -3.844729     -0.742095      1.308427
  H      -4.184981     -0.650379     -0.413466
  H      -0.989622      0.540444     -0.130585
  H       0.202951     -1.653624     -1.359632
  H       0.492723     -1.725351      0.390743
  H       2.677385     -1.250543     -0.825057
  H       3.266754      1.643078     -0.856360
  H       4.437378      0.331963     -1.155623
24
Coordinates from ORCA-job geo_opt E -43.531258165680
  N      -3.319316      1.098959      0.358396
  C      -3.443099     -0.371062      0.417260
  C      -2.180825     -1.167048      0.087589
  O      -2.222532     -2.391484      0.101012
  N      -1.091307     -0.468002     -0.229627
  C       0.196842     -1.059396     -0.491402
  C       1.206149      0.088000     -0.537762
  O       0.817411      1.240440     -0.353769
  N       2.451914     -0.253531     -0.881764
  C       3.548329      0.628106     -0.571917
  C       3.869747      0.582625      0.971607
  O       4.904440      1.167887      1.331791
  O       3.049148     -0.026027      1.681051
  H      -3.035147      1.409517     -0.579054
  H      -2.633137      1.438298      1.044023
  H      -4.228764      1.526421      0.579066
  H      -3.750329     -0.686451      1.416407
  H      -4.211186     -0.714302     -0.278940
  H      -0.991231      0.543793     -0.150382
  H       0.194249     -1.606153     -1.438631
  H       0.481208     -1.752025      0.307921
  H       2.677886     -1.237878     -0.848344
  H       3.268745      1.656705     -0.804240
  H       4.440806      0.352608     -1.130290
24
Coordinates from ORCA-job geo_opt E -43.531263638290
  N      -3.344239      1.093357      0.302571
  C      -3.417155     -0.369919      0.486973
  C      -2.161979     -1.158712      0.118056
  O      -2.189613     -2.383189      0.157021
  N      -1.095788     -0.455743     -0.264716
  C       0.189888     -1.041316     -0.551069
  C       1.205319      0.101805     -0.548624
  O       0.819488      1.250360     -0.335850
  N       2.453785     -0.234966     -0.886534
  C       3.550772      0.632696     -0.542164
  C       3.865215      0.536574      1.000025
  O       4.899041      1.108364      1.383982
  O       3.040169     -0.092267      1.686557
  H      -3.101809      1.332029     -0.666826
  H      -2.648751      1.511097      0.933209
  H      -4.259772      1.509482      0.519418
  H      -3.634932     -0.611879      1.529160
  H      -4.226551     -0.787204     -0.115531
  H      -0.992843      0.554803     -0.170741
  H       0.186651     -1.542557     -1.523421
  H       0.466534     -1.773167      0.214890
  H       2.675201     -1.220849     -0.880451
  H       3.276124      1.669414     -0.741520
  H       4.445244      0.371788     -1.104414
24
Coordinates from ORCA-job geo_opt E -43.531297342210
  N      -3.336332      1.094067      0.319745
  C      -3.428631     -0.373122      0.460893
  C      -2.168301     -1.162519      0.111009
  O      -2.197202     -2.386763      0.143752
  N      -1.095995     -0.457558     -0.251764
  C       0.192559     -1.043574     -0.525609
  C       1.205413      0.100521     -0.538635
  O       0.821449      1.250120     -0.329853
  N       2.451207     -0.237671     -0.887077
  C       3.551872      0.630705     -0.553671
  C       3.867931      0.550508      0.987764
  O       4.902929      1.125522      1.364024
  O       3.045278     -0.073162      1.681752
  H      -3.080753      1.357481     -0.639820
  H      -2.642071      1.485421      0.968360
  H      -4.249152      1.515394      0.538373
  H      -3.681450     -0.641765      1.488382
  H      -4.221879     -0.764401     -0.179252
  H      -0.994991      0.553271     -0.161078
  H       0.194079     -1.561121     -1.489566
  H       0.469405     -1.763199      0.252025
  H       2.672573     -1.223557     -0.876045
  H       3.278908      1.665250     -0.767138
  H       4.443154      0.360153     -1.116571
24
Coordinates from ORCA-job geo_opt E -43.531316134260
  N      -3.337362      1.092433      0.318163
  C      -3.430230     -0.374676      0.458129
  C      -2.166613     -1.162910      0.115139
  O      -2.191598     -2.386519      0.152750
  N      -1.097454     -0.454956     -0.253359
  C       0.193156     -1.040204     -0.521288
  C       1.205123      0.103556     -0.532602
  O       0.823343      1.252225     -0.316241
  N       2.448947     -0.234048     -0.890084
  C       3.552520      0.631036     -0.555359
  C       3.868216      0.547270      0.985060
  O       4.906916      1.115758      1.361052
  O       3.044098     -0.075466      1.677918
  H      -3.080992      1.354842     -0.641685
  H      -2.642516      1.484016      0.966188
  H      -4.250215      1.514313      0.535885
  H      -3.688570     -0.643228      1.484278
  H      -4.219341     -0.765207     -0.187463
  H      -0.996000      0.555186     -0.158628
  H       0.199459     -1.559895     -1.484214
  H       0.467756     -1.758794      0.258284
  H       2.669625     -1.220195     -0.881191
  H       3.280040      1.665806     -0.769436
  H       4.441692      0.359656     -1.121296
24
Coordinates from ORCA-job geo_opt E -43.531327897250
  N      -3.340849      1.090331      0.308556
  C      -3.423884     -0.374718      0.472140
  C      -2.160082     -1.161121      0.123615
  O      -2.178720     -2.383992      0.172892
  N      -1.099734     -0.450681     -0.267463
  C       0.191784     -1.035089     -0.535190
  C       1.205039      0.107083     -0.533898
  O       0.825246      1.254105     -0.306185
  N       2.448630     -0.229475     -0.894187
  C       3.553407      0.630795     -0.549592
  C       3.860789      0.538378      0.991642
  O       4.899175      1.102201      1.375412
  O       3.032525     -0.087347      1.676703
  H      -3.096931      1.337232     -0.658790
  H      -2.640098      1.496525      0.941019
  H      -4.253291      1.511110      0.530219
  H      -3.666668     -0.628309      1.505913
  H      -4.219147     -0.779185     -0.157045
  H      -0.996863      0.558619     -0.165653
  H       0.201317     -1.547398     -1.502063
  H       0.462436     -1.760213      0.239796
  H       2.667913     -1.216030     -0.892796
  H       3.283930      1.666985     -0.761435
  H       4.444075      0.360192     -1.113609
24
Coordinates from ORCA-job geo_opt E -43.531339950950
  N      -3.341793      1.088769      0.299769
  C      -3.413308     -0.373291      0.491095
  C      -2.150460     -1.158468      0.134637
  O      -2.161357     -2.380248      0.201887
  N      -1.101761     -0.447260     -0.287801
  C       0.190162     -1.031244     -0.556703
  C       1.205194      0.109235     -0.540599
  O       0.826181      1.254272     -0.301871
  N       2.449289     -0.225363     -0.901519
  C       3.553106      0.630298     -0.541910
  C       3.844134      0.529217      1.002088
  O       4.878017      1.091386      1.400028
  O       3.009173     -0.101398      1.674368
  H      -3.114691      1.317431     -0.676254
  H      -2.632737      1.511025      0.912081
  H      -4.252708      1.508981      0.528727
  H      -3.636781     -0.609281      1.533378
  H      -4.216382     -0.793863     -0.117231
  H      -0.996844      0.561468     -0.180793
  H       0.201934     -1.534702     -1.528045
  H       0.456791     -1.763430      0.213111
  H       2.667732     -1.212104     -0.907747
  H       3.288501      1.668138     -0.752141
  H       4.448605      0.360433     -1.098554
24
Coordinates from ORCA-job geo_opt E -43.531368138130
  N      -3.344516      1.085493      0.282545
  C      -3.393212     -0.369594      0.525544
  C      -2.132882     -1.152615      0.155250
  O      -2.129945     -2.372081      0.254255
  N      -1.105128     -0.442558     -0.320453
  C       0.186893     -1.024870     -0.594950
  C       1.204934      0.112803     -0.553577
  O       0.825940      1.254438     -0.298512
  N       2.450642     -0.217645     -0.913331
  C       3.551554      0.630302     -0.527432
  C       3.816867      0.510631      1.020373
  O       4.843002      1.068916      1.442874
  O       2.970781     -0.128356      1.670546
  H      -3.144883      1.280887     -0.706700
  H      -2.624658      1.537046      0.860261
  H      -4.253667      1.504013      0.521165
  H      -3.581340     -0.572571      1.581670
  H      -4.209496     -0.819650     -0.042772
  H      -0.997369      0.565913     -0.209650
  H       0.200529     -1.510861     -1.574869
  H       0.448078     -1.770426      0.163875
  H       2.668013     -1.204433     -0.933891
  H       3.294669      1.671566     -0.730012
  H       4.455195      0.363651     -1.072209
24
Coordinates from ORCA-job geo_opt E -43.531399591080
  N      -3.352909      1.080158      0.260833
  C      -3.378397     -0.366283      0.553137
  C      -2.119584     -1.146713      0.173282
  O      -2.105113     -2.364061      0.294551
  N      -1.107468     -0.437378     -0.337585
  C       0.184382     -1.016667     -0.620262
  C       1.204124      0.118913     -0.560029
  O       0.825413      1.257436     -0.290709
  N       2.450630     -0.207684     -0.920589
  C       3.550690      0.632044     -0.515171
  C       3.805730      0.487922      1.032440
  O       4.829587      1.038241      1.470615
  O       2.954197     -0.159464      1.667046
  H      -3.175497      1.244142     -0.738349
  H      -2.627317      1.559509      0.808123
  H      -4.262172      1.495489      0.504269
  H      -3.535593     -0.536386      1.620165
  H      -4.204365     -0.843718      0.022360
  H      -0.999041      0.571250     -0.226135
  H       0.197866     -1.486643     -1.607932
  H       0.443199     -1.774486      0.127054
  H       2.666510     -1.194326     -0.956444
  H       3.297725      1.677017     -0.702859
  H       4.457403      0.371687     -1.057813
24
Coordinates from ORCA-job geo_opt E -43.531431977580
  N      -3.363456      1.073754      0.240238
  C      -3.362980     -0.362446      0.580248
  C      -2.106558     -1.140162      0.187915
  O      -2.081073     -2.355349      0.327077
  N      -1.110115     -0.431332     -0.355208
  C       0.181513     -1.007683     -0.645916
  C       1.203648      0.124694     -0.565857
  O       0.825966      1.260502     -0.283690
  N       2.451118     -0.199623     -0.925089
  C       3.550852      0.631823     -0.502475
  C       3.795828      0.467609      1.044858
  O       4.817960      1.010241      1.496493
  O       2.938807     -0.185660      1.665987
  H      -3.212018      1.206644     -0.767872
  H      -2.631325      1.579834      0.753647
  H      -4.272045      1.485439      0.492466
  H      -3.486787     -0.499355      1.656449
  H      -4.198245     -0.866344      0.090027
  H      -1.000894      0.577145     -0.241296
  H       0.195074     -1.460598     -1.641515
  H       0.437117     -1.778479      0.089040
  H       2.664813     -1.186085     -0.974988
  H       3.302427      1.679933     -0.678251
  H       4.460374      0.375497     -1.042288
24
Coordinates from ORCA-job geo_opt E -43.531444425010
  N      -3.379954      1.064546      0.212979
  C      -3.351006     -0.358089      0.605246
  C      -2.095206     -1.132737      0.206911
  O      -2.059766     -2.345875      0.361694
  N      -1.111320     -0.424544     -0.361275
  C       0.179441     -0.996170     -0.664989
  C       1.203449      0.133239     -0.567622
  O       0.826190      1.266098     -0.272773
  N       2.451336     -0.187850     -0.928193
  C       3.551926      0.634093     -0.490790
  C       3.798137      0.439620      1.053076
  O       4.824483      0.966867      1.513315
  O       2.937138     -0.218692      1.663427
  H      -3.248591      1.163549     -0.801486
  H      -2.647130      1.599782      0.694689
  H      -4.290646      1.470250      0.467116
  H      -3.445142     -0.457239      1.688645
  H      -4.192147     -0.890047      0.156210
  H      -1.004225      0.584747     -0.249431
  H       0.189946     -1.429809     -1.669203
  H       0.434894     -1.780698      0.055133
  H       2.662600     -1.173960     -0.992810
  H       3.304554      1.685828     -0.644314
  H       4.461038      0.387090     -1.035556
24
Coordinates from ORCA-job geo_opt E -43.531449915490
  N      -3.374475      1.067562      0.222111
  C      -3.353993     -0.359594      0.598689
  C      -2.098905     -1.135566      0.200256
  O      -2.067450     -2.349644      0.347989
  N      -1.112021     -0.427262     -0.361896
  C       0.179294     -0.999771     -0.661428
  C       1.203180      0.130119     -0.567466
  O       0.825728      1.264557     -0.279066
  N       2.451502     -0.192941     -0.924897
  C       3.551571      0.633066     -0.493728
  C       3.798639      0.449841      1.051428
  O       4.826517      0.978402      1.506688
  O       2.936790     -0.202195      1.667308
  H      -3.234903      1.177369     -0.790241
  H      -2.643329      1.594729      0.715451
  H      -4.285512      1.474059      0.473622
  H      -3.455712     -0.469999      1.680219
  H      -4.194403     -0.883059      0.138553
  H      -1.004433      0.581579     -0.248149
  H       0.191280     -1.437330     -1.663906
  H       0.434068     -1.781346      0.062192
  H       2.663432     -1.179438     -0.981705
  H       3.302522      1.683345     -0.654585
  H       4.460611      0.383517     -1.037441
24
Coordinates from ORCA-job geo_opt E -43.531451750470
  N      -3.373961      1.067307      0.222242
  C      -3.352171     -0.359329      0.601064
  C      -2.097406     -1.135355      0.201745
  O      -2.064695     -2.349060      0.351799
  N      -1.112745     -0.427482     -0.365131
  C       0.178729     -0.999435     -0.665146
  C       1.202749      0.130047     -0.568782
  O       0.825169      1.264516     -0.280690
  N       2.451550     -0.193270     -0.924634
  C       3.551292      0.632719     -0.492542
  C       3.796819      0.449703      1.052893
  O       4.825361      0.976428      1.508739
  O       2.933220     -0.200461      1.668249
  H      -3.233166      1.175731     -0.790096
  H      -2.644220      1.596392      0.715661
  H      -4.285894      1.472928      0.471829
  H      -3.452274     -0.467975      1.682900
  H      -4.193149     -0.883846      0.143162
  H      -1.005508      0.581458     -0.251955
  H       0.191244     -1.434314     -1.668821
  H       0.432766     -1.782793      0.056767
  H       2.663385     -1.179921     -0.979972
  H       3.302185      1.682946     -0.653723
  H       4.460721      0.383066     -1.035556
24
Coordinates from ORCA-job geo_opt E -43.531454435360
  N      -3.370756      1.067247      0.224882
  C      -3.349443     -0.359394      0.604564
  C      -2.094919     -1.135907      0.206458
  O      -2.059262     -2.348496      0.364067
  N      -1.113650     -0.429682     -0.369432
  C       0.177831     -0.999375     -0.673231
  C       1.201495      0.129802     -0.573544
  O       0.822737      1.265005     -0.289966
  N       2.451987     -0.194762     -0.922930
  C       3.550824      0.631816     -0.489924
  C       3.793569      0.451209      1.056273
  O       4.824123      0.973853      1.512217
  O       2.925959     -0.193255      1.671884
  H      -3.224545      1.176278     -0.786517
  H      -2.644867      1.597879      0.722451
  H      -4.284972      1.470974      0.468990
  H      -3.451198     -0.467190      1.686333
  H      -4.190768     -0.883445      0.146500
  H      -1.011365      0.580680     -0.264611
  H       0.189921     -1.426941     -1.680246
  H       0.431460     -1.787275      0.043574
  H       2.663295     -1.181827     -0.974011
  H       3.301521      1.681766     -0.652646
  H       4.461022      0.381044     -1.031133
24
Coordinates from ORCA-job geo_opt E -43.531456168060
  N      -3.366726      1.066358      0.227580
  C      -3.337762     -0.357434      0.617055
  C      -2.084346     -1.133075      0.213210
  O      -2.039316     -2.342724      0.387902
  N      -1.116982     -0.429746     -0.390126
  C       0.175529     -0.998107     -0.693152
  C       1.199809      0.129605     -0.583282
  O       0.820926      1.264575     -0.299207
  N       2.452070     -0.195838     -0.926127
  C       3.548702      0.628834     -0.483252
  C       3.774758      0.450241      1.065657
  O       4.801150      0.972214      1.531615
  O       2.899999     -0.192552      1.672755
  H      -3.224887      1.167367     -0.785355
  H      -2.640956      1.604308      0.717345
  H      -4.281446      1.468620      0.472266
  H      -3.429827     -0.457887      1.700362
  H      -4.181344     -0.887080      0.169690
  H      -1.014796      0.580816     -0.288128
  H       0.191132     -1.418049     -1.703375
  H       0.424882     -1.791277      0.019179
  H       2.662706     -1.183122     -0.976038
  H       3.303300      1.678950     -0.651244
  H       4.463423      0.375001     -1.015330
24
Coordinates from ORCA-job geo_opt E -43.531458977780
  N      -3.366661      1.067192      0.228833
  C      -3.340598     -0.357935      0.613230
  C      -2.086620     -1.133628      0.211378
  O      -2.043400     -2.343753      0.384077
  N      -1.115960     -0.430230     -0.386097
  C       0.176328     -0.999165     -0.688606
  C       1.200393      0.129312     -0.582398
  O       0.821274      1.264602     -0.299886
  N       2.452351     -0.196055     -0.925866
  C       3.549039      0.629349     -0.484731
  C       3.777367      0.451418      1.063952
  O       4.803376      0.975435      1.528506
  O       2.904540     -0.192704      1.672464
  H      -3.226299      1.171769     -0.783949
  H      -2.638703      1.601132      0.719741
  H      -4.279992      1.470801      0.476549
  H      -3.436492     -0.462424      1.695833
  H      -4.183060     -0.885082      0.160849
  H      -1.014484      0.580558     -0.286050
  H       0.191021     -1.422805     -1.697237
  H       0.426726     -1.789830      0.026173
  H       2.663246     -1.183177     -0.976663
  H       3.303175      1.679346     -0.652573
  H       4.463429      0.375874     -1.017529
24
Coordinates from ORCA-job geo_opt E -43.531462446630
  N      -3.362262      1.068772      0.234528
  C      -3.338347     -0.357632      0.613720
  C      -2.084081     -1.133272      0.212985
  O      -2.038228     -2.342125      0.394489
  N      -1.116258     -0.432688     -0.392273
  C       0.176325     -1.001232     -0.693994
  C       1.199988      0.128031     -0.588329
  O       0.819523      1.264044     -0.310615
  N       2.453102     -0.197830     -0.926678
  C       3.547824      0.628644     -0.482864
  C       3.769793      0.454171      1.067204
  O       4.793099      0.980623      1.534998
  O       2.895229     -0.189667      1.673538
  H      -3.226796      1.176795     -0.778545
  H      -2.630241      1.598334      0.724210
  H      -4.273218      1.474058      0.488239
  H      -3.437166     -0.466513      1.695607
  H      -4.179930     -0.882314      0.156790
  H      -1.017923      0.579223     -0.301841
  H       0.191368     -1.426197     -1.702013
  H       0.426292     -1.790844      0.022023
  H       2.664306     -1.184869     -0.976423
  H       3.302909      1.678314     -0.653900
  H       4.464693      0.374173     -1.010858
24
Coordinates from ORCA-job geo_opt E -43.531464648040
  N      -3.354415      1.071158      0.243440
  C      -3.332354     -0.356646      0.617139
  C      -2.078403     -1.132511      0.216150
  O      -2.027218     -2.338826      0.413061
  N      -1.117923     -0.437076     -0.406524
  C       0.175546     -1.004464     -0.706519
  C       1.198546      0.125512     -0.598303
  O       0.815896      1.262427     -0.327433
  N       2.453899     -0.201036     -0.927461
  C       3.545111      0.627302     -0.478617
  C       3.755516      0.458736      1.073772
  O       4.775194      0.987217      1.547201
  O       2.876473     -0.182732      1.676134
  H      -3.226196      1.182825     -0.770162
  H      -2.617064      1.595899      0.730398
  H      -4.262218      1.478406      0.505192
  H      -3.432772     -0.470205      1.698348
  H      -4.173693     -0.878638      0.156601
  H      -1.023630      0.576251     -0.330018
  H       0.192661     -1.428639     -1.714818
  H       0.423665     -1.794386      0.009681
  H       2.665738     -1.188075     -0.973512
  H       3.301500      1.676331     -0.655284
  H       4.466139      0.371170     -0.998467
24
Coordinates from ORCA-job geo_opt E -43.531465321920
  N      -3.354718      1.071198      0.242949
  C      -3.332307     -0.356538      0.617199
  C      -2.078546     -1.132505      0.215809
  O      -2.027484     -2.338839      0.412792
  N      -1.118417     -0.437373     -0.407565
  C       0.175324     -1.004563     -0.706853
  C       1.198271      0.125338     -0.597708
  O       0.815545      1.262225     -0.326760
  N       2.453750     -0.201106     -0.926514
  C       3.544896      0.627588     -0.478236
  C       3.756741      0.458600      1.073876
  O       4.777404      0.986011      1.546386
  O       2.877645     -0.182055      1.677040
  H      -3.228439      1.182665     -0.770924
  H      -2.616392      1.595799      0.728571
  H      -4.261945      1.478739      0.506244
  H      -3.431811     -0.469705      1.698527
  H      -4.173961     -0.878848      0.157621
  H      -1.023679      0.575917     -0.331043
  H       0.193200     -1.428345     -1.715313
  H       0.423034     -1.794805      0.009161
  H       2.665786     -1.188144     -0.972064
  H       3.300490      1.676564     -0.654193
  H       4.465615      0.372180     -0.999001
