24
zwitterion conformer 2
N      -3.50766005     1.01754072     0.54892616
C      -3.53814803    -0.37901016     0.24365647
C      -2.22974913    -0.97535181    -0.07503787
O      -2.20607042    -2.20880964    -0.35184923
N      -1.00508580    -0.25102400    -0.08902813
C       0.20651650    -0.97575266    -0.42238608
C       1.37237034    -0.05857167    -0.38526157
O       1.13985037     1.14350719    -0.08566010
N       2.66908724    -0.55622647    -0.68041420
C       3.77623978     0.37505507    -0.63179656
C       3.84705042     0.92642363     0.75311309
O       4.76701962     1.77541966     1.00397136
O       2.95545257     0.54657259     1.75463542
H      -3.53073518     1.61745241    -0.30929233
H      -2.70434111     1.25538816     1.17832777
H      -4.36267591     1.24703186     1.13837481
H      -3.97345772    -0.96955893     1.07579271
H      -4.26754853    -0.52235946    -0.60003518
H      -1.01464493     0.74956938     0.13415383
H       0.10720301    -1.45820073    -1.42972295
H       0.28795694    -1.80455385     0.30839493
H       2.79405010    -1.57243577    -0.92349520
H       3.67918773     1.23756879    -1.29959310
H       4.73813220    -0.15967433    -0.85577405
