27
Coordinates from ORCA-job geo_opt E -686.668382446013
  N          -2.71790303272306     -0.34802649376528     -0.75309327237020
  C          -2.45855610991193      0.30160933759516      0.57919848236922
  C          -1.38472112447935     -0.46412425672298      1.38586911845849
  C          -0.16070959251290     -0.86002806922899      0.60901834801795
  C           0.08940772906981     -2.12930250012673      0.11088050260532
  N           1.30200868762251     -2.15303252462761     -0.54358798966791
  C           1.87632130596656     -0.90073908733302     -0.48518420215551
  C           3.10069903699044     -0.44320632497192     -0.99074911835493
  C           3.43222118035235      0.89129261535798     -0.76279382670033
  C           2.56517114464322      1.74842594456497     -0.04714582330312
  C           1.34699198244511      1.29178608341202      0.45170592626863
  C           0.97822964055763     -0.05187400518386      0.23562185366686
  C          -2.13598092052202      1.80197086688019      0.28142642049157
  O          -1.86931116232282      2.52428170555450      1.27360891425751
  O          -2.21484054968514      2.14833244575053     -0.94106056941530
  H          -2.69807035119898      0.47396061803762     -1.41447995779916
  H          -1.95421978201295     -0.99706954363706     -1.00387354195031
  H          -3.61289074530710     -0.84566296357499     -0.80481962196546
  H          -3.40249613227850      0.28347712677489      1.13925707730402
  H          -1.12238651856848      0.17880728210192      2.23873658747974
  H          -1.85009523989501     -1.37033467124052      1.80101626111384
  H          -0.50829172523498     -3.03341455995775      0.19524052972362
  H           1.71106673126715     -2.97038984929864     -0.98463829826232
  H           3.76860113266854     -1.10986845958646     -1.53903672302646
  H           4.37843693570728      1.28036116241817     -1.14294723416975
  H           2.85800039258957      2.78750014418809      0.11470893957847
  H           0.68331704677306      1.96526797661980      0.99712125780554
