27
Coordinates from ORCA-job geo_opt E -686.661898234683
  N      -2.647963     -0.426155     -0.715180
  C      -2.430220      0.264219      0.570049
  C      -1.368734     -0.434383      1.430857
  C      -0.177468     -0.851392      0.631560
  C       0.030008     -2.082704      0.066237
  N       1.213616     -2.098271     -0.615900
  C       1.801059     -0.872316     -0.506018
  C       3.003371     -0.399629     -1.019018
  C       3.343532      0.905936     -0.742214
  C       2.512329      1.728586      0.025345
  C       1.320193      1.269013      0.536982
  C       0.948730     -0.048948      0.271478
  C      -2.009901      1.742555      0.187572
  O      -1.747737      2.522799      1.105286
  O      -2.026653      1.958983     -1.045124
  H      -2.501794      0.392638     -1.390435
  H      -1.903572     -1.120649     -0.868401
  H      -3.571852     -0.844297     -0.825081
  H      -3.357195      0.352651      1.138129
  H      -1.069749      0.272101      2.207142
  H      -1.809601     -1.310616      1.909335
  H      -0.568932     -2.970555      0.137219
  H       1.607281     -2.894554     -1.087738
  H       3.647552     -1.030981     -1.611601
  H       4.269765      1.310131     -1.123278
  H       2.815579      2.748209      0.216536
  H       0.678355      1.917631      1.116263
27
Coordinates from ORCA-job geo_opt E -686.667345266347
  N      -2.741642     -0.416030     -0.721880
  C      -2.480628      0.264907      0.575660
  C      -1.363276     -0.419891      1.404720
  C      -0.155232     -0.838006      0.609471
  C       0.061025     -2.090583      0.064884
  N       1.258943     -2.114485     -0.614042
  C       1.861099     -0.882831     -0.510452
  C       3.085220     -0.426298     -1.014521
  C       3.445549      0.886217     -0.735503
  C       2.609930      1.728307      0.027580
  C       1.392544      1.280174      0.525375
  C       0.996785     -0.042837      0.256145
  C      -2.162726      1.770921      0.202564
  O      -1.932090      2.556734      1.143109
  O      -2.220078      2.019671     -1.040798
  H      -2.671025      0.420445     -1.389582
  H      -1.982833     -1.083854     -0.940022
  H      -3.655424     -0.874663     -0.787933
  H      -3.402133      0.290186      1.169629
  H      -1.071926      0.293840      2.186446
  H      -1.786199     -1.302947      1.904527
  H      -0.547199     -2.988024      0.141807
  H       1.655447     -2.925854     -1.077391
  H       3.734739     -1.078470     -1.600154
  H       4.393153      1.276851     -1.109309
  H       2.929050      2.752929      0.226306
  H       0.748926      1.943589      1.103363
27
Coordinates from ORCA-job geo_opt E -686.667920279818
  N      -2.741807     -0.405468     -0.723423
  C      -2.479204      0.274199      0.583221
  C      -1.367143     -0.427014      1.401905
  C      -0.157796     -0.840870      0.607386
  C       0.059106     -2.096648      0.060671
  N       1.268551     -2.123352     -0.603202
  C       1.869672     -0.886247     -0.506241
  C       3.100484     -0.433163     -1.003942
  C       3.456682      0.887489     -0.735783
  C       2.607944      1.738832      0.009839
  C       1.383045      1.289525      0.500090
  C       0.992129     -0.041413      0.244943
  C      -2.175114      1.777397      0.222203
  O      -1.901917      2.547635      1.171377
  O      -2.245864      2.049341     -1.022315
  H      -2.674038      0.426145     -1.392471
  H      -1.990176     -1.078071     -0.948232
  H      -3.654514     -0.867612     -0.785838
  H      -3.406501      0.276084      1.170548
  H      -1.082017      0.274744      2.199007
  H      -1.799230     -1.314833      1.888180
  H      -0.551667     -2.994799      0.131206
  H       1.668610     -2.938117     -1.058629
  H       3.756567     -1.092771     -1.576750
  H       4.408840      1.274439     -1.105946
  H       2.922520      2.767364      0.202354
  H       0.732836      1.957184      1.069845
27
Coordinates from ORCA-job geo_opt E -686.665982523507
  N      -2.723751     -0.381315     -0.735160
  C      -2.462504      0.294029      0.586263
  C      -1.365301     -0.434511      1.394224
  C      -0.153366     -0.846029      0.606465
  C       0.068909     -2.109993      0.071559
  N       1.285134     -2.139683     -0.583887
  C       1.884624     -0.896599     -0.500153
  C       3.120712     -0.449949     -0.995175
  C       3.474302      0.878997     -0.742065
  C       2.615147      1.741296     -0.014007
  C       1.384612      1.291868      0.473254
  C       0.996400     -0.046415      0.236432
  C      -2.169592      1.789656      0.246670
  O      -1.979441      2.557596      1.225307
  O      -2.395091      2.120030     -0.971765
  H      -2.670067      0.443562     -1.403511
  H      -1.978243     -1.055170     -0.971309
  H      -3.631274     -0.854686     -0.791489
  H      -3.401927      0.264144      1.154895
  H      -1.090570      0.246855      2.214262
  H      -1.815663     -1.326583      1.857080
  H      -0.542478     -3.008436      0.139938
  H       1.686104     -2.958581     -1.030646
  H       3.780191     -1.118788     -1.554263
  H       4.429430      1.259498     -1.112662
  H       2.924652      2.773657      0.167326
  H       0.729050      1.965551      1.032422
27
Coordinates from ORCA-job geo_opt E -686.668227674182
  N      -2.727609     -0.383844     -0.737393
  C      -2.467935      0.288370      0.582907
  C      -1.370956     -0.436554      1.395917
  C      -0.157667     -0.846642      0.610339
  C       0.071632     -2.110288      0.084085
  N       1.278725     -2.134111     -0.583810
  C       1.872766     -0.891186     -0.500992
  C       3.101938     -0.439222     -1.002719
  C       3.452741      0.886916     -0.746846
  C       2.599150      1.741840     -0.008890
  C       1.376224      1.289035      0.486078
  C       0.990056     -0.046466      0.244605
  C      -2.168810      1.785550      0.246009
  O      -1.926555      2.547986      1.213671
  O      -2.247036      2.090254     -0.993078
  H      -2.687539      0.445213     -1.401407
  H      -1.974135     -1.048119     -0.977178
  H      -3.631211     -0.864255     -0.792150
  H      -3.405648      0.266553      1.153131
  H      -1.096300      0.246239      2.213313
  H      -1.818602     -1.328280      1.859500
  H      -0.533815     -3.010514      0.158751
  H       1.679560     -2.950145     -1.034688
  H       3.758816     -1.102529     -1.568635
  H       4.402597      1.271927     -1.122595
  H       2.906664      2.773480      0.172756
  H       0.722948      1.958795      1.049320
27
Coordinates from ORCA-job geo_opt E -686.668292853457
  N      -2.727952     -0.377561     -0.739684
  C      -2.465453      0.290741      0.581618
  C      -1.372936     -0.442960      1.394320
  C      -0.158108     -0.850189      0.609792
  C       0.074950     -2.113285      0.086714
  N       1.283850     -2.137055     -0.575810
  C       1.872403     -0.892324     -0.497342
  C       3.099785     -0.438104     -0.999051
  C       3.444744      0.889333     -0.748839
  C       2.588202      1.743208     -0.015614
  C       1.367318      1.289091      0.479549
  C       0.986073     -0.047553      0.242325
  C      -2.156900      1.787312      0.250364
  O      -1.894879      2.539692      1.219452
  O      -2.236951      2.098637     -0.984658
  H      -2.683497      0.449574     -1.403786
  H      -1.976608     -1.044908     -0.978535
  H      -3.633874     -0.854234     -0.794149
  H      -3.403469      0.273455      1.151272
  H      -1.099202      0.232288      2.218087
  H      -1.824138     -1.337222      1.848927
  H      -0.528514     -3.014519      0.162280
  H       1.687808     -2.953532     -1.023393
  H       3.759849     -1.101195     -1.561051
  H       4.393694      1.276055     -1.124672
  H       2.892047      2.776409      0.162563
  H       0.711759      1.958847      1.039324
27
Coordinates from ORCA-job geo_opt E -686.668346423171
  N      -2.715991     -0.359763     -0.749679
  C      -2.459929      0.296630      0.580260
  C      -1.378405     -0.454395      1.391827
  C      -0.159570     -0.857264      0.611927
  C       0.082518     -2.123143      0.101660
  N       1.292158     -2.146102     -0.557893
  C       1.872044     -0.897163     -0.490753
  C       3.096326     -0.440295     -0.995979
  C       3.432537      0.890978     -0.758518
  C       2.570910      1.745543     -0.033843
  C       1.353263      1.289092      0.464973
  C       0.979887     -0.051249      0.239700
  C      -2.144217      1.794391      0.269763
  O      -1.883086      2.530997      1.251231
  O      -2.213495      2.124121     -0.959153
  H      -2.678638      0.467596     -1.408743
  H      -1.960117     -1.020559     -0.992425
  H      -3.617967     -0.843787     -0.807118
  H      -3.403328      0.274662      1.140849
  H      -1.110043      0.205528      2.229591
  H      -1.838715     -1.353142      1.827737
  H      -0.516648     -3.026541      0.182139
  H       1.699708     -2.963566     -1.000221
  H       3.760375     -1.104673     -1.551346
  H       4.379133      1.279487     -1.138051
  H       2.867859      2.782248      0.134645
  H       0.693431      1.960368      1.017418
27
Coordinates from ORCA-job geo_opt E -686.668370080307
  N      -2.708760     -0.341240     -0.759185
  C      -2.455834      0.302017      0.578743
  C      -1.384383     -0.466489      1.387652
  C      -0.160649     -0.864693      0.612789
  C       0.091541     -2.134082      0.116895
  N       1.302803     -2.156103     -0.539272
  C       1.874101     -0.902629     -0.483873
  C       3.096033     -0.442976     -0.992200
  C       3.423725      0.892509     -0.767506
  C       2.555962      1.748321     -0.052260
  C       1.340529      1.289482      0.449469
  C       0.975176     -0.055105      0.236503
  C      -2.132492      1.801915      0.288589
  O      -1.869145      2.521602      1.282801
  O      -2.202788      2.152415     -0.933191
  H      -2.678435      0.486505     -1.413714
  H      -1.948830     -0.995327     -1.007602
  H      -3.607134     -0.831795     -0.818839
  H      -3.403140      0.277582      1.132675
  H      -1.121607      0.177569      2.239524
  H      -1.852862     -1.370159      1.804283
  H      -0.503216     -3.039790      0.203140
  H       1.714408     -2.974466     -0.976001
  H       3.764686     -1.108814     -1.540263
  H       4.368316      1.282900     -1.150122
  H       2.846033      2.788519      0.106661
  H       0.675961      1.962332      0.994304
27
Coordinates from ORCA-job geo_opt E -686.668378823147
  N      -2.716684     -0.346017     -0.754648
  C      -2.457405      0.302139      0.579247
  C      -1.384033     -0.465118      1.386227
  C      -0.160496     -0.861922      0.609691
  C       0.090553     -2.131017      0.112120
  N       1.302707     -2.153828     -0.542837
  C       1.875902     -0.901140     -0.484976
  C       3.099486     -0.442616     -0.991073
  C       3.429460      0.892121     -0.763721
  C       2.561954      1.748451     -0.048259
  C       1.344630      1.290903      0.450991
  C       0.977117     -0.052983      0.235398
  C      -2.133719      1.801585      0.282731
  O      -1.868194      2.524328      1.274600
  O      -2.210063      2.148325     -0.939782
  H      -2.690840      0.478103     -1.413827
  H      -1.956905     -0.999973     -1.003985
  H      -3.614603     -0.838052     -0.807921
  H      -3.402197      0.281813      1.137673
  H      -1.121010      0.178192      2.238643
  H      -1.850782     -1.370130      1.802091
  H      -0.505806     -3.035902      0.196657
  H       1.713212     -2.971799     -0.981322
  H       3.767883     -1.108834     -1.539167
  H       4.375331      1.281602     -1.144238
  H       2.853824      2.787824      0.113176
  H       0.680678      1.963945      0.996513
27
Coordinates from ORCA-job geo_opt E -686.668381865055
  N      -2.716778     -0.346892     -0.753904
  C      -2.458430      0.301727      0.579363
  C      -1.384731     -0.464571      1.385874
  C      -0.160761     -0.860518      0.609037
  C       0.089763     -2.129887      0.111519
  N       1.302430     -2.153593     -0.542814
  C       1.876355     -0.901107     -0.485027
  C       3.100596     -0.443430     -0.990812
  C       3.431668      0.891263     -0.763530
  C       2.564371      1.748431     -0.048336
  C       1.346321      1.291729      0.450696
  C       0.977882     -0.052122      0.235188
  C      -2.136256      1.802321      0.283044
  O      -1.871922      2.524486      1.275962
  O      -2.213596      2.149318     -0.939325
  H      -2.695659      0.476012     -1.414343
  H      -1.953701     -0.996690     -1.004255
  H      -3.612272     -0.843476     -0.806530
  H      -3.402775      0.282164      1.138673
  H      -1.122415      0.178014      2.239038
  H      -1.850575     -1.370688      1.800628
  H      -0.507583     -3.034207      0.196068
  H       1.712061     -2.971352     -0.982573
  H       3.768730     -1.110199     -1.538690
  H       4.377826      1.280301     -1.143876
  H       2.856925      2.787657      0.113087
  H       0.682526      1.965310      0.995838
27
Coordinates from ORCA-job geo_opt E -686.668382446013
  N      -2.717903     -0.348026     -0.753093
  C      -2.458556      0.301609      0.579198
  C      -1.384721     -0.464124      1.385869
  C      -0.160710     -0.860028      0.609018
  C       0.089408     -2.129303      0.110881
  N       1.302009     -2.153033     -0.543588
  C       1.876321     -0.900739     -0.485184
  C       3.100699     -0.443206     -0.990749
  C       3.432221      0.891293     -0.762794
  C       2.565171      1.748426     -0.047146
  C       1.346992      1.291786      0.451706
  C       0.978230     -0.051874      0.235622
  C      -2.135981      1.801971      0.281426
  O      -1.869311      2.524282      1.273609
  O      -2.214841      2.148332     -0.941061
  H      -2.698070      0.473961     -1.414480
  H      -1.954220     -0.997070     -1.003874
  H      -3.612891     -0.845663     -0.804820
  H      -3.402496      0.283477      1.139257
  H      -1.122387      0.178807      2.238737
  H      -1.850095     -1.370335      1.801016
  H      -0.508292     -3.033415      0.195241
  H       1.711067     -2.970390     -0.984638
  H       3.768601     -1.109868     -1.539037
  H       4.378437      1.280361     -1.142947
  H       2.858000      2.787500      0.114709
  H       0.683317      1.965268      0.997121
