27
zwitterion conformer 2
N      -2.64796285    -0.42615535    -0.71517988
C      -2.43021962     0.26421894     0.57004854
C      -1.36873375    -0.43438303     1.43085652
C      -0.17746847    -0.85139222     0.63155983
C       0.03000796    -2.08270432     0.06623705
N       1.21361561    -2.09827114    -0.61590027
C       1.80105881    -0.87231572    -0.50601781
C       3.00337138    -0.39962943    -1.01901819
C       3.34353200     0.90593585    -0.74221428
C       2.51232919     1.72858585     0.02534469
C       1.32019349     1.26901316     0.53698245
C       0.94873050    -0.04894846     0.27147754
C      -2.00990072     1.74255469     0.18757161
O      -1.74773709     2.52279929     1.10528552
O      -2.02665316     1.95898274    -1.04512373
H      -2.50179417     0.39263835    -1.39043542
H      -1.90357195    -1.12064921    -0.86840064
H      -3.57185211    -0.84429679    -0.82508137
H      -3.35719546     0.35265092     1.13812890
H      -1.06974949     0.27210146     2.20714202
H      -1.80960141    -1.31061593     1.90933548
H      -0.56893175    -2.97055471     0.13721870
H       1.60728094    -2.89455411    -1.08773778
H       3.64755246    -1.03098102    -1.61160066
H       4.26976519     1.31013074    -1.12327801
H       2.81557907     2.74820880     0.21653594
H       0.67835536     1.91763065     1.11626329
