20
Coordinates from ORCA-job geo_opt E -34.362667866670
  N           1.23269081373698     -0.42889475500160     -1.62289315706553
  C           1.22401845439235      0.55669318331744     -0.56149405053845
  C           0.35420460994194      0.16843256915364      0.67327664403656
  C          -1.07552046952645      0.02679069254671      0.28456967187500
  C          -1.72670871991185     -1.08067731813654     -0.19492775934881
  N          -3.01274108644636     -0.68906301729846     -0.43884244227509
  C          -3.08657589954702      0.61830713797119     -0.10866350263926
  N          -1.94546864668035      1.08048832015410      0.32581268216636
  C           2.62502439898836      0.78471799180594     -0.03381830240003
  O           3.06378676746164      1.86985464576663      0.28146841200610
  O           3.31012330410753     -0.33367877689807      0.11401258116956
  H           0.27596733900508     -0.63480159307935     -1.89106055579541
  H           1.65646006532871     -1.28766777261114     -1.28620568424411
  H           0.85219525630103      1.50527466632020     -0.96186735003918
  H           0.44738769694024      0.95289145310873      1.42432317413043
  H           0.72698111731182     -0.77411880720058      1.08007445805837
  H          -1.39318303498792     -2.08486028162969     -0.35304031856105
  H          -3.75600242746435     -1.27073420822046     -0.79065223881862
  H          -3.98001450116724      1.20208256697932     -0.19496333314812
  H           4.20737495221586     -0.18103669704805      0.47121129143128
