20
Coordinates from ORCA-job geo_opt E -34.332068841070
  N       1.208480     -0.564832     -1.460540
  C       1.228234      0.469985     -0.478744
  C       0.299830      0.192446      0.686354
  C      -1.113407      0.054888      0.253279
  C      -1.817685     -1.056989     -0.138676
  N      -3.077014     -0.650185     -0.435220
  C      -3.168554      0.696820     -0.234372
  N      -1.951956      1.129097      0.191433
  C       2.588935      0.663809      0.052067
  O       2.761071      1.547916      0.930631
  O       3.690643     -0.070099     -0.359069
  H       0.263090     -0.754238     -1.829228
  H       1.748516     -1.409457     -1.249836
  H       0.907592      1.423107     -0.930491
  H       0.434893      0.941286      1.489928
  H       0.666655     -0.775846      1.130342
  H      -1.410654     -2.066111     -0.190992
  H      -3.864526     -1.282398     -0.770337
  H      -4.039606      1.331565     -0.379846
  H       4.645462      0.179237     -0.060364
20
Coordinates from ORCA-job geo_opt E -34.354802657190
  N       1.236771     -0.556223     -1.499554
  C       1.235925      0.466125     -0.487864
  C       0.289519      0.168501      0.699257
  C      -1.121815      0.043760      0.263466
  C      -1.824174     -1.073173     -0.123449
  N      -3.068600     -0.650517     -0.430226
  C      -3.115795      0.687060     -0.233678
  N      -1.939968      1.128325      0.189322
  C       2.602812      0.696069      0.056528
  O       2.801753      1.549971      0.921177
  O       3.626340     -0.048978     -0.369756
  H       0.308116     -0.760650     -1.837957
  H       1.752296     -1.386818     -1.258632
  H       0.907302      1.415136     -0.936326
  H       0.407275      0.923514      1.480766
  H       0.625645     -0.785149      1.145017
  H      -1.455436     -2.080071     -0.169489
  H      -3.832293     -1.238111     -0.750421
  H      -3.964806      1.314532     -0.388565
  H       4.529131      0.186696     -0.053297
20
Coordinates from ORCA-job geo_opt E -34.360234683450
  N       1.260668     -0.536188     -1.523627
  C       1.240757      0.467226     -0.487729
  C       0.296792      0.140356      0.711816
  C      -1.118151      0.032008      0.272808
  C      -1.821221     -1.085542     -0.114184
  N      -3.066360     -0.650883     -0.434193
  C      -3.078070      0.683602     -0.240506
  N      -1.925759      1.126585      0.181155
  C       2.614593      0.727013      0.066184
  O       2.834748      1.572222      0.912359
  O       3.567792     -0.035800     -0.400203
  H       0.324335     -0.758089     -1.820552
  H       1.747155     -1.368978     -1.231903
  H       0.894755      1.412077     -0.925691
  H       0.403548      0.911592      1.471357
  H       0.618394     -0.807598      1.151030
  H      -1.489479     -2.099262     -0.156611
  H      -3.828414     -1.218125     -0.749991
  H      -3.923405      1.312904     -0.407070
  H       4.447322      0.174880     -0.058128
20
Coordinates from ORCA-job geo_opt E -34.361309893740
  N       1.260709     -0.513424     -1.538983
  C       1.237654      0.477068     -0.488430
  C       0.306464      0.129540      0.716779
  C      -1.111776      0.026995      0.281068
  C      -1.813409     -1.089739     -0.105512
  N      -3.061706     -0.655419     -0.438071
  C      -3.067128      0.680255     -0.248222
  N      -1.918989      1.124797      0.180262
  C       2.620647      0.747238      0.061371
  O       2.850604      1.598919      0.896681
  O       3.548645     -0.053132     -0.403850
  H       0.313294     -0.740538     -1.808288
  H       1.725230     -1.354154     -1.222559
  H       0.877534      1.422263     -0.914116
  H       0.410128      0.910779      1.467573
  H       0.630087     -0.819727      1.148940
  H      -1.498912     -2.109949     -0.145121
  H      -3.826940     -1.225158     -0.757180
  H      -3.915544      1.307335     -0.425508
  H       4.433410      0.136052     -0.040513
20
Coordinates from ORCA-job geo_opt E -34.361599891330
  N       1.257375     -0.497107     -1.545813
  C       1.234265      0.484139     -0.483989
  C       0.312332      0.123433      0.720665
  C      -1.107039      0.023977      0.285186
  C      -1.805400     -1.090975     -0.103737
  N      -3.056835     -0.659161     -0.441263
  C      -3.063782      0.677625     -0.252608
  N      -1.914907      1.123011      0.178176
  C       2.622724      0.749535      0.067082
  O       2.867811      1.634093      0.861827
  O       3.539458     -0.078266     -0.389119
  H       0.302538     -0.719556     -1.807038
  H       1.702363     -1.348641     -1.219040
  H       0.869239      1.432230     -0.899502
  H       0.414404      0.909785      1.468290
  H       0.637967     -0.828168      1.146485
  H      -1.505037     -2.117045     -0.143090
  H      -3.821476     -1.232173     -0.760692
  H      -3.916371      1.300311     -0.435080
  H       4.430370      0.112955     -0.030419
20
Coordinates from ORCA-job geo_opt E -34.361735264510
  N       1.250915     -0.473595     -1.565809
  C       1.230749      0.502063     -0.496929
  C       0.323083      0.129975      0.711413
  C      -1.099182      0.024553      0.285074
  C      -1.792231     -1.092527     -0.100545
  N      -3.048965     -0.668237     -0.433877
  C      -3.063713      0.669338     -0.245818
  N      -1.913972      1.119622      0.181562
  C       2.623565      0.764708      0.048283
  O       2.876987      1.663575      0.823124
  O       3.518251     -0.127404     -0.335203
  H       0.292295     -0.692422     -1.824061
  H       1.687683     -1.331882     -1.240119
  H       0.859039      1.451737     -0.901903
  H       0.425555      0.918106      1.458414
  H       0.656881     -0.821986      1.130639
  H      -1.499126     -2.121611     -0.142086
  H      -3.811628     -1.247497     -0.749294
  H      -3.922819      1.284235     -0.427125
  H       4.406630      0.049250      0.040580
20
Coordinates from ORCA-job geo_opt E -34.361933739570
  N       1.249614     -0.462366     -1.574623
  C       1.229716      0.510463     -0.502708
  C       0.327027      0.132666      0.706465
  C      -1.096422      0.023614      0.284495
  C      -1.786918     -1.094174     -0.101766
  N      -3.045530     -0.672216     -0.429968
  C      -3.064409      0.664937     -0.237711
  N      -1.914785      1.116057      0.188493
  C       2.622070      0.765770      0.043864
  O       2.889474      1.696740      0.774363
  O       3.503574     -0.159583     -0.288872
  H       0.292422     -0.675657     -1.840293
  H       1.682079     -1.323799     -1.253581
  H       0.858375      1.461504     -0.903311
  H       0.429583      0.917674      1.456669
  H       0.664096     -0.820095      1.121040
  H      -1.499005     -2.124350     -0.148313
  H      -3.807059     -1.253474     -0.744532
  H      -3.926123      1.276030     -0.415613
  H       4.392221      0.020257      0.082223
20
Coordinates from ORCA-job geo_opt E -34.362291530700
  N       1.242280     -0.423090     -1.606311
  C       1.228058      0.541144     -0.526741
  C       0.341360      0.144990      0.689246
  C      -1.085555      0.021268      0.281580
  C      -1.765457     -1.100147     -0.112414
  N      -3.032828     -0.687924     -0.416462
  C      -3.066439      0.646253     -0.204933
  N      -1.916178      1.104143      0.208268
  C       2.619803      0.771110      0.021490
  O       2.949663      1.789114      0.592974
  O       3.432495     -0.258492     -0.118558
  H       0.288650     -0.620064     -1.888927
  H       1.663706     -1.291814     -1.296906
  H       0.858370      1.496489     -0.913589
  H       0.442012      0.919931      1.449429
  H       0.691354     -0.808825      1.090276
  H      -1.486347     -2.130701     -0.180981
  H      -3.789619     -1.274894     -0.727505
  H      -3.938581      1.245089     -0.365185
  H       4.323252     -0.083580      0.241569
20
Coordinates from ORCA-job geo_opt E -34.362459766180
  N       1.234789     -0.397981     -1.631200
  C       1.227467      0.562212     -0.548214
  C       0.353917      0.152786      0.675298
  C      -1.075722      0.019492      0.279791
  C      -1.748243     -1.103374     -0.123584
  N      -3.022450     -0.698015     -0.409787
  C      -3.066880      0.632258     -0.177265
  N      -1.918657      1.093802      0.236355
  C       2.621145      0.776664     -0.002477
  O       3.007379      1.835886      0.445766
  O       3.366257     -0.311249      0.010714
  H       0.280838     -0.586360     -1.917402
  H       1.648989     -1.270577     -1.323097
  H       0.856965      1.520026     -0.925716
  H       0.453142      0.921605      1.441545
  H       0.715010     -0.801034      1.066096
  H      -1.468063     -2.131742     -0.213668
  H      -3.775735     -1.287789     -0.723400
  H      -3.946785      1.223811     -0.320730
  H       4.256635     -0.150422      0.377294
20
Coordinates from ORCA-job geo_opt E -34.362559535830
  N       1.234009     -0.396810     -1.636263
  C       1.227816      0.566860     -0.556739
  C       0.356471      0.155930      0.670876
  C      -1.073418      0.019908      0.278443
  C      -1.741775     -1.101377     -0.139001
  N      -3.020055     -0.699119     -0.411904
  C      -3.070652      0.626467     -0.157916
  N      -1.922648      1.090039      0.254159
  C       2.622730      0.780919     -0.013645
  O       3.035491      1.852688      0.377986
  O       3.336755     -0.324618      0.060113
  H       0.279448     -0.587736     -1.919164
  H       1.650214     -1.266445     -1.321304
  H       0.856567      1.523712     -0.935915
  H       0.453526      0.923501      1.438422
  H       0.722912     -0.796531      1.059812
  H      -1.448696     -2.124337     -0.246649
  H      -3.771861     -1.287958     -0.731003
  H      -3.954380      1.216818     -0.284969
  H       4.227546     -0.171909      0.430980
20
Coordinates from ORCA-job geo_opt E -34.362636654610
  N       1.235641     -0.410754     -1.628879
  C       1.226881      0.561716     -0.557370
  C       0.353369      0.156442      0.672659
  C      -1.075620      0.021661      0.279257
  C      -1.741220     -1.095386     -0.156659
  N      -3.021302     -0.694313     -0.421219
  C      -3.076193      0.625932     -0.144866
  N      -1.930299      1.088588      0.275965
  C       2.623661      0.787074     -0.019418
  O       3.040842      1.862185      0.357140
  O       3.331639     -0.322380      0.062242
  H       0.279731     -0.613328     -1.901304
  H       1.661412     -1.272265     -1.302033
  H       0.852621      1.514743     -0.944788
  H       0.448043      0.927117      1.437460
  H       0.723289     -0.793421      1.064794
  H      -1.424657     -2.109572     -0.280812
  H      -3.771790     -1.279444     -0.751193
  H      -3.960707      1.219234     -0.257591
  H       4.224660     -0.173831      0.432935
20
Coordinates from ORCA-job geo_opt E -34.362653090640
  N       1.233746     -0.413470     -1.631086
  C       1.225218      0.561759     -0.561252
  C       0.355646      0.157586      0.670476
  C      -1.073885      0.022230      0.279676
  C      -1.736747     -1.091869     -0.166849
  N      -3.018534     -0.693005     -0.424436
  C      -3.078002      0.623942     -0.133175
  N      -1.931843      1.086699      0.287796
  C       2.623351      0.788390     -0.026145
  O       3.049352      1.867883      0.324918
  O       3.318596     -0.327461      0.090849
  H       0.277099     -0.618726     -1.899897
  H       1.660964     -1.273633     -1.302102
  H       0.849096      1.513670     -0.949514
  H       0.450671      0.930438      1.433355
  H       0.728255     -0.791320      1.062606
  H      -1.413611     -2.102871     -0.301024
  H      -3.767843     -1.277376     -0.759040
  H      -3.964541      1.215730     -0.236781
  H       4.213013     -0.178596      0.457946
20
Coordinates from ORCA-job geo_opt E -34.362659558200
  N       1.232923     -0.416442     -1.629693
  C       1.224148      0.560828     -0.561135
  C       0.355641      0.159195      0.671194
  C      -1.074119      0.022901      0.281195
  C      -1.734658     -1.089429     -0.172890
  N      -3.016915     -0.692030     -0.427964
  C      -3.079440      0.622995     -0.128084
  N      -1.934753      1.085111      0.297431
  C       2.623042      0.787914     -0.028046
  O       3.053102      1.869104      0.311311
  O       3.314836     -0.329286      0.099598
  H       0.276162     -0.623227     -1.896871
  H       1.660953     -1.275823     -1.299968
  H       0.848232      1.511976     -0.951232
  H       0.450628      0.934408      1.431697
  H       0.728797     -0.788498      1.065475
  H      -1.407541     -2.098472     -0.312290
  H      -3.764791     -1.275601     -0.766716
  H      -3.966926      1.213690     -0.228146
  H       4.210680     -0.179315      0.461454
20
Coordinates from ORCA-job geo_opt E -34.362663873570
  N       1.232637     -0.420814     -1.626609
  C       1.223435      0.559088     -0.559912
  C       0.354761      0.161965      0.672858
  C      -1.075080      0.024149      0.283058
  C      -1.732411     -1.086268     -0.180319
  N      -3.015355     -0.690799     -0.432730
  C      -3.081912      0.621781     -0.122251
  N      -1.938667      1.083743      0.306949
  C       2.623246      0.786567     -0.029237
  O       3.056222      1.869088      0.301463
  O       3.314084     -0.330704      0.103417
  H       0.275878     -0.628554     -1.892970
  H       1.660556     -1.279720     -1.295797
  H       0.848837      1.509325     -0.953383
  H       0.449407      0.940689      1.429749
  H       0.727475     -0.783979      1.071485
  H      -1.401927     -2.093467     -0.325095
  H      -3.761506     -1.273637     -0.776284
  H      -3.971008      1.210471     -0.218241
  H       4.211327     -0.178923      0.460169
20
Coordinates from ORCA-job geo_opt E -34.362665879300
  N       1.232628     -0.423456     -1.625245
  C       1.223428      0.558196     -0.560012
  C       0.354456      0.164186      0.673331
  C      -1.075421      0.025017      0.283964
  C      -1.730455     -1.084222     -0.185671
  N      -3.014372     -0.690190     -0.435230
  C      -3.083613      0.620628     -0.117624
  N      -1.941373      1.082455      0.314226
  C       2.623872      0.785711     -0.030868
  O       3.059341      1.869278      0.293427
  O       3.312746     -0.331947      0.107426
  H       0.275838     -0.630966     -1.891814
  H       1.659464     -1.282375     -1.293043
  H       0.849934      1.507883     -0.955930
  H       0.448707      0.945170      1.427898
  H       0.726909     -0.780554      1.075071
  H      -1.398677     -2.090370     -0.334785
  H      -3.759451     -1.272598     -0.781805
  H      -3.974199      1.207581     -0.210459
  H       4.210236     -0.179430      0.463464
20
Coordinates from ORCA-job geo_opt E -34.362667349680
  N       1.232654     -0.427004     -1.623603
  C       1.223744      0.557165     -0.560754
  C       0.354192      0.167088      0.673471
  C      -1.075603      0.026214      0.284563
  C      -1.727946     -1.081785     -0.192037
  N      -3.013203     -0.689406     -0.438030
  C      -3.085719      0.619022     -0.111492
  N      -1.944327      1.081071      0.322292
  C       2.624721      0.784906     -0.032951
  O       3.062731      1.869576      0.284785
  O       3.311020     -0.333245      0.111829
  H       0.275867     -0.633701     -1.890937
  H       1.657666     -1.285845     -1.288735
  H       0.851514      1.506126     -0.959769
  H       0.447774      0.950568      1.425494
  H       0.726646     -0.776156      1.078842
  H      -1.394828     -2.086608     -0.346949
  H      -3.757010     -1.271289     -0.788259
  H      -3.978270      1.203764     -0.199949
  H       4.208377     -0.180462      0.468508
20
Coordinates from ORCA-job geo_opt E -34.362667866670
  N       1.232691     -0.428895     -1.622893
  C       1.224018      0.556693     -0.561494
  C       0.354205      0.168433      0.673277
  C      -1.075520      0.026791      0.284570
  C      -1.726709     -1.080677     -0.194928
  N      -3.012741     -0.689063     -0.438842
  C      -3.086576      0.618307     -0.108664
  N      -1.945469      1.080488      0.325813
  C       2.625024      0.784718     -0.033818
  O       3.063787      1.869855      0.281468
  O       3.310123     -0.333679      0.114013
  H       0.275967     -0.634802     -1.891061
  H       1.656460     -1.287668     -1.286206
  H       0.852195      1.505275     -0.961867
  H       0.447388      0.952891      1.424323
  H       0.726981     -0.774119      1.080074
  H      -1.393183     -2.084860     -0.353040
  H      -3.756002     -1.270734     -0.790652
  H      -3.980015      1.202083     -0.194963
  H       4.207375     -0.181037      0.471211
