20
neutral_epsilon conformer 6
N       1.20847956    -0.56483240    -1.46054042
C       1.22823450     0.46998527    -0.47874372
C       0.29983050     0.19244585     0.68635364
C      -1.11340691     0.05488839     0.25327882
C      -1.81768474    -1.05698884    -0.13867564
N      -3.07701387    -0.65018457    -0.43521976
C      -3.16855354     0.69682025    -0.23437155
N      -1.95195620     1.12909680     0.19143302
C       2.58893533     0.66380873     0.05206650
O       2.76107089     1.54791633     0.93063149
O       3.69064321    -0.07009932    -0.35906857
H       0.26308973    -0.75423828    -1.82922811
H       1.74851607    -1.40945750    -1.24983612
H       0.90759168     1.42310669    -0.93049070
H       0.43489324     0.94128561     1.48992827
H       0.66665478    -0.77584573     1.13034218
H      -1.41065371    -2.06611079    -0.19099190
H      -3.86452646    -1.28239828    -0.77033669
H      -4.03960596     1.33156489    -0.37984644
H       4.64546189     0.17923690    -0.06036408
