17
zwitterion CPCM-opt conformer 2
N       2.78695651     0.16177591    -0.09530034
C       1.48734489     0.48622475    -0.75250899
C       0.39008228    -0.21817963     0.05972558
O       0.67992371    -0.72210501     1.16226109
N      -0.82607481    -0.22558533    -0.49754608
C      -2.02013062    -0.72683221     0.16557151
C      -2.87439903     0.34264281     0.91444885
O      -3.95056384    -0.11145490     1.40177238
O      -2.44103793     1.52588694     0.97879629
H       3.38008086     0.98839885     0.04042188
H       2.53572127    -0.24803910     0.83402543
H       3.32547083    -0.53813737    -0.61977823
H       1.50689525     0.15864813    -1.79685101
H       1.33594570     1.57158360    -0.71804221
H      -0.94599828     0.26086559    -1.38354630
H      -1.71461369    -1.49087909     0.89237815
H      -2.65560309    -1.21481398    -0.58582799
