20
Coordinates from ORCA-job geo_opt E -549.018178292680
  N      -2.691305     -1.274371      0.183492
  C      -1.473879     -0.540395     -0.100009
  C      -0.232385     -1.036284      0.694167
  C       1.004349     -0.305540      0.302155
  C       1.695696     -0.364815     -0.879556
  N       2.733554      0.513022     -0.756294
  C       2.632223      1.061819      0.472306
  N       1.607036      0.595016      1.135064
  C      -1.676200      0.916768      0.262117
  O      -2.329528      1.289812      1.212077
  O      -1.044604      1.742589     -0.548669
  H      -2.491876     -2.266143      0.248574
  H      -3.064488     -0.967366      1.076772
  H      -1.256495     -0.606366     -1.171415
  H      -0.113930     -2.103776      0.494716
  H      -0.408855     -0.888093      1.761156
  H       1.533606     -0.945788     -1.762373
  H       3.432670      0.709391     -1.454384
  H       3.315735      1.790800      0.856776
  H      -1.171322      2.679721     -0.298600
20
Coordinates from ORCA-job geo_opt E -549.023102676959
  N      -2.705930     -1.284406      0.194906
  C      -1.503317     -0.508296     -0.100901
  C      -0.229455     -1.002458      0.670199
  C       1.043206     -0.302851      0.291104
  C       1.763744     -0.399491     -0.882494
  N       2.827617      0.465087     -0.746839
  C       2.726827      1.044431      0.479128
  N       1.663890      0.603026      1.133776
  C      -1.770903      0.944616      0.274797
  O      -2.422895      1.277936      1.254509
  O      -1.225447      1.814541     -0.579283
  H      -2.474089     -2.278963      0.235782
  H      -3.059050     -1.013759      1.117173
  H      -1.296003     -0.558120     -1.179756
  H      -0.134786     -2.079439      0.467806
  H      -0.400992     -0.868925      1.747336
  H       1.608182     -0.996141     -1.774169
  H       3.551499      0.634259     -1.440227
  H       3.438810      1.770479      0.861258
  H      -1.400907      2.738477     -0.296037
20
Coordinates from ORCA-job geo_opt E -549.023640793807
  N      -2.721273     -1.290190      0.205148
  C      -1.522640     -0.504846     -0.106772
  C      -0.238400     -0.991188      0.650884
  C       1.038770     -0.294009      0.278305
  C       1.782497     -0.415209     -0.882703
  N       2.846303      0.452216     -0.740387
  C       2.721105      1.067432      0.469259
  N       1.636130      0.644135      1.113306
  C      -1.807676      0.946659      0.262603
  O      -2.432716      1.278705      1.263576
  O      -1.212504      1.822073     -0.567183
  H      -2.477785     -2.284315      0.228893
  H      -3.036436     -1.042408      1.148912
  H      -1.323090     -0.556061     -1.187636
  H      -0.151869     -2.069976      0.444306
  H      -0.409766     -0.871011      1.731868
  H       1.652073     -1.033560     -1.766687
  H       3.588938      0.602031     -1.420019
  H       3.432384      1.803159      0.839907
  H      -1.364045      2.736364     -0.237512
20
Coordinates from ORCA-job geo_opt E -549.024057392854
  N      -2.724635     -1.277133      0.216084
  C      -1.526561     -0.486831     -0.100723
  C      -0.236606     -0.984429      0.634068
  C       1.044546     -0.294498      0.268856
  C       1.809344     -0.440831     -0.876890
  N       2.869741      0.429815     -0.731262
  C       2.725085      1.070834      0.463508
  N       1.626004      0.661726      1.099352
  C      -1.809252      0.958852      0.286068
  O      -2.454686      1.284764      1.276240
  O      -1.266509      1.845997     -0.577872
  H      -2.478939     -2.271373      0.198735
  H      -2.992704     -1.071259      1.184450
  H      -1.336233     -0.525471     -1.183714
  H      -0.166220     -2.061100      0.409522
  H      -0.402005     -0.887998      1.719106
  H       1.701066     -1.076103     -1.751340
  H       3.626961      0.563929     -1.397330
  H       3.436246      1.810680      0.823645
  H      -1.444643      2.750429     -0.232436
20
Coordinates from ORCA-job geo_opt E -549.024246978388
  N      -2.726695     -1.270932      0.213688
  C      -1.528110     -0.480982     -0.100056
  C      -0.238288     -0.986123      0.628999
  C       1.040556     -0.295869      0.264785
  C       1.820979     -0.462031     -0.865520
  N       2.867652      0.424441     -0.729692
  C       2.704186      1.085381      0.449562
  N       1.607188      0.675609      1.083889
  C      -1.805164      0.962544      0.293939
  O      -2.438506      1.289673      1.288756
  O      -1.259947      1.852792     -0.565254
  H      -2.484593     -2.265313      0.171733
  H      -2.978968     -1.086322      1.190571
  H      -1.342302     -0.514450     -1.183527
  H      -0.169581     -2.060581      0.397102
  H      -0.401096     -0.897289      1.714382
  H       1.730280     -1.115902     -1.726418
  H       3.630708      0.553015     -1.389411
  H       3.404633      1.838223      0.800299
  H      -1.432932      2.754117     -0.209758
20
Coordinates from ORCA-job geo_opt E -549.024417683265
  N      -2.734722     -1.256568      0.218924
  C      -1.533894     -0.470276     -0.095974
  C      -0.240818     -0.992595      0.614771
  C       1.033176     -0.297031      0.253866
  C       1.843312     -0.494941     -0.847462
  N       2.873968      0.409658     -0.720033
  C       2.667207      1.114643      0.424060
  N       1.560507      0.716914      1.042464
  C      -1.795319      0.970169      0.312533
  O      -2.400443      1.301030      1.320163
  O      -1.257520      1.864225     -0.548934
  H      -2.505827     -2.250220      0.119860
  H      -2.947910     -1.120623      1.213188
  H      -1.362834     -0.494714     -1.181645
  H      -0.174627     -2.061337      0.360444
  H      -0.396803     -0.926748      1.702261
  H       1.787778     -1.183584     -1.682424
  H       3.656334      0.520199     -1.359523
  H       3.348372      1.890821      0.759296
  H      -1.419938      2.760978     -0.177769
20
Coordinates from ORCA-job geo_opt E -549.024506576239
  N      -2.743173     -1.243639      0.231167
  C      -1.539490     -0.463741     -0.091796
  C      -0.242504     -1.000124      0.601711
  C       1.030162     -0.299197      0.246772
  C       1.862193     -0.515452     -0.834569
  N       2.880046      0.405081     -0.712660
  C       2.647629      1.132112      0.413122
  N       1.536272      0.735305      1.022452
  C      -1.786317      0.976748      0.324204
  O      -2.363902      1.311820      1.346438
  O      -1.268122      1.869721     -0.552024
  H      -2.530002     -2.235823      0.090089
  H      -2.925724     -1.142514      1.235650
  H      -1.382645     -0.485087     -1.179610
  H      -0.177928     -2.063434      0.325551
  H      -0.394091     -0.955768      1.691153
  H       1.828970     -1.223916     -1.654415
  H       3.673042      0.508974     -1.340095
  H       3.316170      1.922683      0.741090
  H      -1.420585      2.766253     -0.176161
20
Coordinates from ORCA-job geo_opt E -549.024621977625
  N      -2.755194     -1.220165      0.256747
  C      -1.547647     -0.452299     -0.083045
  C      -0.244352     -1.013911      0.578186
  C       1.026745     -0.302661      0.234677
  C       1.894062     -0.546109     -0.813220
  N       2.896336      0.393566     -0.695639
  C       2.619008      1.158717      0.396147
  N       1.495712      0.767601      0.985947
  C      -1.768196      0.989056      0.346147
  O      -2.284348      1.328023      1.400494
  O      -1.308083      1.879634     -0.565141
  H      -2.577957     -2.205378      0.037899
  H      -2.885856     -1.183622      1.273486
  H      -1.417670     -0.469049     -1.174322
  H      -0.180817     -2.065818      0.261692
  H      -0.388689     -1.007089      1.669937
  H       1.894557     -1.285006     -1.607333
  H       3.708885      0.483914     -1.299840
  H       3.265974      1.971707      0.714285
  H      -1.442471      2.778889     -0.189035
20
Coordinates from ORCA-job geo_opt E -549.024652143887
  N      -2.755842     -1.213572      0.258639
  C      -1.547222     -0.447257     -0.080640
  C      -0.244309     -1.015121      0.574219
  C       1.027976     -0.303268      0.233079
  C       1.904618     -0.557910     -0.804894
  N       2.903771      0.385872     -0.691413
  C       2.616153      1.164268      0.389090
  N       1.487832      0.778766      0.974335
  C      -1.764760      0.993613      0.355485
  O      -2.257749      1.326838      1.423514
  O      -1.335513      1.886497     -0.567260
  H      -2.590939     -2.194505      0.013264
  H      -2.875947     -1.199770      1.277071
  H      -1.421216     -0.460458     -1.172365
  H      -0.180580     -2.064622      0.249942
  H      -0.388189     -1.013505      1.666237
  H       1.911253     -1.306915     -1.589697
  H       3.720486      0.470595     -1.290910
  H       3.257277      1.983640      0.703017
  H      -1.467103      2.786815     -0.192645
20
Coordinates from ORCA-job geo_opt E -549.024666078919
  N      -2.753468     -1.212017      0.249885
  C      -1.543812     -0.443633     -0.080557
  C      -0.243861     -1.011919      0.577180
  C       1.030039     -0.302914      0.234566
  C       1.908916     -0.566319     -0.799524
  N       2.908422      0.377342     -0.691095
  C       2.617796      1.166645      0.380520
  N       1.487602      0.786402      0.967317
  C      -1.766306      0.995464      0.362549
  O      -2.250932      1.318802      1.437759
  O      -1.354450      1.893878     -0.561124
  H      -2.591572     -2.190248     -0.007441
  H      -2.875446     -1.209479      1.268072
  H      -1.413187     -0.451892     -1.171756
  H      -0.180116     -2.062503      0.256477
  H      -0.389138     -1.005040      1.669075
  H       1.915254     -1.322091     -1.577764
  H       3.725736      0.456864     -1.290563
  H       3.256928      1.989386      0.689431
  H      -1.488405      2.793272     -0.184937
20
Coordinates from ORCA-job geo_opt E -549.024670219004
  N      -2.751972     -1.211354      0.242702
  C      -1.541134     -0.441873     -0.081070
  C      -0.243566     -1.009705      0.580118
  C       1.030968     -0.302802      0.235910
  C       1.910521     -0.571189     -0.796191
  N       2.909382      0.373267     -0.691983
  C       2.618566      1.167429      0.375431
  N       1.487440      0.790522      0.963311
  C      -1.767156      0.995902      0.366027
  O      -2.248635      1.313432      1.444229
  O      -1.362933      1.898194     -0.556518
  H      -2.590016     -2.188520     -0.018694
  H      -2.876251     -1.213374      1.260612
  H      -1.406403     -0.446941     -1.171775
  H      -0.180304     -2.061525      0.263440
  H      -0.389702     -0.998960      1.671877
  H       1.916792     -1.330968     -1.570390
  H       3.726064      0.450675     -1.292590
  H       3.257204      1.991631      0.681178
  H      -1.498864      2.796160     -0.177555
20
Coordinates from ORCA-job geo_opt E -549.024671859327
  N      -2.751594     -1.210250      0.238593
  C      -1.539483     -0.440818     -0.081396
  C      -0.243404     -1.009091      0.581440
  C       1.031209     -0.303055      0.236361
  C       1.911732     -0.574352     -0.794027
  N       2.910023      0.370788     -0.691835
  C       2.617440      1.168862      0.371755
  N       1.486404      0.792783      0.960527
  C      -1.766648      0.996179      0.368259
  O      -2.244477      1.310881      1.448735
  O      -1.368140      1.900867     -0.554317
  H      -2.589703     -2.186881     -0.025052
  H      -2.876438     -1.215059      1.256461
  H      -1.402731     -0.443842     -1.171842
  H      -0.180791     -2.061477      0.266472
  H      -0.389710     -0.997535      1.673173
  H       1.919134     -1.337010     -1.565319
  H       3.726754      0.446981     -1.292524
  H       3.255326      1.994402      0.675354
  H      -1.504905      2.797627     -0.172748
20
Coordinates from ORCA-job geo_opt E -549.024672426689
  N      -2.751736     -1.209554      0.237332
  C      -1.538772     -0.440626     -0.081509
  C      -0.243323     -1.009514      0.581807
  C       1.031168     -0.303459      0.236492
  C       1.912105     -0.575270     -0.793389
  N       2.909829      0.370600     -0.691831
  C       2.616725      1.169171      0.371166
  N       1.485675      0.793111      0.959789
  C      -1.765730      0.996238      0.368809
  O      -2.241267      1.310740      1.450308
  O      -1.369934      1.901536     -0.554526
  H      -2.589659     -2.186273     -0.026001
  H      -2.877024     -1.214413      1.255181
  H      -1.401492     -0.443094     -1.171876
  H      -0.181050     -2.062021      0.267069
  H      -0.389567     -0.998473      1.673550
  H       1.920338     -1.338789     -1.563832
  H       3.726297      0.447123     -1.292835
  H       3.254317      1.995116      0.674323
  H      -1.506900      2.797853     -0.171960
