20
Coordinates from ORCA-job geo_opt E -549.024672426689
  N          -2.75173603757476     -1.20955434767589      0.23733241584789
  C          -1.53877181918934     -0.44062557081671     -0.08150872495215
  C          -0.24332293790643     -1.00951388951285      0.58180745133002
  C           1.03116788245791     -0.30345916141170      0.23649231180356
  C           1.91210500522174     -0.57527028084435     -0.79338921346117
  N           2.90982851323877      0.37059964719666     -0.69183089605517
  C           2.61672453616163      1.16917082243073      0.37116582758212
  N           1.48567527176314      0.79311101453637      0.95978854533906
  C          -1.76572966398723      0.99623795121765      0.36880938974268
  O          -2.24126675325210      1.31073977586234      1.45030828446470
  O          -1.36993428987228      1.90153615321091     -0.55452623046541
  H          -2.58965871081971     -2.18627289000904     -0.02600133715445
  H          -2.87702405602676     -1.21441331060528      1.25518086927360
  H          -1.40149222662909     -0.44309448472449     -1.17187567702364
  H          -0.18104999610672     -2.06202072969369      0.26706910937362
  H          -0.38956692425465     -0.99847326048466      1.67355033786423
  H           1.92033762770355     -1.33878932321824     -1.56383152677613
  H           3.72629725368266      0.44712326818251     -1.29283500235322
  H           3.25431695966825      1.99511598545283      0.67432250612751
  H          -1.50689961427860      2.79785263090691     -0.17195982050766
