20
neutral_epsilon conformer 3
N      -2.69130524    -1.27437068     0.18349166
C      -1.47387913    -0.54039530    -0.10000926
C      -0.23238461    -1.03628363     0.69416658
C       1.00434938    -0.30553972     0.30215503
C       1.69569592    -0.36481522    -0.87955618
N       2.73355350     0.51302216    -0.75629428
C       2.63222264     1.06181854     0.47230572
N       1.60703576     0.59501597     1.13506434
C      -1.67620020     0.91676806     0.26211678
O      -2.32952783     1.28981155     1.21207652
O      -1.04460439     1.74258913    -0.54866918
H      -2.49187648    -2.26614336     0.24857390
H      -3.06448827    -0.96736576     1.07677156
H      -1.25649510    -0.60636575    -1.17141504
H      -0.11392986    -2.10377619     0.49471593
H      -0.40885478    -0.88809304     1.76115550
H       1.53360583    -0.94578845    -1.76237326
H       3.43267029     0.70939124    -1.45438378
H       3.31573480     1.79079967     0.85677590
H      -1.17132221     2.67972078    -0.29859982
