14
Coordinates from ORCA-job geo_opt E -25.124671027160
  N          -0.67494818139654     -1.23985365310528      0.05381798501458
  C          -0.23184596224290      0.05344619396279     -0.50010377515804
  C           1.07282589731403      0.47930258643030      0.16699577751588
  O           1.97828816080581     -0.60050410063404      0.06847977641005
  C          -1.35045979475558      1.11160607243111     -0.11947522255432
  O          -2.20315282325164      0.65850623031146      0.66976713204578
  O          -1.25308453559506      2.24037841883117     -0.60317577120179
  H          -1.02234441629171     -1.88095270904901     -0.66179051853425
  H           0.09022231193840     -1.68394570168367      0.57398723619913
  H          -1.47745910672539     -0.93556767577981      0.67700353570175
  H          -0.10423727215901      0.01807471860389     -1.58066749579793
  H           0.88135972115879      0.72693230797483      1.22069638975227
  H           1.44122302680851      1.37958480355658     -0.33327310590937
  H           2.85361299439231     -0.32700749185034      0.36773805651625
