14
Coordinates from ORCA-job geo_opt E -25.089009681090
  N      -0.620177     -1.268662      0.068007
  C      -0.241336     -0.000482     -0.477971
  C       1.047619      0.535107      0.136182
  O       2.116274     -0.308179     -0.065263
  C      -1.271884      1.034505     -0.137394
  O      -2.178026      0.805974      0.709953
  O      -1.164235      2.250412     -0.810062
  H      -1.306333     -1.701892     -0.602666
  H       0.182668     -1.916124      0.172073
  H      -1.132107     -1.144192      0.968196
  H      -0.167506      0.010424     -1.574065
  H       0.908281      0.747153      1.201575
  H       1.248715      1.512922     -0.380641
  H       2.578048     -0.556965      0.792078
14
Coordinates from ORCA-job geo_opt E -25.111576345240
  N      -0.621102     -1.269575      0.064313
  C      -0.242227      0.026545     -0.490458
  C       1.060480      0.549717      0.134867
  O       2.114858     -0.341935     -0.063836
  C      -1.306287      1.062334     -0.156540
  O      -2.179564      0.809583      0.689471
  O      -1.196721      2.200301     -0.760584
  H      -1.291599     -1.721992     -0.576915
  H       0.189730     -1.894728      0.180195
  H      -1.124730     -1.129098      0.958940
  H      -0.141322      0.016056     -1.578744
  H       0.904395      0.767393      1.195474
  H       1.280140      1.509082     -0.367456
  H       2.553951     -0.583682      0.771274
14
Coordinates from ORCA-job geo_opt E -25.115890056240
  N      -0.609583     -1.254627      0.059401
  C      -0.238612      0.065757     -0.493589
  C       1.076614      0.553063      0.135451
  O       2.091539     -0.406156     -0.060669
  C      -1.333854      1.116884     -0.144910
  O      -2.199754      0.772918      0.672204
  O      -1.289404      2.154653     -0.766775
  H      -1.275194     -1.724931     -0.558690
  H       0.218671     -1.851706      0.176960
  H      -1.096107     -1.095563      0.956922
  H      -0.115339      0.034115     -1.574648
  H       0.913516      0.774796      1.193096
  H       1.336073      1.491394     -0.360352
  H       2.521435     -0.630598      0.765601
14
Coordinates from ORCA-job geo_opt E -25.117318815040
  N      -0.604602     -1.263652      0.048570
  C      -0.247129      0.059320     -0.513566
  C       1.060896      0.553475      0.121830
  O       2.069093     -0.424086     -0.039538
  C      -1.371732      1.108667     -0.181889
  O      -2.153423      0.772443      0.724856
  O      -1.246424      2.211616     -0.702836
  H      -1.256133     -1.755697     -0.568196
  H       0.238020     -1.836979      0.183766
  H      -1.099927     -1.093907      0.939521
  H      -0.115418      0.004249     -1.592406
  H       0.885031      0.795595      1.172939
  H       1.338413      1.478028     -0.390224
  H       2.503336     -0.609072      0.797171
14
Coordinates from ORCA-job geo_opt E -25.117629138760
  N      -0.603791     -1.252236      0.043996
  C      -0.240696      0.070481     -0.504677
  C       1.075215      0.541396      0.125932
  O       2.059058     -0.461919     -0.026278
  C      -1.361184      1.124108     -0.137449
  O      -2.168342      0.730155      0.728435
  O      -1.336062      2.228338     -0.769552
  H      -1.257133     -1.740184     -0.578509
  H       0.243167     -1.821373      0.177898
  H      -1.100024     -1.078389      0.936007
  H      -0.123088      0.023379     -1.587541
  H       0.908344      0.791564      1.176819
  H       1.380004      1.457392     -0.395107
  H       2.524533     -0.612710      0.810028
14
Coordinates from ORCA-job geo_opt E -25.119847604560
  N      -0.605616     -1.248416      0.036644
  C      -0.240982      0.073827     -0.513358
  C       1.072766      0.541151      0.121153
  O       2.043588     -0.479955     -0.011717
  C      -1.365623      1.121432     -0.138725
  O      -2.145600      0.729299      0.747546
  O      -1.337807      2.203919     -0.742781
  H      -1.247750     -1.745099     -0.588389
  H       0.246211     -1.806614      0.185051
  H      -1.113009     -1.065265      0.921027
  H      -0.121946      0.025485     -1.595421
  H       0.900187      0.803935      1.167752
  H       1.392915      1.445629     -0.407071
  H       2.522667     -0.599327      0.818290
14
Coordinates from ORCA-job geo_opt E -25.120403633870
  N      -0.607394     -1.245818      0.030842
  C      -0.241267      0.074766     -0.519858
  C       1.070542      0.537087      0.119161
  O       2.029197     -0.498391      0.000916
  C      -1.368162      1.120313     -0.135709
  O      -2.129283      0.726459      0.764874
  O      -1.346203      2.197193     -0.732866
  H      -1.237281     -1.751495     -0.598407
  H       0.250216     -1.791955      0.194735
  H      -1.128816     -1.052520      0.906882
  H      -0.124359      0.026443     -1.602006
  H       0.894819      0.806769      1.163645
  H       1.405484      1.434270     -0.412397
  H       2.532508     -0.583123      0.820188
14
Coordinates from ORCA-job geo_opt E -25.120903609030
  N      -0.609359     -1.244157      0.026337
  C      -0.241530      0.074477     -0.525476
  C       1.068101      0.532178      0.118482
  O       2.015564     -0.515456      0.012377
  C      -1.368656      1.118986     -0.131952
  O      -2.116465      0.724410      0.778954
  O      -1.353816      2.195085     -0.727332
  H      -1.226573     -1.759207     -0.607098
  H       0.253468     -1.778170      0.206118
  H      -1.145676     -1.040129      0.893166
  H      -0.127481      0.027912     -1.607765
  H       0.889420      0.805975      1.161716
  H       1.416009      1.424138     -0.413962
  H       2.546994     -0.566043      0.816435
14
Coordinates from ORCA-job geo_opt E -25.121645543010
  N      -0.612915     -1.242761      0.021330
  C      -0.241933      0.073297     -0.532492
  C       1.064744      0.524671      0.119026
  O       1.996707     -0.538692      0.028708
  C      -1.367078      1.116962     -0.126364
  O      -2.101427      0.721781      0.795253
  O      -1.363259      2.194673     -0.721875
  H      -1.210422     -1.772267     -0.618209
  H       0.255793     -1.759455      0.225927
  H      -1.172395     -1.022510      0.872571
  H      -0.131727      0.031490     -1.614871
  H       0.881159      0.802567      1.160979
  H       1.429334      1.410667     -0.412615
  H       2.573418     -0.540423      0.802632
14
Coordinates from ORCA-job geo_opt E -25.122637929720
  N      -0.620167     -1.241205      0.016315
  C      -0.242271      0.072096     -0.539494
  C       1.061662      0.514388      0.122338
  O       1.972500     -0.568988      0.053500
  C      -1.363369      1.114494     -0.119143
  O      -2.084000      0.715294      0.812407
  O      -1.374615      2.194281     -0.714308
  H      -1.185542     -1.791870     -0.633670
  H       0.251356     -1.735554      0.262332
  H      -1.216507     -0.998998      0.839798
  H      -0.134655      0.038482     -1.621715
  H       0.869931      0.798795      1.162104
  H       1.447072      1.392005     -0.408123
  H       2.618605     -0.503221      0.767658
14
Coordinates from ORCA-job geo_opt E -25.123696487240
  N      -0.632499     -1.238224      0.013172
  C      -0.240981      0.070601     -0.544202
  C       1.059681      0.501310      0.131835
  O       1.942987     -0.605150      0.091675
  C      -1.358523      1.110056     -0.111576
  O      -2.069746      0.699625      0.824210
  O      -1.383394      2.194074     -0.699307
  H      -1.143968     -1.819530     -0.653550
  H       0.232204     -1.704154      0.329051
  H      -1.287521     -0.965583      0.787403
  H      -0.131743      0.047451     -1.625866
  H       0.855296      0.795664      1.168125
  H       1.470101      1.367560     -0.397525
  H       2.688108     -0.453700      0.686556
14
Coordinates from ORCA-job geo_opt E -25.124219384370
  N      -0.645564     -1.236582      0.016660
  C      -0.237899      0.067387     -0.541247
  C       1.060963      0.491274      0.145155
  O       1.927328     -0.626752      0.127931
  C      -1.354859      1.105317     -0.108058
  O      -2.086017      0.676322      0.806093
  O      -1.369479      2.201825     -0.672243
  H      -1.103001     -1.844357     -0.664939
  H       0.199522     -1.683225      0.401958
  H      -1.354611     -0.937568      0.740800
  H      -0.122722      0.051116     -1.622186
  H       0.845972      0.794858      1.178459
  H       1.485847      1.349758     -0.383886
  H       2.754519     -0.409374      0.575501
14
Coordinates from ORCA-job geo_opt E -25.124430785830
  N      -0.653354     -1.238670      0.023286
  C      -0.236924      0.063680     -0.532550
  C       1.063733      0.487563      0.152317
  O       1.933471     -0.626330      0.136805
  C      -1.354172      1.104992     -0.109467
  O      -2.119947      0.665414      0.771894
  O      -1.339916      2.213772     -0.648402
  H      -1.087319     -1.853420     -0.667275
  H       0.174497     -1.687162      0.438923
  H      -1.383963     -0.933454      0.727811
  H      -0.117186      0.046755     -1.613201
  H       0.848368      0.793161      1.185605
  H       1.483836      1.347121     -0.377539
  H       2.788877     -0.383423      0.511792
14
Coordinates from ORCA-job geo_opt E -25.124584544080
  N      -0.661690     -1.240280      0.033383
  C      -0.235366      0.059793     -0.518264
  C       1.067371      0.484903      0.160492
  O       1.946660     -0.619738      0.132935
  C      -1.353903      1.106306     -0.113755
  O      -2.158274      0.658053      0.728283
  O      -1.302710      2.225630     -0.625674
  H      -1.070701     -1.858571     -0.669413
  H       0.142331     -1.697306      0.481148
  H      -1.414099     -0.935879      0.716420
  H      -0.109824      0.037182     -1.598768
  H       0.856157      0.784642      1.196801
  H       1.473215      1.351944     -0.367723
  H       2.820832     -0.356677      0.444135
14
Coordinates from ORCA-job geo_opt E -25.124629042970
  N      -0.666301     -1.240335      0.040359
  C      -0.234026      0.057525     -0.509837
  C       1.069159      0.483089      0.165619
  O       1.957141     -0.613343      0.117293
  C      -1.353100      1.108193     -0.117442
  O      -2.174922      0.660147      0.707310
  O      -1.284686      2.229658     -0.622448
  H      -1.059767     -1.861338     -0.669166
  H       0.123943     -1.700577      0.508319
  H      -1.432228     -0.938579      0.707989
  H      -0.105539      0.029749     -1.590372
  H       0.862912      0.767974      1.207253
  H       1.461787      1.361205     -0.354521
  H       2.835629     -0.343369      0.409646
14
Coordinates from ORCA-job geo_opt E -25.124653247370
  N      -0.669902     -1.239951      0.046825
  C      -0.232745      0.055798     -0.504066
  C       1.070195      0.481298      0.169273
  O       1.966915     -0.606632      0.095207
  C      -1.352065      1.110720     -0.121038
  O      -2.185714      0.664501      0.692043
  O      -1.271814      2.232327     -0.624359
  H      -1.049850     -1.865003     -0.666620
  H       0.110014     -1.699416      0.532140
  H      -1.447245     -0.940882      0.700390
  H      -0.102299      0.022984     -1.584491
  H       0.869645      0.746077      1.217299
  H       1.449748      1.372248     -0.339026
  H       2.845118     -0.334067      0.386424
14
Coordinates from ORCA-job geo_opt E -25.124661453760
  N      -0.672111     -1.239695      0.050462
  C      -0.231888      0.054727     -0.502024
  C       1.070592      0.480076      0.170808
  O       1.972486     -0.602747      0.080955
  C      -1.351280      1.111994     -0.122791
  O      -2.190842      0.666331      0.684072
  O      -1.265150      2.234028     -0.624504
  H      -1.042976     -1.869156     -0.663991
  H       0.102473     -1.695547      0.547084
  H      -1.456968     -0.940523      0.694458
  H      -0.100612      0.019505     -1.582222
  H       0.873346      0.731777      1.222648
  H       1.443242      1.378499     -0.329561
  H       2.849689     -0.329268      0.374604
14
Coordinates from ORCA-job geo_opt E -25.124665500420
  N      -0.673904     -1.239629      0.052841
  C      -0.231331      0.053833     -0.501035
  C       1.070962      0.479093      0.171313
  O       1.976312     -0.600454      0.072082
  C      -1.350674      1.112479     -0.123295
  O      -2.195145      0.665950      0.677804
  O      -1.259889      2.235859     -0.621190
  H      -1.036301     -1.873662     -0.661862
  H       0.096593     -1.690993      0.559242
  H      -1.465589     -0.938824      0.688302
  H      -0.099819      0.017497     -1.581046
  H       0.875964      0.722952      1.225362
  H       1.439745      1.381629     -0.324518
  H       2.853077     -0.325730      0.365998
14
Coordinates from ORCA-job geo_opt E -25.124668094000
  N      -0.674688     -1.239748      0.053535
  C      -0.231323      0.053425     -0.501053
  C       1.071286      0.478794      0.170312
  O       1.977971     -0.599825      0.068949
  C      -1.350440      1.112364     -0.122511
  O      -2.197714      0.664130      0.674746
  O      -1.257144      2.237396     -0.616043
  H      -1.031923     -1.876851     -0.660958
  H       0.094095     -1.687654      0.565234
  H      -1.470317     -0.937178      0.684300
  H      -0.100537      0.017135     -1.581069
  H       0.877435      0.721202      1.224804
  H       1.439287      1.381799     -0.325220
  H       2.854011     -0.324988      0.364976
14
Coordinates from ORCA-job geo_opt E -25.124669982480
  N      -0.675096     -1.239888      0.053734
  C      -0.231521      0.053238     -0.500925
  C       1.071852      0.478877      0.168656
  O       1.978645     -0.599936      0.068265
  C      -1.350322      1.111952     -0.121020
  O      -2.200391      0.661201      0.672062
  O      -1.254735      2.239038     -0.609142
  H      -1.027249     -1.879535     -0.660899
  H       0.092020     -1.685067      0.570060
  H      -1.474414     -0.935711      0.680326
  H      -0.102090      0.017392     -1.581123
  H       0.879051      0.723041      1.222875
  H       1.440093      1.380716     -0.328823
  H       2.854158     -0.325318      0.365954
14
Coordinates from ORCA-job geo_opt E -25.124670746060
  N      -0.675136     -1.239921      0.053814
  C      -0.231715      0.053270     -0.500467
  C       1.072417      0.479094      0.167564
  O       1.978646     -0.600203      0.068344
  C      -1.350341      1.111694     -0.119989
  O      -2.202280      0.659334      0.670373
  O      -1.253370      2.240007     -0.604869
  H      -1.024042     -1.880709     -0.661343
  H       0.090676     -1.684142      0.572867
  H      -1.476706     -0.935334      0.677962
  H      -0.103388      0.017715     -1.580878
  H       0.880452      0.725308      1.221471
  H       1.440777      1.379924     -0.331694
  H       2.854011     -0.326038      0.366844
14
Coordinates from ORCA-job geo_opt E -25.124671027160
  N      -0.674948     -1.239854      0.053818
  C      -0.231846      0.053446     -0.500104
  C       1.072826      0.479303      0.166996
  O       1.978288     -0.600504      0.068480
  C      -1.350460      1.111606     -0.119475
  O      -2.203153      0.658506      0.669767
  O      -1.253085      2.240378     -0.603176
  H      -1.022344     -1.880953     -0.661791
  H       0.090222     -1.683946      0.573987
  H      -1.477459     -0.935568      0.677004
  H      -0.104237      0.018075     -1.580667
  H       0.881360      0.726932      1.220696
  H       1.441223      1.379585     -0.333273
  H       2.853613     -0.327007      0.367738
