14
zwitterion conformer 1
N      -0.62017726    -1.26866218     0.06800664
C      -0.24133643    -0.00048175    -0.47797106
C       1.04761899     0.53510682     0.13618167
O       2.11627427    -0.30817927    -0.06526307
C      -1.27188394     1.03450463    -0.13739358
O      -2.17802582     0.80597377     0.70995281
O      -1.16423505     2.25041205    -0.81006204
H      -1.30633258    -1.70189220    -0.60266648
H       0.18266762    -1.91612392     0.17207260
H      -1.13210729    -1.14419233     0.96819586
H      -0.16750646     0.01042384    -1.57406503
H       0.90828062     0.74715335     1.20157529
H       1.24871529     1.51292211    -0.38064126
H       2.57804806    -0.55696492     0.79207765
