14
Coordinates from ORCA-job geo_opt E -399.167476491143
  N      -1.267216     -0.937649      0.238410
  C      -0.107603     -0.083501      0.555544
  C       1.170048     -0.478239     -0.200560
  O       2.258436      0.314010      0.203525
  C      -0.528670      1.383179      0.127342
  O      -1.706641      1.467127     -0.272231
  O       0.329686      2.268991      0.213156
  H      -1.964577     -0.195090     -0.091775
  H      -1.636962     -1.445089      1.044878
  H      -1.075267     -1.588410     -0.527817
  H       0.109399     -0.068617      1.624816
  H       1.455246     -1.509998      0.024939
  H       1.005577     -0.370390     -1.284003
  H       1.958542      1.243677      0.196313
14
Coordinates from ORCA-job geo_opt E -399.170372631231
  N      -1.264044     -0.938209      0.229815
  C      -0.099230     -0.071042      0.549786
  C       1.180143     -0.486119     -0.197961
  O       2.274929      0.323142      0.202232
  C      -0.531901      1.394237      0.132611
  O      -1.731430      1.494913     -0.252023
  O       0.339212      2.290796      0.219461
  H      -1.968619     -0.201038     -0.098172
  H      -1.628787     -1.454256      1.037225
  H      -1.074519     -1.595572     -0.536787
  H       0.102590     -0.076663      1.627895
  H       1.449856     -1.524996      0.043928
  H       1.006416     -0.408757     -1.288670
  H       1.945384      1.253565      0.183199
14
Coordinates from ORCA-job geo_opt E -399.170651980385
  N      -1.262099     -0.935026      0.224969
  C      -0.091674     -0.056248      0.550054
  C       1.184371     -0.483477     -0.195341
  O       2.283662      0.334293      0.207259
  C      -0.533379      1.399529      0.159134
  O      -1.731254      1.507433     -0.256337
  O       0.368932      2.284218      0.164416
  H      -1.985954     -0.209594     -0.069270
  H      -1.601680     -1.479358      1.025635
  H      -1.082445     -1.579698     -0.556000
  H       0.091741     -0.091485      1.632757
  H       1.437973     -1.526981      0.050158
  H       1.003581     -0.420791     -1.287471
  H       1.918225      1.257184      0.202576
14
Coordinates from ORCA-job geo_opt E -399.170664135999
  N      -1.258216     -0.929405      0.208371
  C      -0.077892     -0.036355      0.528266
  C       1.197186     -0.497237     -0.191436
  O       2.289551      0.354909      0.191903
  C      -0.512531      1.392928      0.125125
  O      -1.741709      1.542615     -0.201314
  O       0.374476      2.303623      0.232197
  H      -1.992501     -0.222810     -0.077858
  H      -1.581885     -1.479573      1.011964
  H      -1.085591     -1.584247     -0.566146
  H       0.075011     -0.079864      1.616771
  H       1.434740     -1.534118      0.095048
  H       1.014825     -0.489718     -1.285685
  H       1.864537      1.259250      0.165332
14
Coordinates from ORCA-job geo_opt E -399.171700607982
  N      -1.261081     -0.934156      0.214032
  C      -0.088932     -0.049153      0.537258
  C       1.189634     -0.491067     -0.190899
  O       2.280927      0.346548      0.197378
  C      -0.519894      1.394038      0.133251
  O      -1.737358      1.536775     -0.200307
  O       0.378967      2.283860      0.178803
  H      -1.990901     -0.218677     -0.073400
  H      -1.589610     -1.484180      1.015283
  H      -1.082837     -1.578315     -0.567135
  H       0.077756     -0.082783      1.622102
  H       1.441264     -1.527125      0.081002
  H       1.014179     -0.457014     -1.284078
  H       1.887886      1.261248      0.189248
14
Coordinates from ORCA-job geo_opt E -399.171836023014
  N      -1.262576     -0.932978      0.210259
  C      -0.090476     -0.049643      0.538192
  C       1.190488     -0.494053     -0.184890
  O       2.275798      0.356548      0.186283
  C      -0.515483      1.396492      0.139708
  O      -1.725665      1.544551     -0.207399
  O       0.388832      2.280015      0.185987
  H      -2.000952     -0.219974     -0.052718
  H      -1.577257     -1.501613      1.004010
  H      -1.089103     -1.559296     -0.586392
  H       0.069843     -0.086622      1.623822
  H       1.449778     -1.523730      0.103262
  H       1.014564     -0.477406     -1.278320
  H       1.872210      1.267710      0.170736
14
Coordinates from ORCA-job geo_opt E -399.171971558816
  N      -1.262292     -0.931307      0.203952
  C      -0.091632     -0.045433      0.533848
  C       1.192841     -0.498169     -0.177976
  O       2.271898      0.363281      0.180096
  C      -0.511152      1.400045      0.135426
  O      -1.724536      1.564574     -0.176268
  O       0.408444      2.270011      0.146721
  H      -2.016623     -0.230290     -0.025234
  H      -1.551161     -1.527910      0.987000
  H      -1.095656     -1.531359     -0.614194
  H       0.057117     -0.082671      1.621150
  H       1.454613     -1.521874      0.128056
  H       1.020502     -0.497934     -1.272216
  H       1.847638      1.269036      0.182180
14
Coordinates from ORCA-job geo_opt E -399.172039546809
  N      -1.261966     -0.930076      0.198755
  C      -0.093135     -0.043518      0.532028
  C       1.194477     -0.503042     -0.170424
  O       2.271086      0.367409      0.170906
  C      -0.509392      1.403774      0.133658
  O      -1.722811      1.576474     -0.164174
  O       0.413297      2.271492      0.151941
  H      -2.026935     -0.237442     -0.009359
  H      -1.535221     -1.546585      0.971961
  H      -1.099080     -1.509733     -0.634823
  H       0.048180     -0.078544      1.620422
  H       1.458123     -1.520488      0.153948
  H       1.022550     -0.522526     -1.264686
  H       1.840828      1.272806      0.162386
14
Coordinates from ORCA-job geo_opt E -399.172070568711
  N      -1.260491     -0.929614      0.196845
  C      -0.093808     -0.040844      0.530457
  C       1.195101     -0.505456     -0.166162
  O       2.272952      0.365667      0.171070
  C      -0.510481      1.407001      0.130084
  O      -1.726706      1.583486     -0.154539
  O       0.415263      2.273539      0.142467
  H      -2.034653     -0.244179      0.004478
  H      -1.521021     -1.561576      0.962063
  H      -1.101475     -1.493669     -0.648515
  H       0.043638     -0.072030      1.619749
  H       1.455698     -1.521672      0.165121
  H       1.023505     -0.532354     -1.260660
  H       1.842479      1.271699      0.160083
14
Coordinates from ORCA-job geo_opt E -399.172087486060
  N      -1.259152     -0.929430      0.195909
  C      -0.095040     -0.038969      0.529896
  C       1.195053     -0.506779     -0.161932
  O       2.274150      0.363224      0.174558
  C      -0.511841      1.409311      0.127286
  O      -1.730607      1.587868     -0.146981
  O       0.416479      2.273997      0.130775
  H      -2.041080     -0.249864      0.018311
  H      -1.508512     -1.576241      0.952555
  H      -1.104463     -1.477738     -0.660885
  H       0.039817     -0.065400      1.619869
  H       1.452938     -1.522611      0.173111
  H       1.024535     -0.537545     -1.256702
  H       1.847723      1.270178      0.156769
14
Coordinates from ORCA-job geo_opt E -399.172094163671
  N      -1.258570     -0.929320      0.196196
  C      -0.095786     -0.037838      0.529466
  C       1.195031     -0.507085     -0.159715
  O       2.274652      0.360811      0.179732
  C      -0.512585      1.410033      0.124875
  O      -1.732788      1.588951     -0.144254
  O       0.416495      2.273665      0.120992
  H      -2.044749     -0.252613      0.029031
  H      -1.500514     -1.585332      0.947364
  H      -1.107977     -1.467771     -0.667700
  H       0.037752     -0.061173      1.619758
  H       1.451004     -1.523496      0.175028
  H       1.026484     -0.537056     -1.254823
  H       1.851551      1.268222      0.156589
14
Coordinates from ORCA-job geo_opt E -399.172097541417
  N      -1.258604     -0.929222      0.196395
  C      -0.096392     -0.037121      0.529019
  C       1.195243     -0.507069     -0.157837
  O       2.274808      0.359330      0.185380
  C      -0.512863      1.409939      0.122854
  O      -1.734280      1.589458     -0.141377
  O       0.416717      2.272412      0.111714
  H      -2.047397     -0.253868      0.037945
  H      -1.494604     -1.592152      0.943400
  H      -1.111840     -1.460340     -0.672739
  H       0.035743     -0.058922      1.619551
  H       1.449910     -1.524092      0.175839
  H       1.029266     -0.535479     -1.253315
  H       1.854293      1.267128      0.155711
14
Coordinates from ORCA-job geo_opt E -399.172098745738
  N      -1.258956     -0.929174      0.196572
  C      -0.096556     -0.036964      0.528678
  C       1.195491     -0.507019     -0.157151
  O       2.274789      0.358663      0.188784
  C      -0.512856      1.409607      0.121610
  O      -1.734773      1.589233     -0.140343
  O       0.416561      2.271811      0.107268
  H      -2.048315     -0.253608      0.042052
  H      -1.492300     -1.594522      0.942248
  H      -1.114136     -1.457752     -0.674417
  H       0.034951     -0.058706      1.619289
  H       1.449719     -1.524475      0.175331
  H       1.031268     -0.533786     -1.252864
  H       1.855113      1.266691      0.155482
14
Coordinates from ORCA-job geo_opt E -399.172099137666
  N      -1.259312     -0.929128      0.196447
  C      -0.096553     -0.037062      0.528514
  C       1.195702     -0.507079     -0.156797
  O       2.274692      0.358756      0.190196
  C      -0.512763      1.409377      0.121133
  O      -1.734939      1.589186     -0.139305
  O       0.416677      2.271456      0.105311
  H      -2.048526     -0.253032      0.043372
  H      -1.491645     -1.595099      0.941869
  H      -1.115165     -1.457012     -0.675048
  H       0.034580     -0.059286      1.619159
  H       1.450016     -1.524596      0.175346
  H       1.032340     -0.533309     -1.252624
  H       1.854895      1.266828      0.154964
