14
Coordinates from ORCA-job geo_opt E -399.172099137666
  N          -1.25931228305998     -0.92912790547537      0.19644717536137
  C          -0.09655319566548     -0.03706221550713      0.52851373639539
  C           1.19570168985441     -0.50707892520149     -0.15679739010779
  O           2.27469203747195      0.35875616429799      0.19019632498470
  C          -0.51276257695850      1.40937675283075      0.12113287411373
  O          -1.73493874547781      1.58918595430167     -0.13930478525661
  O           0.41667700134729      2.27145581869530      0.10531135435322
  H          -2.04852606718003     -0.25303185308850      0.04337195560806
  H          -1.49164489796743     -1.59509878217665      0.94186948200319
  H          -1.11516456185405     -1.45701183646713     -0.67504761146446
  H           0.03458036292906     -0.05928611670379      1.61915932420005
  H           1.45001631950474     -1.52459587312167      0.17534630660333
  H           1.03234031059863     -0.53330923214968     -1.25262375547556
  H           1.85489459645719      1.26682802976571      0.15496413868138
