14
zwitterion conformer 2
N      -1.26721604    -0.93764939     0.23840995
C      -0.10760289    -0.08350079     0.55554447
C       1.17004803    -0.47823941    -0.20056005
O       2.25843596     0.31400952     0.20352524
C      -0.52866959     1.38317895     0.12734227
O      -1.70664073     1.46712674    -0.27223076
O       0.32968650     2.26899100     0.21315629
H      -1.96457693    -0.19508998    -0.09177509
H      -1.63696163    -1.44508854     1.04487789
H      -1.07526706    -1.58841035    -0.52781674
H       0.10939916    -0.06861659     1.62481593
H       1.45524588    -1.50999789     0.02493888
H       1.00557743    -0.37039042    -1.28400261
H       1.95854190     1.24367713     0.19631346
