17
Coordinates from ORCA-job geo_opt E -30.655796425840
  N      -2.421085      0.116506     -0.051268
  C      -1.424490      0.924099      0.532534
  C      -0.039283      0.477518      0.456401
  O       0.851154      1.223228      0.991665
  N       0.362093     -0.712946     -0.165861
  C       1.781613     -1.074208     -0.189368
  C       2.600689     -0.042753     -0.889267
  O       3.842956     -0.228366     -0.982116
  O       2.081348      1.099943     -1.440016
  H      -2.252700     -0.901757     -0.101858
  H      -2.677047      0.437229     -1.019284
  H      -3.332302      0.245362      0.483100
  H      -1.491261      1.961828      0.098143
  H      -1.642323      1.091135      1.628154
  H      -0.329954     -1.351817     -0.615413
  H       2.139417     -1.243246      0.858574
  H       1.951175     -2.021756     -0.721238
17
Coordinates from ORCA-job geo_opt E -30.684824792210
  N      -2.426684      0.101487     -0.090915
  C      -1.425623      0.929042      0.559896
  C      -0.009256      0.490379      0.509936
  O       0.845049      1.189848      1.088408
  N       0.363240     -0.659430     -0.115131
  C       1.761974     -1.032733     -0.177170
  C       2.605511     -0.036855     -0.932306
  O       3.828273     -0.272578     -1.054516
  O       2.076336      0.996075     -1.510990
  H      -2.231004     -0.906807     -0.135927
  H      -2.631764      0.418067     -1.056083
  H      -3.341073      0.203221      0.396565
  H      -1.466724      1.959022      0.161425
  H      -1.656144      1.052021      1.635643
  H      -0.318112     -1.265740     -0.558474
  H       2.145827     -1.175988      0.846280
  H       1.880174     -1.989031     -0.693760
17
Coordinates from ORCA-job geo_opt E -30.694164233250
  N      -2.418838      0.090948     -0.120072
  C      -1.420971      0.938201      0.569808
  C       0.027169      0.491598      0.560192
  O       0.848562      1.171659      1.157451
  N       0.358510     -0.637280     -0.064224
  C       1.739459     -1.025819     -0.179205
  C       2.579310     -0.026048     -0.988432
  O       3.799888     -0.269033     -1.098523
  O       2.009333      0.948881     -1.468312
  H      -2.202120     -0.911076     -0.109338
  H      -2.547613      0.375578     -1.098555
  H      -3.339549      0.202803      0.320644
  H      -1.428528      1.948922      0.165091
  H      -1.672903      1.045479      1.625240
  H      -0.322821     -1.212471     -0.520863
  H       2.175612     -1.147472      0.815363
  H       1.815498     -1.984870     -0.693380
17
Coordinates from ORCA-job geo_opt E -30.696406956800
  N      -2.385980      0.117916     -0.175375
  C      -1.425945      0.931008      0.609111
  C       0.029955      0.464820      0.672015
  O       0.804670      1.098450      1.375101
  N       0.368988     -0.645232      0.010743
  C       1.754991     -1.006191     -0.143216
  C       2.530911      0.001097     -1.044638
  O       3.744229     -0.256350     -1.208560
  O       1.849320      0.801806     -1.691985
  H      -2.188269     -0.887557     -0.130619
  H      -2.393922      0.402998     -1.162389
  H      -3.338061      0.258736      0.185590
  H      -1.386274      1.950823      0.230832
  H      -1.744823      0.993758      1.649591
  H      -0.297809     -1.184004     -0.516006
  H       2.246032     -1.056954      0.832218
  H       1.831987     -1.985125     -0.619530
17
Coordinates from ORCA-job geo_opt E -30.699439600010
  N      -2.361580      0.133772     -0.201564
  C      -1.412394      0.929489      0.615702
  C       0.036603      0.419975      0.738788
  O       0.787999      1.023853      1.498785
  N       0.367714     -0.690421      0.061715
  C       1.755647     -1.027648     -0.139889
  C       2.452980     -0.030041     -1.147411
  O       3.695189     -0.150043     -1.220209
  O       1.708899      0.811394     -1.716621
  H      -2.221210     -0.874141     -0.067952
  H      -2.254343      0.354475     -1.199817
  H      -3.327727      0.353714      0.080005
  H      -1.314299      1.939798      0.217012
  H      -1.773487      1.006434      1.643314
  H      -0.287055     -1.176663     -0.531906
  H       2.304791     -0.995149      0.805214
  H       1.842276     -2.028797     -0.562285
17
Coordinates from ORCA-job geo_opt E -30.701678034390
  N      -2.361466      0.121880     -0.183987
  C      -1.400871      0.927725      0.605618
  C       0.034695      0.385917      0.751384
  O       0.796555      0.990789      1.496080
  N       0.360397     -0.712075      0.059594
  C       1.749681     -1.038713     -0.142038
  C       2.434768      0.003061     -1.115453
  O       3.669866     -0.108254     -1.219116
  O       1.675575      0.828019     -1.660640
  H      -2.278296     -0.876301      0.042179
  H      -2.200119      0.254737     -1.189876
  H      -3.321151      0.416445      0.042914
  H      -1.270123      1.914548      0.160284
  H      -1.765733      1.056098      1.626231
  H      -0.268402     -1.121683     -0.612424
  H       2.297141     -1.015229      0.801560
  H       1.847483     -2.026962     -0.589427
17
Coordinates from ORCA-job geo_opt E -30.703304505760
  N      -2.352737      0.104282     -0.160091
  C      -1.396302      0.929264      0.603537
  C       0.035122      0.385797      0.729206
  O       0.789915      0.941034      1.517286
  N       0.346430     -0.715246      0.035686
  C       1.738288     -1.047847     -0.140090
  C       2.424317      0.011801     -1.092761
  O       3.651062     -0.094858     -1.225420
  O       1.658356      0.820553     -1.629833
  H      -2.317202     -0.873420      0.157107
  H      -2.140837      0.150839     -1.163978
  H      -3.305032      0.457782      0.001978
  H      -1.267821      1.904763      0.131730
  H      -1.753047      1.076733      1.624074
  H      -0.228453     -1.005394     -0.740528
  H       2.271027     -1.010587      0.809338
  H       1.846912     -2.035497     -0.584360
17
Coordinates from ORCA-job geo_opt E -30.703916066870
  N      -2.339650      0.098721     -0.157396
  C      -1.387537      0.925927      0.606386
  C       0.029567      0.360271      0.752867
  O       0.782989      0.889276      1.561761
  N       0.337368     -0.736564      0.040603
  C       1.735302     -1.050410     -0.135676
  C       2.395643      0.014015     -1.102182
  O       3.620332     -0.076055     -1.264675
  O       1.607542      0.823463     -1.619505
  H      -2.361750     -0.857639      0.220666
  H      -2.076803      0.076257     -1.149443
  H      -3.281194      0.503660     -0.068537
  H      -1.242142      1.893061      0.120303
  H      -1.755663      1.096356      1.618452
  H      -0.190890     -0.930696     -0.798531
  H       2.268444     -0.986736      0.812105
  H       1.858441     -2.042905     -0.564315
17
Coordinates from ORCA-job geo_opt E -30.704239202140
  N      -2.336340      0.095701     -0.159734
  C      -1.396987      0.922376      0.621625
  C       0.022752      0.371455      0.763266
  O       0.766937      0.879931      1.593136
  N       0.340531     -0.720279      0.034788
  C       1.740778     -1.039879     -0.130648
  C       2.403494     -0.011935     -1.127016
  O       3.625139     -0.124293     -1.313279
  O       1.623525      0.812554     -1.641001
  H      -2.364150     -0.862850      0.210937
  H      -2.063624      0.076920     -1.149130
  H      -3.279927      0.500918     -0.090600
  H      -1.271648      1.903347      0.156982
  H      -1.771021      1.074097      1.634873
  H      -0.169005     -0.880180     -0.824780
  H       2.268368     -0.950735      0.819148
  H       1.861177     -2.047148     -0.525684
17
Coordinates from ORCA-job geo_opt E -30.704432382360
  N      -2.330633      0.097013     -0.170368
  C      -1.407237      0.914808      0.641781
  C       0.016596      0.378490      0.785980
  O       0.749054      0.869711      1.634499
  N       0.347114     -0.697105      0.035156
  C       1.747256     -1.020971     -0.122628
  C       2.408065     -0.043248     -1.163500
  O       3.625602     -0.185300     -1.368997
  O       1.635826      0.784805     -1.686936
  H      -2.357461     -0.869811      0.177469
  H      -2.047405      0.098629     -1.157421
  H      -3.277855      0.496101     -0.112977
  H      -1.301312      1.912793      0.209783
  H      -1.793589      1.035348      1.655104
  H      -0.149716     -0.829683     -0.836790
  H       2.272274     -0.895454      0.824950
  H       1.863422     -2.046126     -0.472222
17
Coordinates from ORCA-job geo_opt E -30.704612135300
  N      -2.322766      0.103807     -0.186719
  C      -1.422497      0.902602      0.670585
  C       0.007831      0.384431      0.817325
  O       0.723952      0.856423      1.688880
  N       0.357052     -0.662171      0.034749
  C       1.756481     -0.993151     -0.111828
  C       2.413475     -0.087017     -1.212712
  O       3.625899     -0.262847     -1.428260
  O       1.647553      0.725306     -1.768889
  H      -2.341286     -0.876323      0.121965
  H      -2.026795      0.144495     -1.169569
  H      -3.275638      0.489591     -0.134030
  H      -1.339408      1.921673      0.285924
  H      -1.825928      0.973105      1.682637
  H      -0.126963     -0.766559     -0.848224
  H       2.279828     -0.813986      0.828240
  H       1.869211     -2.039379     -0.397192
17
Coordinates from ORCA-job geo_opt E -30.704985420650
  N      -2.302747      0.125610     -0.221455
  C      -1.451883      0.874965      0.726718
  C      -0.010391      0.387201      0.879954
  O       0.671670      0.819509      1.797002
  N       0.377041     -0.593646      0.036751
  C       1.775331     -0.935033     -0.091863
  C       2.412668     -0.177981     -1.305405
  O       3.618185     -0.397378     -1.521838
  O       1.642773      0.568562     -1.940921
  H      -2.303226     -0.876541      0.006913
  H      -1.977520      0.248143     -1.188831
  H      -3.265935      0.485026     -0.175355
  H      -1.406569      1.926885      0.437015
  H      -1.888450      0.841760      1.727953
  H      -0.081505     -0.642995     -0.864726
  H       2.302851     -0.644077      0.817626
  H       1.887708     -2.010011     -0.246656
17
Coordinates from ORCA-job geo_opt E -30.705535788720
  N      -2.264899      0.170656     -0.275271
  C      -1.490697      0.826775      0.799254
  C      -0.034006      0.381965      0.967856
  O       0.596589      0.756572      1.944173
  N       0.409832     -0.492488      0.049155
  C       1.805964     -0.841933     -0.068749
  C       2.389489     -0.320577     -1.419525
  O       3.587417     -0.580805     -1.629820
  O       1.590866      0.285264     -2.157085
  H      -2.226519     -0.851671     -0.174700
  H      -1.903407      0.422255     -1.205156
  H      -3.243378      0.485018     -0.234898
  H      -1.505369      1.908154      0.653457
  H      -1.970063      0.635487      1.764111
  H      -0.021424     -0.464657     -0.866961
  H       2.350767     -0.391268      0.762314
  H       1.928837     -1.928745     -0.035274
17
Coordinates from ORCA-job geo_opt E -30.705665499410
  N      -2.232220      0.219429     -0.319981
  C      -1.504972      0.796450      0.828345
  C      -0.041271      0.360698      1.017769
  O       0.555053      0.722901      2.021335
  N       0.433638     -0.448127      0.075811
  C       1.827191     -0.792149     -0.044887
  C       2.341834     -0.397870     -1.465655
  O       3.545214     -0.612915     -1.670136
  O       1.484845      0.036880     -2.248309
  H      -2.147912     -0.805979     -0.317862
  H      -1.861199      0.573298     -1.212791
  H      -3.223872      0.481228     -0.261312
  H      -1.537861      1.884194      0.769530
  H      -2.011773      0.505950      1.754237
  H      -0.003504     -0.403367     -0.838203
  H       2.396226     -0.250505      0.712165
  H       1.980585     -1.870117      0.072826
17
Coordinates from ORCA-job geo_opt E -30.706244118070
  N      -2.222535      0.232192     -0.330598
  C      -1.520882      0.774385      0.851446
  C      -0.053692      0.357334      1.041341
  O       0.525436      0.677552      2.068285
  N       0.446958     -0.406300      0.066589
  C       1.841339     -0.750286     -0.043833
  C       2.334089     -0.461387     -1.495653
  O       3.529735     -0.709409     -1.715943
  O       1.469795     -0.042396     -2.282981
  H      -2.137724     -0.792870     -0.359429
  H      -1.835448      0.612535     -1.205469
  H      -3.215242      0.495031     -0.288660
  H      -1.580099      1.862907      0.841020
  H      -2.034290      0.438006      1.757834
  H       0.041778     -0.315190     -0.861710
  H       2.412063     -0.157551      0.672665
  H       1.998720     -1.814553      0.157979
17
Coordinates from ORCA-job geo_opt E -30.706611291340
  N      -2.239570      0.212802     -0.316352
  C      -1.523980      0.787528      0.843557
  C      -0.062993      0.366262      1.016036
  O       0.529129      0.673824      2.040823
  N       0.445683     -0.421477      0.041975
  C       1.841667     -0.770434     -0.032336
  C       2.343541     -0.440253     -1.479096
  O       3.529959     -0.697347     -1.744709
  O       1.487793      0.086284     -2.224123
  H      -2.183805     -0.813707     -0.305017
  H      -1.850177      0.550201     -1.205569
  H      -3.228338      0.498230     -0.282825
  H      -1.549560      1.878208      0.798943
  H      -2.025517      0.500060      1.770136
  H       0.083286     -0.363362     -0.914752
  H       2.418845     -0.212385      0.707680
  H       1.984037     -1.834432      0.158510
17
Coordinates from ORCA-job geo_opt E -30.707443543640
  N      -2.216493      0.236270     -0.337584
  C      -1.529167      0.770667      0.856482
  C      -0.069317      0.346546      1.041965
  O       0.507603      0.634727      2.081588
  N       0.449557     -0.409934      0.059375
  C       1.849294     -0.739996     -0.022503
  C       2.311974     -0.474789     -1.496494
  O       3.499819     -0.706283     -1.770063
  O       1.417688     -0.048930     -2.257791
  H      -2.152208     -0.789564     -0.362311
  H      -1.807445      0.607726     -1.204727
  H      -3.207667      0.512057     -0.312338
  H      -1.557409      1.861734      0.848930
  H      -2.048383      0.444410      1.760947
  H       0.100002     -0.318095     -0.898635
  H       2.432159     -0.133426      0.673529
  H       2.019995     -1.793120      0.212512
17
Coordinates from ORCA-job geo_opt E -30.707845482090
  N      -2.195941      0.253415     -0.353473
  C      -1.531641      0.761613      0.863164
  C      -0.077111      0.324621      1.059791
  O       0.492379      0.599171      2.108823
  N       0.447874     -0.414757      0.075152
  C       1.852673     -0.721728     -0.011195
  C       2.279997     -0.489485     -1.503534
  O       3.468700     -0.678705     -1.794067
  O       1.350078     -0.145816     -2.263948
  H      -2.135116     -0.771654     -0.394013
  H      -1.762120      0.636979     -1.203090
  H      -3.186836      0.530005     -0.343019
  H      -1.543046      1.852822      0.872403
  H      -2.067989      0.422344      1.752268
  H       0.113982     -0.310661     -0.890233
  H       2.440499     -0.082822      0.651506
  H       2.053619     -1.765342      0.246348
17
Coordinates from ORCA-job geo_opt E -30.707962258560
  N      -2.181329      0.276587     -0.368417
  C      -1.543507      0.743047      0.878825
  C      -0.087727      0.311095      1.080198
  O       0.468434      0.560009      2.143429
  N       0.457985     -0.388262      0.078508
  C       1.864223     -0.687697     -0.005803
  C       2.258713     -0.537764     -1.518061
  O       3.445430     -0.709583     -1.823625
  O       1.304291     -0.257784     -2.276843
  H      -2.111192     -0.745616     -0.446270
  H      -1.733047      0.693038     -1.194394
  H      -3.175099      0.543113     -0.366675
  H      -1.559164      1.833149      0.929312
  H      -2.091416      0.366766      1.745023
  H       0.139532     -0.277437     -0.895587
  H       2.462408     -0.009684      0.607962
  H       2.081466     -1.712978      0.305301
17
Coordinates from ORCA-job geo_opt E -30.707979284650
  N      -2.181646      0.278175     -0.366543
  C      -1.540660      0.750999      0.875527
  C      -0.089129      0.304618      1.078048
  O       0.474137      0.564741      2.136223
  N       0.450157     -0.405979      0.085581
  C       1.857990     -0.698905     -0.004038
  C       2.258255     -0.515955     -1.512484
  O       3.451997     -0.638666     -1.809490
  O       1.300792     -0.266643     -2.278660
  H      -2.118278     -0.745002     -0.434799
  H      -1.727028      0.684032     -1.193950
  H      -3.174397      0.547795     -0.367513
  H      -1.530511      1.841934      0.909288
  H      -2.093702      0.395325      1.746489
  H       0.120297     -0.337007     -0.889804
  H       2.459219     -0.029323      0.616248
  H       2.082507     -1.730139      0.282760
17
Coordinates from ORCA-job geo_opt E -30.708032320290
  N      -2.185479      0.278473     -0.364908
  C      -1.545658      0.744378      0.881040
  C      -0.089398      0.312504      1.077986
  O       0.469819      0.560195      2.140411
  N       0.457510     -0.381603      0.075458
  C       1.862244     -0.688136     -0.008210
  C       2.266107     -0.535055     -1.516893
  O       3.457552     -0.690816     -1.812406
  O       1.315637     -0.266467     -2.285380
  H      -2.117172     -0.743863     -0.442552
  H      -1.736120      0.693770     -1.190515
  H      -3.179291      0.545058     -0.363780
  H      -1.553910      1.834916      0.929459
  H      -2.093313      0.371930      1.748550
  H       0.130654     -0.304558     -0.899212
  H       2.466611     -0.014848      0.604868
  H       2.074207     -1.715879      0.298967
17
Coordinates from ORCA-job geo_opt E -30.708046911550
  N      -2.185754      0.280626     -0.365224
  C      -1.548333      0.739971      0.884487
  C      -0.091066      0.311339      1.080528
  O       0.465118      0.549201      2.146650
  N       0.461238     -0.368744      0.071725
  C       1.864719     -0.679333     -0.009892
  C       2.267019     -0.544666     -1.519667
  O       3.457733     -0.708902     -1.814964
  O       1.316797     -0.279813     -2.289573
  H      -2.120415     -0.741693     -0.446358
  H      -1.732885      0.697568     -1.188073
  H      -3.178601      0.550864     -0.367028
  H      -1.560792      1.830173      0.940399
  H      -2.096437      0.360645      1.748737
  H       0.136140     -0.292906     -0.902962
  H       2.471588     -0.000485      0.594325
  H       2.073931     -1.703847      0.309772
17
Coordinates from ORCA-job geo_opt E -30.708057311860
  N      -2.186452      0.283025     -0.365335
  C      -1.550553      0.735755      0.887549
  C      -0.093251      0.307084      1.083683
  O       0.459509      0.534251      2.153965
  N       0.464812     -0.356500      0.068453
  C       1.867508     -0.669793     -0.011721
  C       2.268093     -0.552076     -1.522552
  O       3.458519     -0.721651     -1.816702
  O       1.317849     -0.295073     -2.294594
  H      -2.128907     -0.739684     -0.447470
  H      -1.727055      0.697716     -1.185736
  H      -3.176963      0.561534     -0.371538
  H      -1.564065      1.825696      0.948858
  H      -2.100364      0.352372      1.748982
  H       0.139000     -0.287058     -0.905765
  H       2.476603      0.015277      0.583059
  H       2.075714     -1.690877      0.319744
17
Coordinates from ORCA-job geo_opt E -30.708060232370
  N      -2.186780      0.283692     -0.365409
  C      -1.550840      0.734729      0.888010
  C      -0.094116      0.304110      1.084845
  O       0.456871      0.527228      2.157013
  N       0.465933     -0.353688      0.067842
  C       1.868735     -0.666703     -0.011993
  C       2.268226     -0.552899     -1.523615
  O       3.458499     -0.722961     -1.817704
  O       1.317530     -0.299482     -2.295991
  H      -2.134655     -0.739375     -0.446177
  H      -1.723636      0.695159     -1.185344
  H      -3.175705      0.567547     -0.373601
  H      -1.562911      1.824675      0.949400
  H      -2.101741      0.351863      1.749004
  H       0.138541     -0.288118     -0.905904
  H       2.477897      0.020786      0.579909
  H       2.078152     -1.686563      0.322597
17
Coordinates from ORCA-job geo_opt E -30.708061436910
  N      -2.187072      0.283877     -0.365511
  C      -1.550787      0.734364      0.887937
  C      -0.094682      0.301816      1.085510
  O       0.454957      0.522731      2.158956
  N       0.466592     -0.353162      0.067824
  C       1.869651     -0.665228     -0.011873
  C       2.268239     -0.552734     -1.524333
  O       3.458261     -0.722908     -1.818847
  O       1.317087     -0.300825     -2.296550
  H      -2.139115     -0.739462     -0.444935
  H      -1.721423      0.692553     -1.185424
  H      -3.174836      0.571695     -0.374739
  H      -1.561267      1.824370      0.948435
  H      -2.102373      0.352753      1.749039
  H       0.137747     -0.289315     -0.905542
  H       2.478254      0.023767      0.578915
  H       2.080766     -1.684290      0.324022
17
Coordinates from ORCA-job geo_opt E -30.708061723420
  N      -2.187287      0.283645     -0.365493
  C      -1.550662      0.734455      0.887705
  C      -0.094805      0.301215      1.085538
  O       0.454355      0.521604      2.159392
  N       0.466818     -0.353545      0.067920
  C       1.869917     -0.665201     -0.011728
  C       2.268309     -0.552286     -1.524477
  O       3.458197     -0.722500     -1.819308
  O       1.317007     -0.300008     -2.296402
  H      -2.140853     -0.739811     -0.444203
  H      -1.720968      0.691077     -1.185634
  H      -3.174663      0.572809     -0.374861
  H      -1.560343      1.824519      0.947316
  H      -2.102333      0.353804      1.749148
  H       0.137426     -0.289575     -0.905267
  H       2.478146      0.023958      0.579293
  H       2.081739     -1.684161      0.323945
