17
Coordinates from ORCA-job geo_opt E -30.708061723420
  N          -2.18728737343994      0.28364470607743     -0.36549255854263
  C          -1.55066246183478      0.73445489211632      0.88770502070583
  C          -0.09480534131429      0.30121456384211      1.08553819050580
  O           0.45435466992318      0.52160442965648      2.15939166373441
  N           0.46681821823950     -0.35354505861205      0.06791956346119
  C           1.86991715599665     -0.66520077313475     -0.01172822019224
  C           2.26830905382072     -0.55228647606493     -1.52447678848516
  O           3.45819747226757     -0.72249968928654     -1.81930815214827
  O           1.31700663135462     -0.30000763241045     -2.29640234388128
  H          -2.14085282642419     -0.73981083163100     -0.44420345076874
  H          -1.72096752763502      0.69107701585340     -1.18563387658814
  H          -3.17466297889621      0.57280913159463     -0.37486112376889
  H          -1.56034309493488      1.82451933882290      0.94731615242389
  H          -2.10233311583994      0.35380437740475      1.74914789627049
  H           0.13742602373299     -0.28957490717234     -0.90526747424764
  H           2.47814625383649      0.02395795489611      0.57929273735717
  H           2.08173924114751     -1.68416104195208      0.32394512416423
