17
zwitterion conformer 2
N      -2.42108539     0.11650624    -0.05126803
C      -1.42449030     0.92409910     0.53253422
C      -0.03928285     0.47751789     0.45640107
O       0.85115406     1.22322830     0.99166505
N       0.36209317    -0.71294568    -0.16586082
C       1.78161325    -1.07420779    -0.18936790
C       2.60068867    -0.04275317    -0.88926655
O       3.84295647    -0.22836577    -0.98211566
O       2.08134846     1.09994271    -1.44001592
H      -2.25269973    -0.90175657    -0.10185824
H      -2.67704667     0.43722893    -1.01928428
H      -3.33230237     0.24536179     0.48309952
H      -1.49126143     1.96182818     0.09814266
H      -1.64232314     1.09113481     1.62815439
H      -0.32995384    -1.35181665    -0.61541309
H       2.13941703    -1.24324621     0.85857403
H       1.95117461    -2.02175611    -0.72123809
