17
zwitterion CPCM-opt conformer 2
C      -1.21438718    -0.18031392     1.14597644
C      -0.55668806    -0.83325011    -0.06645767
O      -1.42263306    -0.79276714    -1.22141068
C       0.75318918    -0.17486210    -0.52097539
N       0.50114780     1.22733531    -1.00644902
C       1.80656713    -0.08332783     0.62724290
O       2.25443673    -1.17446088     1.05561856
O       2.08961967     1.09131119     1.01490175
H      -0.56091092    -0.24556583     2.02723693
H      -2.15016169    -0.70757010     1.38270991
H      -1.45689388     0.87694025     0.96326734
H      -0.30116711    -1.87887473     0.17510821
H      -2.31752197    -1.04786617    -0.92984839
H       1.16688250    -0.75013448    -1.35798257
H       0.95966993     1.41356668    -1.90545659
H       0.95016462     1.82630875    -0.26964053
H      -0.50131373     1.43353113    -1.11384120
