20
zwitterion CPCM-opt conformer 1
N       1.59054387     0.98204545    -0.94496183
C       1.67546918    -0.31427268    -0.18335839
C       0.44414382    -1.19465881    -0.45319098
C      -0.85880089    -0.51200498    -0.16303170
C      -1.90667294    -0.90795214     0.64132242
N      -2.85457787     0.08851820     0.53609849
C      -2.37316581     1.04379388    -0.29986779
N      -1.16638669     0.71273201    -0.74855538
C       1.91100461     0.05074582     1.31965873
O       1.84784775    -0.89715501     2.14189172
O       2.18541491     1.26822126     1.55382534
H       2.08278023     0.96538381    -1.84408235
H       2.00667817     1.68556406    -0.29447146
H       0.57453963     1.22156720    -1.09491594
H       2.57734555    -0.83770622    -0.53038109
H       0.53881979    -2.09701591     0.16313495
H       0.47165403    -1.51879643    -1.50698478
H      -2.05930507    -1.78589379     1.25908556
H      -3.76092180     0.10230781     0.99715841
H      -2.92641046     1.94457649    -0.54837389
