27
Coordinates from ORCA-job geo_opt_tzvp E -686.682409580729
  N      -2.118890     -0.335065     -1.069927
  C      -2.502604      0.205807      0.285793
  C      -1.383241     -0.036857      1.317609
  C      -0.062656      0.586170      0.958528
  C       0.268814      1.928107      1.032130
  N       1.565231      2.118879      0.602232
  C       2.112969      0.906801      0.241720
  C       3.390979      0.594360     -0.240236
  C       3.666243     -0.744686     -0.513843
  C       2.691798     -1.749133     -0.310569
  C       1.421983     -1.436682      0.169397
  C       1.108016     -0.090431      0.453025
  C      -3.820583     -0.528017      0.689292
  O      -4.141362     -1.518646     -0.042995
  O      -4.419258     -0.087160      1.701243
  H      -2.345549      0.314532     -1.831449
  H      -2.736027     -1.185714     -1.155782
  H      -1.123491     -0.580941     -1.146193
  H      -2.692417      1.280001      0.178052
  H      -1.256785     -1.122890      1.452458
  H      -1.758076      0.357856      2.272455
  H      -0.326605      2.773474      1.366150
  H       2.042106      3.014400      0.572353
  H       4.141981      1.371541     -0.392442
  H       4.652315     -1.022782     -0.889839
  H       2.943112     -2.787950     -0.532274
  H       0.681997     -2.224973      0.324674
27
Coordinates from ORCA-job geo_opt_tzvp E -686.682413540083
  N      -2.113929     -0.335892     -1.067896
  C      -2.501841      0.205440      0.285299
  C      -1.384097     -0.034677      1.319251
  C      -0.063293      0.587643      0.960480
  C       0.269411      1.929192      1.034296
  N       1.565339      2.118844      0.603556
  C       2.111942      0.906980      0.241993
  C       3.389304      0.593838     -0.241422
  C       3.663252     -0.745318     -0.516200
  C       2.688204     -1.749177     -0.312652
  C       1.418922     -1.436087      0.168614
  C       1.106375     -0.089694      0.453664
  C      -3.819505     -0.529772      0.686809
  O      -4.136071     -1.522204     -0.043223
  O      -4.420861     -0.088690      1.696176
  H      -2.341227      0.311770     -1.830828
  H      -2.727902     -1.188872     -1.154000
  H      -1.117339     -0.578111     -1.141531
  H      -2.692738      1.279501      0.176156
  H      -1.257738     -1.120577      1.456429
  H      -1.760494      0.361998      2.272778
  H      -0.325030      2.775054      1.368854
  H       2.042700      3.014287      0.573327
  H       4.140795      1.370549     -0.393903
  H       4.648779     -1.023979     -0.893359
  H       2.938548     -2.788080     -0.535322
  H       0.678491     -2.223965      0.324218
27
Coordinates from ORCA-job geo_opt_tzvp E -686.682400884228
  N      -2.105271     -0.336707     -1.064464
  C      -2.500370      0.203908      0.285700
  C      -1.384913     -0.031261      1.323356
  C      -0.063925      0.589986      0.964460
  C       0.270843      1.930975      1.038552
  N       1.565804      2.118883      0.605501
  C       2.110308      0.907213      0.241809
  C       3.386257      0.592889     -0.244752
  C       3.657997     -0.746466     -0.521106
  C       2.682370     -1.749429     -0.315784
  C       1.414418     -1.435361      0.168658
  C       1.103959     -0.088623      0.455063
  C      -3.816514     -0.535904      0.684024
  O      -4.128469     -1.527478     -0.047368
  O      -4.429607     -0.087941      1.682429
  H      -2.336189      0.307357     -1.829354
  H      -2.711521     -1.195097     -1.151013
  H      -1.106161     -0.569952     -1.135021
  H      -2.694516      1.277464      0.175546
  H      -1.258386     -1.116716      1.464930
  H      -1.763611      0.368970      2.274568
  H      -0.321783      2.777561      1.374523
  H       2.043835      3.014072      0.574373
  H       4.138340      1.368819     -0.398467
  H       4.642328     -1.026044     -0.900802
  H       2.931145     -2.788484     -0.539679
  H       0.673634     -2.222634      0.325881
27
Coordinates from ORCA-job geo_opt_tzvp E -686.682411667168
  N      -2.100395     -0.334734     -1.064426
  C      -2.500162      0.204667      0.284492
  C      -1.386401     -0.027841      1.324917
  C      -0.064895      0.592168      0.966294
  C       0.271695      1.932720      1.040635
  N       1.566366      2.119034      0.606482
  C       2.109139      0.907089      0.241708
  C       3.384216      0.591408     -0.246290
  C       3.654152     -0.748213     -0.523154
  C       2.677774     -1.750193     -0.316697
  C       1.410691     -1.434939      0.169310
  C       1.101826     -0.087787      0.455802
  C      -3.815455     -0.538573      0.679972
  O      -4.117660     -1.536629     -0.046217
  O      -4.427554     -0.097078      1.681796
  H      -2.334101      0.307261     -1.830251
  H      -2.701270     -1.196686     -1.151698
  H      -1.099644     -0.561708     -1.133462
  H      -2.696612      1.277790      0.174195
  H      -1.260218     -1.112974      1.469391
  H      -1.766541      0.374798      2.274532
  H      -0.319548      2.779968      1.377359
  H       2.045177      3.013770      0.574904
  H       4.137014      1.366498     -0.400696
  H       4.637724     -1.028823     -0.904029
  H       2.925273     -2.789474     -0.540905
  H       0.669407     -2.221520      0.327601
27
Coordinates from ORCA-job geo_opt_tzvp E -686.682416010517
  N      -2.102203     -0.334614     -1.065238
  C      -2.500542      0.204930      0.284651
  C      -1.386156     -0.028136      1.324475
  C      -0.064664      0.591913      0.965446
  C       0.271541      1.932615      1.039579
  N       1.566699      2.119229      0.606202
  C       2.109708      0.906961      0.241832
  C       3.385146      0.591287     -0.245074
  C       3.655270     -0.748264     -0.521814
  C       2.678585     -1.750152     -0.316593
  C       1.411098     -1.434816      0.168086
  C       1.102180     -0.087816      0.454861
  C      -3.815556     -0.538370      0.681181
  O      -4.118270     -1.537336     -0.044697
  O      -4.427288     -0.096286      1.683598
  H      -2.337623      0.307081     -1.830834
  H      -2.702414     -1.196894     -1.151523
  H      -1.101447     -0.560892     -1.135859
  H      -2.696898      1.277970      0.174645
  H      -1.260009     -1.113197      1.468858
  H      -1.765750      0.374449      2.274224
  H      -0.320001      2.779684      1.376210
  H       2.045550      3.013897      0.575032
  H       4.138111      1.366351     -0.398691
  H       4.639165     -1.028863     -0.901792
  H       2.926209     -2.789418     -0.540629
  H       0.669559     -2.221314      0.325428
27
Coordinates from ORCA-job geo_opt_tzvp E -686.682418170455
  N      -2.097694     -0.332856     -1.064670
  C      -2.500212      0.205091      0.284579
  C      -1.387063     -0.025585      1.326640
  C      -0.065176      0.593356      0.967384
  C       0.272420      1.933714      1.041843
  N       1.567245      2.119351      0.606898
  C       2.108728      0.906664      0.241403
  C       3.383323      0.589975     -0.246969
  C       3.652073     -0.749778     -0.523967
  C       2.674900     -1.750902     -0.317557
  C       1.408210     -1.434591      0.168503
  C       1.100629     -0.087337      0.455504
  C      -3.813544     -0.542463      0.678926
  O      -4.109783     -1.544938     -0.045056
  O      -4.430590     -0.099654      1.678044
  H      -2.338982      0.305897     -1.830941
  H      -2.690029     -1.200212     -1.150607
  H      -1.094837     -0.550026     -1.135278
  H      -2.699118      1.277627      0.174853
  H      -1.261207     -1.110233      1.474121
  H      -1.767748      0.379667      2.274749
  H      -0.317992      2.781148      1.379533
  H       2.046656      3.013683      0.575152
  H       4.136755      1.364419     -0.401399
  H       4.635293     -1.031151     -0.905085
  H       2.921502     -2.790367     -0.541750
  H       0.666242     -2.220500      0.326706
27
Coordinates from ORCA-job geo_opt_tzvp E -686.682417934729
  N      -2.086141     -0.332039     -1.062634
  C      -2.499202      0.205088      0.283346
  C      -1.389519     -0.018052      1.331612
  C      -0.066592      0.597901      0.971777
  C       0.274925      1.937195      1.047649
  N       1.569518      2.119824      0.610833
  C       2.106671      0.906312      0.241559
  C       3.379513      0.586791     -0.249396
  C       3.643889     -0.753234     -0.529209
  C       2.664238     -1.751910     -0.322966
  C       1.399266     -1.432880      0.165748
  C       1.096025     -0.085203      0.455478
  C      -3.808402     -0.551476      0.674032
  O      -4.086987     -1.565860     -0.040231
  O      -4.439234     -0.103572      1.662560
  H      -2.343417      0.296620     -1.832152
  H      -2.657243     -1.212858     -1.145136
  H      -1.077997     -0.524798     -1.133033
  H      -2.703765      1.276294      0.171829
  H      -1.264419     -1.101476      1.488167
  H      -1.773487      0.394897      2.274989
  H      -0.312327      2.785564      1.388466
  H       2.051052      3.013013      0.579331
  H       4.134990      1.359271     -0.403606
  H       4.625657     -1.036781     -0.912438
  H       2.907587     -2.791697     -0.549147
  H       0.655401     -2.216934      0.324136
27
Coordinates from ORCA-job geo_opt_tzvp E -686.682389768701
  N      -2.034622     -0.332832     -1.051875
  C      -2.492862      0.204459      0.277501
  C      -1.400243      0.012646      1.352459
  C      -0.072467      0.616245      0.992569
  C       0.285232      1.950908      1.075122
  N       1.577904      2.121699      0.628556
  C       2.097106      0.905320      0.243203
  C       3.361732      0.574859     -0.261157
  C       3.607870     -0.765943     -0.553570
  C       2.618710     -1.754860     -0.346449
  C       1.361748     -1.425267      0.155735
  C       1.076928     -0.076305      0.458366
  C      -3.786767     -0.585185      0.651420
  O      -3.994135     -1.643476     -0.021312
  O      -4.473689     -0.119038      1.594071
  H      -2.347286      0.250836     -1.836513
  H      -2.522675     -1.260149     -1.118594
  H      -1.011638     -0.432394     -1.118248
  H      -2.718077      1.270018      0.154665
  H      -1.278914     -1.065268      1.545157
  H      -1.799007      0.456287      2.275338
  H      -0.289090      2.802917      1.428593
  H       2.067903      3.010274      0.597274
  H       4.124907      1.339549     -0.416077
  H       4.582812     -1.057870     -0.947737
  H       2.848250     -2.795610     -0.582257
  H       0.610368     -2.201819      0.315322
27
Coordinates from ORCA-job geo_opt_tzvp E -686.682411120948
  N      -2.072972     -0.335213     -1.060239
  C      -2.497330      0.204889      0.280684
  C      -1.392487     -0.010211      1.336442
  C      -0.067967      0.602487      0.977531
  C       0.278065      1.940381      1.056988
  N       1.571983      2.120353      0.617226
  C       2.104370      0.906322      0.242717
  C       3.374934      0.584367     -0.252462
  C       3.634586     -0.755718     -0.536467
  C       2.652662     -1.752102     -0.329994
  C       1.389969     -1.430669      0.163049
  C       1.091488     -0.082807      0.456858
  C      -3.803643     -0.557580      0.668175
  O      -4.064787     -1.585488     -0.032845
  O      -4.448824     -0.101302      1.643705
  H      -2.346275      0.280681     -1.834587
  H      -2.622069     -1.229497     -1.136793
  H      -1.060035     -0.503087     -1.129773
  H      -2.705464      1.274825      0.164219
  H      -1.268619     -1.092336      1.502555
  H      -1.780797      0.410950      2.274385
  H      -0.305785      2.789415      1.401963
  H       2.055821      3.012321      0.586404
  H       4.132258      1.355008     -0.406765
  H       4.614445     -1.041131     -0.923181
  H       2.892341     -2.791996     -0.559558
  H       0.644135     -2.212865      0.321325
27
Coordinates from ORCA-job geo_opt_tzvp E -686.682408137970
  N      -2.063604     -0.336371     -1.058164
  C      -2.496009      0.204778      0.279520
  C      -1.394450     -0.005102      1.340064
  C      -0.069005      0.605418      0.981449
  C       0.279669      1.942541      1.062119
  N       1.573282      2.120610      0.620831
  C       2.102661      0.906183      0.243395
  C       3.371730      0.582569     -0.254521
  C       3.628260     -0.757570     -0.541160
  C       2.644845     -1.752419     -0.334425
  C       1.383618     -1.429351      0.161327
  C       1.088216     -0.081325      0.457593
  C      -3.800285     -0.562183      0.664088
  O      -4.050220     -1.597456     -0.029843
  O      -4.454548     -0.102172      1.631866
  H      -2.346817      0.271220     -1.835535
  H      -2.598267     -1.239091     -1.131294
  H      -1.047875     -0.487959     -1.126813
  H      -2.706834      1.273846      0.160174
  H      -1.271370     -1.086390      1.512146
  H      -1.785422      0.421345      2.274495
  H      -0.302100      2.792148      1.409199
  H       2.058656      3.011765      0.590286
  H       4.130257      1.351987     -0.409015
  H       4.606857     -1.044249     -0.930128
  H       2.882165     -2.792420     -0.565940
  H       0.636589     -2.210351      0.319850
27
Coordinates from ORCA-job geo_opt_tzvp E -686.682400687809
  N      -2.038907     -0.345081     -1.052644
  C      -2.491870      0.203842      0.274636
  C      -1.399931      0.009263      1.348772
  C      -0.071468      0.613794      0.992318
  C       0.284868      1.948529      1.078403
  N       1.577759      2.121676      0.633327
  C       2.098794      0.906469      0.246888
  C       3.363680      0.578668     -0.258836
  C       3.611252     -0.761233     -0.554467
  C       2.623388     -1.751835     -0.348610
  C       1.366353     -1.424667      0.155089
  C       1.079953     -0.076641      0.460260
  C      -3.792000     -0.571592      0.653606
  O      -4.013807     -1.627580     -0.017624
  O      -4.469446     -0.098083      1.598932
  H      -2.346123      0.237879     -1.839822
  H      -2.537021     -1.268037     -1.113507
  H      -1.017426     -0.455770     -1.118909
  H      -2.707998      1.270475      0.143983
  H      -1.279156     -1.069536      1.537465
  H      -1.798796      0.450063      2.273087
  H      -0.291081      2.799372      1.432095
  H       2.067708      3.010415      0.604892
  H       4.125660      1.344740     -0.412906
  H       4.586224     -1.051064     -0.950160
  H       2.853766     -2.791755     -0.587355
  H       0.615626     -2.202312      0.312651
27
Coordinates from ORCA-job geo_opt_tzvp E -686.682409737628
  N      -2.056403     -0.339822     -1.056504
  C      -2.494668      0.204460      0.277993
  C      -1.396067     -0.001162      1.342521
  C      -0.069663      0.607623      0.984785
  C       0.281120      1.944067      1.067264
  N       1.574480      2.120904      0.624825
  C       2.101581      0.906324      0.244727
  C       3.369398      0.581709     -0.255741
  C       3.623422     -0.758303     -0.545275
  C       2.638818     -1.752054     -0.338872
  C       1.378801     -1.427966      0.159315
  C       1.085954     -0.080012      0.458526
  C      -3.798272     -0.563872      0.661074
  O      -4.040407     -1.605728     -0.025453
  O      -4.459277     -0.098679      1.621792
  H      -2.346606      0.260572     -1.836907
  H      -2.580877     -1.248389     -1.125751
  H      -1.038897     -0.479867     -1.124384
  H      -2.706302      1.272900      0.154524
  H      -1.273737     -1.081828      1.519149
  H      -1.789343      0.429389      2.274088
  H      -0.299083      2.793948      1.416295
  H       2.061263      3.011332      0.595181
  H       4.128824      1.350267     -0.410092
  H       4.600956     -1.045738     -0.936361
  H       2.874199     -2.791982     -0.572684
  H       0.630784     -2.208093      0.317526
27
Coordinates from ORCA-job geo_opt_tzvp E -686.682410436689
  N      -2.057476     -0.340836     -1.056515
  C      -2.494547      0.204417      0.278103
  C      -1.395795     -0.002315      1.342057
  C      -0.069496      0.606849      0.984492
  C       0.280588      1.943494      1.066672
  N       1.573979      2.120845      0.624553
  C       2.101743      0.906441      0.244844
  C       3.369780      0.582365     -0.255437
  C       3.624442     -0.757544     -0.544877
  C       2.640230     -1.751720     -0.338596
  C       1.379992     -1.428163      0.159392
  C       1.086514     -0.080328      0.458552
  C      -3.799253     -0.561820      0.661635
  O      -4.044349     -1.602220     -0.026036
  O      -4.458202     -0.096532      1.623667
  H      -2.344716      0.261142     -1.836783
  H      -2.585696     -1.247291     -1.126340
  H      -1.040546     -0.485119     -1.123763
  H      -2.704840      1.273095      0.154262
  H      -1.273449     -1.083188      1.517448
  H      -1.788732      0.427283      2.274220
  H      -0.300131      2.793202      1.415269
  H       2.060523      3.011411      0.595118
  H       4.128868      1.351266     -0.409745
  H       4.602158     -1.044557     -0.935820
  H       2.876100     -2.791551     -0.572351
  H       0.632310     -2.208627      0.317540
