27
Coordinates from ORCA-job geo_opt_tzvp E -686.682410436689
  N          -2.05747586177649     -0.34083599191581     -1.05651469823666
  C          -2.49454673131005      0.20441664299893      0.27810253728082
  C          -1.39579450543218     -0.00231515520579      1.34205714735689
  C          -0.06949583318601      0.60684908169773      0.98449237143361
  C           0.28058823527222      1.94349438761804      1.06667223493875
  N           1.57397939104102      2.12084529476176      0.62455343106138
  C           2.10174335431926      0.90644050397953      0.24484357904011
  C           3.36978018982944      0.58236504568567     -0.25543670978526
  C           3.62444203712075     -0.75754440191835     -0.54487708550034
  C           2.64022969972954     -1.75171984782171     -0.33859616097415
  C           1.37999162981938     -1.42816262454755      0.15939192694845
  C           1.08651392051921     -0.08032762369738      0.45855202370284
  C          -3.79925324843837     -0.56181984239909      0.66163509371767
  O          -4.04434898590908     -1.60221958491583     -0.02603579197753
  O          -4.45820237823246     -0.09653172230521      1.62366708074732
  H          -2.34471611170597      0.26114207229217     -1.83678338774280
  H          -2.58569580617404     -1.24729129224870     -1.12634046728112
  H          -1.04054632352190     -0.48511878472352     -1.12376319556702
  H          -2.70483997541615      1.27309512281144      0.15426236815862
  H          -1.27344902183421     -1.08318833145139      1.51744782230376
  H          -1.78873165179610      0.42728290396348      2.27422037020933
  H          -0.30013098986070      2.79320222284783      1.41526937900805
  H           2.06052289619620      3.01141087031368      0.59511832691547
  H           4.12886833520506      1.35126578750354     -0.40974495732176
  H           4.60215805187330     -1.04455708488913     -0.93581966794430
  H           2.87609986209275     -2.79155072654027     -0.57235078215777
  H           0.63230983157557     -2.20862695189407      0.31754047166564
