27
zwitterion conformer 3
N      -2.11889042    -0.33506462    -1.06992661
C      -2.50260449     0.20580672     0.28579284
C      -1.38324062    -0.03685664     1.31760934
C      -0.06265607     0.58616998     0.95852769
C       0.26881426     1.92810707     1.03213017
N       1.56523097     2.11887873     0.60223203
C       2.11296906     0.90680128     0.24171992
C       3.39097885     0.59435978    -0.24023586
C       3.66624328    -0.74468622    -0.51384324
C       2.69179771    -1.74913343    -0.31056930
C       1.42198275    -1.43668245     0.16939694
C       1.10801602    -0.09043096     0.45302494
C      -3.82058339    -0.52801684     0.68929200
O      -4.14136213    -1.51864623    -0.04299514
O      -4.41925756    -0.08715969     1.70124275
H      -2.34554933     0.31453239    -1.83144865
H      -2.73602653    -1.18571377    -1.15578208
H      -1.12349088    -0.58094115    -1.14619290
H      -2.69241725     1.28000067     0.17805201
H      -1.25678514    -1.12289045     1.45245837
H      -1.75807582     0.35785601     2.27245495
H      -0.32660507     2.77347420     1.36615033
H       2.04210648     3.01440037     0.57235319
H       4.14198116     1.37154078    -0.39244152
H       4.65231513    -1.02278209    -0.88983947
H       2.94311239    -2.78795018    -0.53227368
H       0.68199665    -2.22497329     0.32467424
