20
Coordinates from ORCA-job geo_opt E -34.337145103350
  N      -1.070769     -0.786280     -1.248636
  C      -1.083165      0.299052     -0.309685
  C      -0.165946     -0.080405      0.860191
  C       1.198866     -0.298335      0.309411
  C       1.764551     -1.466250     -0.168993
  N       3.037700     -1.216490     -0.577587
  C       3.244977      0.098204     -0.348376
  N       2.147255      0.658794      0.184028
  C      -2.450401      0.561173      0.205250
  O      -3.463995     -0.098210     -0.149443
  O      -2.648256      1.574046      1.120796
  H      -1.371238     -1.685960     -0.812967
  H      -1.779731     -0.582448     -2.009381
  H      -0.668316      1.200253     -0.797579
  H      -0.554034     -0.951581      1.397504
  H      -0.156042      0.802444      1.531521
  H       1.238503     -2.404986     -0.194078
  H       4.206085      0.564027     -0.592462
  H       2.063025      1.670154      0.449642
  H      -3.489069      2.142798      1.150845
20
Coordinates from ORCA-job geo_opt E -34.355125484010
  N      -1.142500     -0.789776     -1.302227
  C      -1.121120      0.288478     -0.340224
  C      -0.165355     -0.070246      0.832929
  C       1.212168     -0.299283      0.315436
  C       1.811905     -1.457275     -0.130732
  N       3.084125     -1.203885     -0.521461
  C       3.262349      0.092528     -0.318655
  N       2.156224      0.664911      0.185196
  C      -2.480828      0.582827      0.209249
  O      -3.487449     -0.051467     -0.094121
  O      -2.579342      1.585378      1.099394
  H      -1.436653     -1.660619     -0.868567
  H      -1.840010     -0.588637     -2.019706
  H      -0.729510      1.183745     -0.838037
  H      -0.539750     -0.939581      1.367960
  H      -0.165071      0.790610      1.512667
  H       1.327212     -2.410750     -0.159431
  H       4.196549      0.563742     -0.547908
  H       2.061427      1.646318      0.418825
  H      -3.424370      2.072983      1.199414
20
Coordinates from ORCA-job geo_opt E -34.361058820470
  N      -1.177462     -0.792373     -1.330722
  C      -1.139792      0.281609     -0.357785
  C      -0.169694     -0.061780      0.809881
  C       1.210442     -0.305203      0.316857
  C       1.830929     -1.457170     -0.103707
  N       3.106307     -1.199029     -0.480152
  C       3.267407      0.086489     -0.299778
  N       2.152167      0.671868      0.179998
  C      -2.500706      0.600723      0.217088
  O      -3.506037     -0.009633     -0.066760
  O      -2.510140      1.611037      1.067298
  H      -1.464612     -1.655079     -0.887929
  H      -1.868887     -0.591640     -2.037737
  H      -0.763339      1.177474     -0.860822
  H      -0.539440     -0.937529      1.337592
  H      -0.176179      0.784211      1.497670
  H       1.386438     -2.429996     -0.135722
  H       4.189663      0.575474     -0.517237
  H       2.045099      1.645799      0.392584
  H      -3.372165      2.004747      1.259383
20
Coordinates from ORCA-job geo_opt E -34.363515508120
  N      -1.187147     -0.787952     -1.350433
  C      -1.141578      0.284915     -0.377001
  C      -0.177172     -0.054794      0.791076
  C       1.205588     -0.314210      0.318761
  C       1.840711     -1.467990     -0.062534
  N       3.119211     -1.207521     -0.437576
  C       3.265774      0.080251     -0.294217
  N       2.140965      0.674083      0.160982
  C      -2.510367      0.631270      0.199401
  O      -3.520900      0.027057     -0.073771
  O      -2.466656      1.641782      1.039415
  H      -1.478984     -1.646291     -0.899075
  H      -1.873917     -0.581382     -2.063406
  H      -0.766482      1.179889     -0.884551
  H      -0.551622     -0.937901      1.308491
  H      -0.187412      0.783431      1.486963
  H       1.431577     -2.457202     -0.077294
  H       4.178839      0.590662     -0.512481
  H       2.017090      1.653737      0.345671
  H      -3.337520      1.908166      1.381580
20
Coordinates from ORCA-job geo_opt E -34.363836505260
  N      -1.181140     -0.776917     -1.348257
  C      -1.134086      0.284324     -0.365204
  C      -0.177815     -0.074889      0.797092
  C       1.205052     -0.329799      0.321636
  C       1.851134     -1.480026     -0.045963
  N       3.126992     -1.208046     -0.430726
  C       3.257887      0.085570     -0.306305
  N       2.126273      0.669907      0.145030
  C      -2.506132      0.631843      0.213803
  O      -3.524098      0.045333     -0.084119
  O      -2.469516      1.680778      1.010379
  H      -1.477543     -1.640021     -0.904848
  H      -1.866351     -0.557869     -2.062142
  H      -0.756702      1.186635     -0.862034
  H      -0.553346     -0.971230      1.294077
  H      -0.187548      0.750161      1.510334
  H       1.466022     -2.479279     -0.047313
  H       4.160116      0.615939     -0.532210
  H       1.985205      1.651645      0.317584
  H      -3.344405      1.915940      1.379189
20
Coordinates from ORCA-job geo_opt E -34.364019242430
  N      -1.171693     -0.762989     -1.356620
  C      -1.125399      0.295267     -0.372854
  C      -0.185283     -0.077669      0.793985
  C       1.199867     -0.335719      0.324325
  C       1.853912     -1.489195     -0.014479
  N       3.128932     -1.215702     -0.406490
  C       3.249344      0.083529     -0.314089
  N       2.112223      0.667137      0.123278
  C      -2.500758      0.651508      0.194305
  O      -3.516683      0.047697     -0.084806
  O      -2.463965      1.676425      1.026051
  H      -1.477607     -1.626664     -0.917797
  H      -1.850652     -0.536052     -2.076324
  H      -0.739842      1.197836     -0.864782
  H      -0.568145     -0.978525      1.278679
  H      -0.195068      0.742253      1.514637
  H       1.483871     -2.494126      0.007321
  H       4.144712      0.623057     -0.551252
  H       1.958951      1.652344      0.272795
  H      -3.336717      1.879588      1.424118
20
Coordinates from ORCA-job geo_opt E -34.364126596980
  N      -1.168516     -0.750338     -1.361249
  C      -1.122722      0.299083     -0.367726
  C      -0.186059     -0.087007      0.798287
  C       1.200005     -0.340956      0.327262
  C       1.860856     -1.493991      0.000637
  N       3.132629     -1.216795     -0.398788
  C       3.244512      0.083621     -0.322787
  N       2.105350      0.664511      0.112250
  C      -2.497253      0.649162      0.200808
  O      -3.511862      0.046267     -0.081553
  O      -2.467762      1.675152      1.031019
  H      -1.475507     -1.617776     -0.932142
  H      -1.845803     -0.516771     -2.079766
  H      -0.736192      1.206079     -0.849810
  H      -0.569733     -0.992019      1.273091
  H      -0.195485      0.725463      1.526974
  H       1.499369     -2.501524      0.034724
  H       4.134293      0.626928     -0.569154
  H       1.945336      1.649758      0.251009
  H      -3.345456      1.891155      1.406916
20
Coordinates from ORCA-job geo_opt E -34.364240281320
  N      -1.155826     -0.710730     -1.378295
  C      -1.115179      0.313645     -0.358516
  C      -0.190348     -0.106964      0.805388
  C       1.198146     -0.354888      0.335216
  C       1.878334     -1.507814      0.053076
  N       3.142868     -1.224124     -0.365612
  C       3.230860      0.079079     -0.345213
  N       2.083524      0.656453      0.072947
  C      -2.491227      0.648799      0.210680
  O      -3.501950      0.043824     -0.078370
  O      -2.475092      1.672913      1.043108
  H      -1.465495     -1.588542     -0.974716
  H      -1.827396     -0.459420     -2.095209
  H      -0.725916      1.232689     -0.813513
  H      -0.578595     -1.023123      1.252332
  H      -0.199518      0.685255      1.555725
  H       1.543877     -2.522320      0.128337
  H       4.105486      0.632877     -0.618344
  H       1.902755      1.642276      0.172346
  H      -3.359307      1.890114      1.398632
20
Coordinates from ORCA-job geo_opt E -34.364291942750
  N      -1.139111     -0.669633     -1.395822
  C      -1.109356      0.330394     -0.351516
  C      -0.193878     -0.118359      0.809807
  C       1.195548     -0.364889      0.341170
  C       1.891141     -1.518479      0.104292
  N       3.149758     -1.234063     -0.332411
  C       3.219111      0.069505     -0.365994
  N       2.065069      0.647324      0.033657
  C      -2.489584      0.647238      0.216374
  O      -3.494164      0.035191     -0.079363
  O      -2.486036      1.665539      1.056433
  H      -1.447585     -1.558196     -1.015925
  H      -1.806244     -0.404456     -2.111652
  H      -0.719459      1.261043     -0.780790
  H      -0.587486     -1.042160      1.235040
  H      -0.201746      0.657888      1.576887
  H       1.577380     -2.535608      0.221949
  H       4.082627      0.627234     -0.664962
  H       1.868095      1.632946      0.094310
  H      -3.374079      1.871539      1.408516
20
Coordinates from ORCA-job geo_opt E -34.364337094320
  N      -1.118089     -0.624624     -1.413765
  C      -1.105602      0.350197     -0.345198
  C      -0.196216     -0.121212      0.812511
  C       1.192738     -0.370780      0.344818
  C       1.899252     -1.526204      0.153626
  N       3.153960     -1.247309     -0.297933
  C       3.209878      0.054178     -0.386022
  N       2.051140      0.636824     -0.006402
  C      -2.492011      0.641427      0.220789
  O      -3.486926      0.017175     -0.082612
  O      -2.503249      1.650824      1.071742
  H      -1.419882     -1.525197     -1.057223
  H      -1.782946     -0.349412     -2.127945
  H      -0.718773      1.293441     -0.748430
  H      -0.595945     -1.049355      1.222382
  H      -0.201747      0.643137      1.591819
  H       1.598189     -2.541329      0.314700
  H       4.066538      0.608196     -0.710924
  H       1.843385      1.621805      0.015156
  H      -3.393696      1.838217      1.428911
20
Coordinates from ORCA-job geo_opt E -34.364387101850
  N      -1.076455     -0.539309     -1.443521
  C      -1.100642      0.388559     -0.333445
  C      -0.198614     -0.116336      0.816572
  C       1.188243     -0.376365      0.349634
  C       1.908748     -1.533938      0.238433
  N       3.157060     -1.272916     -0.240386
  C       3.196282      0.019674     -0.420647
  N       2.032076      0.614181     -0.077234
  C      -2.499083      0.624600      0.227743
  O      -3.471865     -0.025508     -0.092890
  O      -2.541908      1.613564      1.101397
  H      -1.359468     -1.461585     -1.128683
  H      -1.740534     -0.250470     -2.153337
  H      -0.725352      1.354979     -0.689470
  H      -0.609731     -1.048063      1.207475
  H      -0.199364      0.632043      1.611768
  H       1.619920     -2.538025      0.474938
  H       4.045026      0.557056     -0.791632
  H       1.811569      1.595240     -0.125782
  H      -3.435909      1.762620      1.469067
20
Coordinates from ORCA-job geo_opt E -34.364400379950
  N      -1.073586     -0.531686     -1.447271
  C      -1.102069      0.392959     -0.334416
  C      -0.197657     -0.109548      0.814557
  C       1.188601     -0.373280      0.347871
  C       1.906397     -1.533368      0.242797
  N       3.156451     -1.277747     -0.233756
  C       3.198509      0.014044     -0.421211
  N       2.035823      0.613089     -0.081679
  C      -2.501504      0.619637      0.228570
  O      -3.470885     -0.034146     -0.094584
  O      -2.547731      1.603913      1.106983
  H      -1.351338     -1.456290     -1.134202
  H      -1.740596     -0.244400     -2.155132
  H      -0.731768      1.362405     -0.687633
  H      -0.609631     -1.039262      1.210022
  H      -0.198051      0.641381      1.607412
  H       1.610704     -2.534464      0.483699
  H       4.050231      0.545169     -0.794437
  H       1.819129      1.594844     -0.136592
  H      -3.441028      1.746748      1.479001
20
Coordinates from ORCA-job geo_opt E -34.364407119940
  N      -1.067321     -0.517705     -1.452639
  C      -1.102654      0.400478     -0.334552
  C      -0.196521     -0.101129      0.812982
  C       1.188663     -0.370018      0.346387
  C       1.904023     -1.532855      0.253140
  N       3.154345     -1.285231     -0.226139
  C       3.199923      0.005277     -0.423842
  N       2.038836      0.610057     -0.090799
  C      -2.503962      0.612816      0.230074
  O      -3.468222     -0.045614     -0.098567
  O      -2.557147      1.589510      1.116048
  H      -1.337120     -1.446165     -1.144015
  H      -1.738260     -0.231778     -2.157410
  H      -0.739885      1.374984     -0.681816
  H      -0.609730     -1.028690      1.212761
  H      -0.195875      0.651911      1.603943
  H       1.601138     -2.529587      0.503299
  H       4.054507      0.528390     -0.801699
  H       1.826006      1.592007     -0.157670
  H      -3.450746      1.723342      1.490515
20
Coordinates from ORCA-job geo_opt E -34.364408693900
  N      -1.064457     -0.512055     -1.454185
  C      -1.102012      0.403294     -0.333925
  C      -0.196401     -0.099466      0.813309
  C       1.188492     -0.369782      0.346637
  C       1.903741     -1.533036      0.257579
  N       3.154352     -1.287246     -0.221797
  C       3.199307      0.002304     -0.426031
  N       2.038423      0.608355     -0.094946
  C      -2.504203      0.611387      0.230580
  O      -3.467099     -0.047556     -0.101058
  O      -2.560264      1.585024      1.119650
  H      -1.331360     -1.442042     -1.147829
  H      -1.736625     -0.226202     -2.157805
  H      -0.741670      1.379642     -0.678504
  H      -0.609977     -1.026905      1.212972
  H      -0.195201      0.653208      1.604638
  H       1.600392     -2.528621      0.511763
  H       4.053772      0.523818     -0.806273
  H       1.825564      1.589847     -0.167526
  H      -3.454774      1.716030      1.492754
20
Coordinates from ORCA-job geo_opt E -34.364409960620
  N      -1.062853     -0.508749     -1.455033
  C      -1.101410      0.404997     -0.333618
  C      -0.196411     -0.098413      0.813630
  C       1.188402     -0.369740      0.346948
  C       1.903685     -1.533184      0.260499
  N       3.154069     -1.288627     -0.220113
  C       3.198899      0.000410     -0.427501
  N       2.038274      0.607283     -0.096984
  C      -2.504278      0.611114      0.230654
  O      -3.466914     -0.046624     -0.104279
  O      -2.561912      1.581741      1.122899
  H      -1.326771     -1.439908     -1.149819
  H      -1.736618     -0.223583     -2.157389
  H      -0.743032      1.382534     -0.676805
  H      -0.610040     -1.025865      1.213143
  H      -0.194656      0.653923      1.605235
  H       1.600654     -2.528212      0.517255
  H       4.053104      0.521485     -0.808877
  H       1.825300      1.588397     -0.173751
  H      -3.457493      1.711020      1.493907
