20
Coordinates from ORCA-job geo_opt E -34.364409960620
  N          -1.06285314632010     -0.50874900740587     -1.45503260827776
  C          -1.10141003442417      0.40499712483114     -0.33361785216508
  C          -0.19641106547468     -0.09841253984568      0.81362980240847
  C           1.18840160475701     -0.36974010415334      0.34694754397520
  C           1.90368517801607     -1.53318425419998      0.26049859077208
  N           3.15406922135467     -1.28862667558675     -0.22011290573912
  C           3.19889910484436      0.00040994389720     -0.42750113660368
  N           2.03827363763789      0.60728256739266     -0.09698427603106
  C          -2.50427770085803      0.61111428349921      0.23065388998346
  O          -3.46691390842281     -0.04662396593800     -0.10427913979907
  O          -2.56191193802409      1.58174120183809      1.12289865261600
  H          -1.32677054842329     -1.43990806974990     -1.14981859717664
  H          -1.73661790094810     -0.22358286288529     -2.15738921095743
  H          -0.74303180748789      1.38253375879575     -0.67680507012305
  H          -0.61003960359539     -1.02586499167888      1.21314297355505
  H          -0.19465565321005      0.65392333707395      1.60523485371602
  H           1.60065399064145     -2.52821186081566      0.51725482185687
  H           4.05310394011037      0.52148468624577     -0.80887657414568
  H           1.82529966758705      1.58839749227194     -0.17375072731962
  H          -3.45749302776030      1.71101993641362      1.49390697945504
