20
neutral_delta conformer 6
N      -1.07076885    -0.78627987    -1.24863623
C      -1.08316479     0.29905243    -0.30968516
C      -0.16594585    -0.08040527     0.86019142
C       1.19886628    -0.29833512     0.30941125
C       1.76455104    -1.46625022    -0.16899299
N       3.03770017    -1.21648978    -0.57758675
C       3.24497683     0.09820428    -0.34837646
N       2.14725506     0.65879424     0.18402796
C      -2.45040136     0.56117295     0.20524973
O      -3.46399520    -0.09820982    -0.14944301
O      -2.64825556     1.57404608     1.12079603
H      -1.37123805    -1.68596000    -0.81296678
H      -1.77973121    -0.58244824    -2.00938132
H      -0.66831569     1.20025337    -0.79757941
H      -0.55403385    -0.95158141     1.39750361
H      -0.15604173     0.80244448     1.53152098
H       1.23850254    -2.40498620    -0.19407777
H       4.20608493     0.56402672    -0.59246167
H       2.06302464     1.67015378     0.44964184
H      -3.48906934     2.14279760     1.15084474
