10
zwitterion CPCM-opt conformer 1
N      -1.02923515    -0.18593519     0.45274242
C      -0.04976356     0.22250117    -0.60709724
C       1.37890622     0.03665300    -0.02845403
O       2.32997050     0.33175425    -0.79151759
O       1.43087483    -0.39637425     1.16510064
H      -0.39114048    -0.46545419     1.24692328
H      -1.64530614     0.57657230     0.75489245
H      -1.61344115    -0.98361471     0.17826043
H      -0.22073562     1.26958234    -0.87791639
H      -0.19012946    -0.40568474    -1.49293395
