20
Coordinates from ORCA-job geo_opt E -34.321109573130
  N       1.645624     -0.703268     -0.999499
  C       1.578921      0.426825     -0.113583
  C       0.319812      1.213184     -0.318757
  C      -0.932572      0.506934     -0.107524
  C      -1.200589     -0.796229      0.254098
  N      -2.536102     -0.993717      0.324228
  C      -3.081122      0.185022      0.006400
  N      -2.158178      1.095837     -0.255068
  C       1.886016      0.122125      1.300785
  O       1.844966     -1.029542      1.801953
  O       2.242306      1.196001      2.115442
  H       0.752136     -0.895541     -1.499870
  H       1.820879     -1.542996     -0.406176
  H       2.398452     -0.545030     -1.689900
  H       2.403809      1.122424     -0.433907
  H       0.338136      2.068598      0.388852
  H       0.344092      1.611912     -1.356763
  H      -0.478554     -1.549693      0.451880
  H      -3.034471     -1.881077      0.574237
  H      -4.153560      0.388233     -0.036828
20
Coordinates from ORCA-job geo_opt E -34.349278453630
  N       1.674746     -0.716719     -1.022477
  C       1.591614      0.453228     -0.121901
  C       0.306400      1.247283     -0.331001
  C      -0.951619      0.506453     -0.104529
  C      -1.175890     -0.793567      0.291067
  N      -2.516043     -0.981779      0.355116
  C      -3.077084      0.189509     -0.000080
  N      -2.177153      1.098516     -0.280211
  C       1.853017      0.106017      1.316952
  O       1.797992     -1.061037      1.745185
  O       2.153377      1.104441      2.096588
  H       0.792464     -0.896538     -1.526727
  H       1.840455     -1.555267     -0.435847
  H       2.429900     -0.589959     -1.704455
  H       2.410281      1.147953     -0.393211
  H       0.313959      2.098556      0.362974
  H       0.312227      1.646822     -1.354757
  H      -0.450973     -1.544669      0.533418
  H      -2.993678     -1.833574      0.623335
  H      -4.133991      0.374331     -0.049437
20
Coordinates from ORCA-job geo_opt E -34.358072692850
  N       1.674623     -0.705511     -1.043700
  C       1.600682      0.479462     -0.131094
  C       0.310802      1.275894     -0.353066
  C      -0.945394      0.504019     -0.106525
  C      -1.130691     -0.780097      0.341884
  N      -2.478110     -0.972532      0.397878
  C      -3.052782      0.179003     -0.015313
  N      -2.168579      1.083979     -0.325217
  C       1.802126      0.079825      1.344073
  O       1.707642     -1.118416      1.665734
  O       2.051389      1.005775      2.100463
  H       0.793744     -0.843401     -1.552393
  H       1.817780     -1.548128     -0.464609
  H       2.439404     -0.611895     -1.716602
  H       2.424187      1.157453     -0.362536
  H       0.313140      2.129187      0.326077
  H       0.302298      1.665103     -1.372193
  H      -0.411368     -1.514065      0.645390
  H      -2.944322     -1.806038      0.700970
  H      -4.106570      0.340384     -0.079222
20
Coordinates from ORCA-job geo_opt E -34.361432540090
  N       1.692646     -0.678967     -1.075418
  C       1.606688      0.490495     -0.143099
  C       0.313301      1.278765     -0.372891
  C      -0.941106      0.502250     -0.107644
  C      -1.120930     -0.752129      0.416517
  N      -2.471139     -0.952270      0.455550
  C      -3.045989      0.164659     -0.043082
  N      -2.161732      1.056414     -0.391806
  C       1.754782      0.025098      1.339859
  O       1.701943     -1.202798      1.553070
  O       1.962271      0.926392      2.160247
  H       0.817893     -0.795244     -1.598923
  H       1.822255     -1.527965     -0.500154
  H       2.472097     -0.587028     -1.731842
  H       2.437894      1.171597     -0.328079
  H       0.315170      2.142301      0.293206
  H       0.294228      1.655064     -1.396590
  H      -0.411335     -1.455532      0.801490
  H      -2.937975     -1.768519      0.807720
  H      -4.100962      0.307418     -0.138133
20
Coordinates from ORCA-job geo_opt E -34.363327549510
  N       1.690264     -0.664932     -1.084221
  C       1.625864      0.509120     -0.167147
  C       0.321281      1.281461     -0.372536
  C      -0.932180      0.500254     -0.097041
  C      -1.118081     -0.732030      0.470501
  N      -2.472417     -0.935347      0.484495
  C      -3.037680      0.156616     -0.072960
  N      -2.144754      1.034850     -0.440731
  C       1.785950     -0.010077      1.323063
  O       1.786186     -1.253550      1.431622
  O       1.803415      0.862317      2.206119
  H       0.798949     -0.777148     -1.578783
  H       1.833198     -1.494894     -0.476048
  H       2.458618     -0.598045     -1.757314
  H       2.461252      1.185492     -0.346266
  H       0.332298      2.144566      0.296403
  H       0.277590      1.670976     -1.391583
  H      -0.430267     -1.421349      0.911600
  H      -2.946055     -1.740562      0.862352
  H      -4.093432      0.282282     -0.201527
20
Coordinates from ORCA-job geo_opt E -34.363591666930
  N       1.666303     -0.658120     -1.069550
  C       1.625082      0.524566     -0.180716
  C       0.312714      1.280509     -0.355703
  C      -0.941862      0.497564     -0.087108
  C      -1.147424     -0.715750      0.508879
  N      -2.504845     -0.920763      0.479535
  C      -3.048596      0.150727     -0.131070
  N      -2.139158      1.016369     -0.496748
  C       1.813408     -0.036249      1.320028
  O       2.051788     -1.260914      1.327900
  O       1.851161      0.803547      2.227141
  H       0.756118     -0.774302     -1.525580
  H       1.830469     -1.456024     -0.411005
  H       2.418775     -0.624179     -1.763208
  H       2.460517      1.199677     -0.364121
  H       0.333701      2.135964      0.326592
  H       0.247512      1.696635     -1.364720
  H      -0.492055     -1.401080      0.998378
  H      -2.991645     -1.718013      0.866362
  H      -4.101961      0.259836     -0.305285
20
Coordinates from ORCA-job geo_opt E -34.365370741360
  N       1.671643     -0.654466     -1.084998
  C       1.616643      0.518811     -0.184942
  C       0.316510      1.291447     -0.362143
  C      -0.931350      0.509598     -0.090518
  C      -1.126572     -0.698185      0.522439
  N      -2.478953     -0.917451      0.498718
  C      -3.034309      0.142149     -0.123415
  N      -2.136374      1.015259     -0.496042
  C       1.788593     -0.048292      1.302397
  O       1.945037     -1.285535      1.341163
  O       1.778711      0.777879      2.219322
  H       0.768641     -0.783088     -1.551893
  H       1.839365     -1.453920     -0.422807
  H       2.429103     -0.606974     -1.770870
  H       2.458745      1.189376     -0.356132
  H       0.339056      2.144062      0.323388
  H       0.254705      1.702265     -1.373355
  H      -0.456522     -1.371869      1.012400
  H      -2.955544     -1.713484      0.892843
  H      -4.087128      0.242418     -0.295555
20
Coordinates from ORCA-job geo_opt E -34.365858157500
  N       1.664166     -0.654728     -1.089333
  C       1.609583      0.518704     -0.192252
  C       0.316563      1.303440     -0.354484
  C      -0.928059      0.518812     -0.091228
  C      -1.122108     -0.679112      0.542665
  N      -2.470816     -0.910530      0.508512
  C      -3.027919      0.132378     -0.140525
  N      -2.133651      1.004897     -0.520784
  C       1.788670     -0.060605      1.283611
  O       1.950844     -1.298337      1.311513
  O       1.749624      0.744322      2.215555
  H       0.759100     -0.803133     -1.544594
  H       1.849531     -1.438623     -0.401791
  H       2.413900     -0.608878     -1.782296
  H       2.456697      1.183966     -0.361242
  H       0.344626      2.143865      0.345482
  H       0.252158      1.728340     -1.359211
  H      -0.450114     -1.342562      1.045467
  H      -2.943948     -1.703140      0.910818
  H      -4.078847      0.220925     -0.325884
20
Coordinates from ORCA-job geo_opt E -34.366184365760
  N       1.643965     -0.660856     -1.092576
  C       1.601221      0.514975     -0.197925
  C       0.314940      1.315511     -0.330821
  C      -0.929857      0.526904     -0.089508
  C      -1.129788     -0.659376      0.566322
  N      -2.473008     -0.906276      0.505302
  C      -3.025603      0.118848     -0.176623
  N      -2.132221      0.992496     -0.552873
  C       1.811705     -0.060999      1.266421
  O       1.991750     -1.299049      1.297534
  O       1.785617      0.732535      2.205795
  H       0.730659     -0.837696     -1.518347
  H       1.865212     -1.425898     -0.377643
  H       2.370854     -0.614053     -1.807787
  H       2.450633      1.175106     -0.380461
  H       0.352311      2.131548      0.396445
  H       0.249182      1.770715     -1.321383
  H      -0.459070     -1.312679      1.084858
  H      -2.946093     -1.697030      0.909617
  H      -4.072409      0.195276     -0.386347
20
Coordinates from ORCA-job geo_opt E -34.366309955390
  N       1.626161     -0.661625     -1.093773
  C       1.600438      0.516296     -0.200802
  C       0.316462      1.324338     -0.315802
  C      -0.928753      0.530004     -0.088717
  C      -1.131351     -0.643085      0.589339
  N      -2.471189     -0.902430      0.508003
  C      -3.018905      0.103682     -0.206393
  N      -2.125306      0.975721     -0.585282
  C       1.823370     -0.064905      1.256816
  O       2.015581     -1.303417      1.269426
  O       1.800199      0.716677      2.205767
  H       0.705382     -0.842593     -1.500824
  H       1.860384     -1.420317     -0.369590
  H       2.338800     -0.620229     -1.823182
  H       2.452193      1.171341     -0.391553
  H       0.359498      2.123521      0.429528
  H       0.248711      1.799964     -1.296217
  H      -0.463797     -1.282020      1.129397
  H      -2.945480     -1.688716      0.920165
  H      -4.062398      0.167791     -0.436307
20
Coordinates from ORCA-job geo_opt E -34.366465774810
  N       1.600679     -0.658791     -1.102747
  C       1.600530      0.514048     -0.201634
  C       0.319185      1.332830     -0.290496
  C      -0.927529      0.531626     -0.085588
  C      -1.138492     -0.617062      0.630452
  N      -2.471720     -0.896579      0.514567
  C      -3.007111      0.075942     -0.254562
  N      -2.111180      0.944037     -0.637390
  C       1.841454     -0.070448      1.247367
  O       2.036314     -1.311378      1.248625
  O       1.846122      0.704596      2.201512
  H       0.669832     -0.835026     -1.488713
  H       1.845744     -1.423410     -0.381222
  H       2.294426     -0.616458     -1.849970
  H       2.453204      1.164222     -0.405803
  H       0.370178      2.105885      0.481480
  H       0.249947      1.837798     -1.255400
  H      -0.477547     -1.228420      1.208830
  H      -2.950487     -1.673529      0.940082
  H      -4.043550      0.120119     -0.519390
20
Coordinates from ORCA-job geo_opt E -34.366654917610
  N       1.567822     -0.648038     -1.119643
  C       1.603692      0.512264     -0.205170
  C       0.323404      1.340999     -0.252740
  C      -0.924681      0.532499     -0.074727
  C      -1.158125     -0.568969      0.705636
  N      -2.477601     -0.882513      0.531484
  C      -2.982926      0.027337     -0.329382
  N      -2.079925      0.886945     -0.716793
  C       1.872620     -0.089235      1.229233
  O       2.067003     -1.332432      1.205734
  O       1.903945      0.671385      2.195307
  H       0.622262     -0.812945     -1.473856
  H       1.827931     -1.423728     -0.411733
  H       2.233336     -0.599739     -1.891663
  H       2.455081      1.158447     -0.426826
  H       0.386588      2.078139      0.553154
  H       0.247462      1.884515     -1.195176
  H      -0.516599     -1.129334      1.352678
  H      -2.968091     -1.640061      0.979133
  H      -4.003198      0.034464     -0.654651
20
Coordinates from ORCA-job geo_opt E -34.367011485630
  N       1.531739     -0.621233     -1.155363
  C       1.608995      0.509686     -0.209860
  C       0.330512      1.348226     -0.202381
  C      -0.916822      0.531082     -0.055166
  C      -1.196528     -0.483381      0.822173
  N      -2.489200     -0.851500      0.571074
  C      -2.932823     -0.058133     -0.427758
  N      -2.014189      0.778685     -0.831344
  C       1.902162     -0.132427      1.200907
  O       2.078383     -1.377897      1.139761
  O       1.968146      0.602491      2.185584
  H       0.569925     -0.762252     -1.476404
  H       1.802853     -1.423882     -0.484329
  H       2.164908     -0.551721     -1.952611
  H       2.458452      1.154793     -0.441125
  H       0.409477      2.039038      0.642626
  H       0.243220      1.935700     -1.116183
  H      -0.595290     -0.951280      1.572699
  H      -3.003910     -1.569053      1.056817
  H      -3.920010     -0.116942     -0.839116
20
Coordinates from ORCA-job geo_opt E -34.367797739550
  N       1.491378     -0.566010     -1.219780
  C       1.621271      0.504597     -0.216145
  C       0.344963      1.350124     -0.133132
  C      -0.899985      0.524297     -0.019196
  C      -1.278892     -0.323485      0.988654
  N      -2.515062     -0.790051      0.637879
  C      -2.828673     -0.215892     -0.542844
  N      -1.877689      0.575074     -0.969249
  C       1.929450     -0.218215      1.154577
  O       2.063970     -1.462433      1.031009
  O       2.034738      0.470748      2.170504
  H       0.511117     -0.655862     -1.506198
  H       1.755201     -1.419613     -0.626939
  H       2.089978     -0.452199     -2.038810
  H       2.468842      1.152606     -0.443311
  H       0.443690      1.983034      0.754314
  H       0.237495      1.987982     -1.009295
  H      -0.765984     -0.617311      1.879551
  H      -3.080115     -1.430193      1.174506
  H      -3.745695     -0.397198     -1.066094
20
Coordinates from ORCA-job geo_opt E -34.368885009430
  N       1.467634     -0.519982     -1.269976
  C       1.626525      0.499574     -0.219404
  C       0.357286      1.352914     -0.088758
  C      -0.886365      0.523281      0.010384
  C      -1.346470     -0.194247      1.083493
  N      -2.533108     -0.741172      0.682575
  C      -2.738127     -0.342267     -0.590135
  N      -1.762712      0.413664     -1.028026
  C       1.927903     -0.287079      1.118259
  O       2.032989     -1.526997      0.943660
  O       2.053403      0.359502      2.159650
  H       0.480289     -0.571268     -1.545700
  H       1.714398     -1.408521     -0.732127
  H       2.055088     -0.373512     -2.092088
  H       2.478002      1.147596     -0.429984
  H       0.473422      1.948447      0.821789
  H       0.240723      2.016768     -0.944036
  H      -0.909137     -0.352035      2.045952
  H      -3.137277     -1.321559      1.243992
  H      -3.594464     -0.623108     -1.169520
20
Coordinates from ORCA-job geo_opt E -34.370098666090
  N       1.448836     -0.483078     -1.306418
  C       1.628118      0.495250     -0.220268
  C       0.368314      1.358232     -0.060996
  C      -0.874508      0.527825      0.034017
  C      -1.392566     -0.099046      1.136689
  N      -2.539536     -0.708375      0.711321
  C      -2.662724     -0.438296     -0.604461
  N      -1.672546      0.296789     -1.046453
  C       1.912089     -0.340383      1.092120
  O       1.991722     -1.575371      0.878695
  O       2.047784      0.271909      2.152926
  H       0.459008     -0.498718     -1.583176
  H       1.672440     -1.396902     -0.808298
  H       2.037898     -0.317299     -2.123663
  H       2.487355      1.138667     -0.412117
  H       0.495057      1.934674      0.859416
  H       0.249839      2.033962     -0.906698
  H      -1.014474     -0.157250      2.134447
  H      -3.170832     -1.247945      1.283310
  H      -3.471274     -0.794645     -1.210393
20
Coordinates from ORCA-job geo_opt E -34.371206887620
  N       1.431033     -0.457059     -1.330892
  C       1.626717      0.492040     -0.220802
  C       0.377402      1.365336     -0.041811
  C      -0.864253      0.534803      0.052196
  C      -1.423139     -0.032784      1.166427
  N      -2.538841     -0.688764      0.727674
  C      -2.603253     -0.506011     -0.606676
  N      -1.604803      0.218575     -1.048146
  C       1.894992     -0.377454      1.072786
  O       1.952762     -1.608283      0.833165
  O       2.038637      0.209575      2.146821
  H       0.439897     -0.447067     -1.609835
  H       1.637482     -1.386533     -0.858085
  H       2.023501     -0.281672     -2.143524
  H       2.494372      1.128213     -0.398282
  H       0.510475      1.931697      0.882994
  H       0.260805      2.047619     -0.882738
  H      -1.090195     -0.022812      2.181660
  H      -3.187870     -1.203369      1.302509
  H      -3.375723     -0.916051     -1.225439
20
Coordinates from ORCA-job geo_opt E -34.372442780890
  N       1.410294     -0.431402     -1.352785
  C       1.625327      0.488845     -0.221681
  C       0.386962      1.372468     -0.021412
  C      -0.853491      0.541618      0.070201
  C      -1.455963      0.032559      1.189350
  N      -2.538823     -0.669673      0.739861
  C      -2.540560     -0.573120     -0.604551
  N      -1.533154      0.141550     -1.042658
  C       1.880365     -0.413463      1.052257
  O       1.915951     -1.639414      0.786721
  O       2.034498      0.148283      2.138468
  H       0.416935     -0.396991     -1.629279
  H       1.601429     -1.374294     -0.903871
  H       2.003726     -0.248062     -2.162851
  H       2.501505      1.116396     -0.387342
  H       0.526477      1.928557      0.907932
  H       0.271974      2.062246     -0.856649
  H      -1.171746      0.110079      2.216334
  H      -3.206837     -1.159937      1.314155
  H      -3.274869     -1.036244     -1.232198
20
Coordinates from ORCA-job geo_opt E -34.373776789750
  N       1.385713     -0.406836     -1.372000
  C       1.623793      0.485529     -0.222884
  C       0.397335      1.379721      0.000668
  C      -0.841961      0.548587      0.088463
  C      -1.490639      0.096135      1.205410
  N      -2.539039     -0.651588      0.747155
  C      -2.474461     -0.638803     -0.598617
  N      -1.457750      0.067209     -1.029899
  C       1.868788     -0.447489      1.031081
  O       1.881177     -1.668024      0.741179
  O       2.036669      0.089755      2.127770
  H       0.388316     -0.349462     -1.640603
  H       1.563643     -1.361453     -0.946004
  H       1.976739     -0.216850     -2.182106
  H       2.508424      1.103231     -0.380059
  H       0.543699      1.925014      0.934649
  H       0.283897      2.078101     -0.827909
  H      -1.258625      0.239592      2.238302
  H      -3.227132     -1.118653      1.316946
  H      -3.168586     -1.153717     -1.231542
20
Coordinates from ORCA-job geo_opt E -34.375002490720
  N       1.360508     -0.384872     -1.389052
  C       1.622247      0.482009     -0.225086
  C       0.407715      1.385392      0.024766
  C      -0.830876      0.554514      0.107194
  C      -1.528368      0.156634      1.214747
  N      -2.542232     -0.633639      0.749624
  C      -2.409600     -0.700185     -0.589018
  N      -1.382489     -0.002794     -1.010072
  C       1.863205     -0.478185      1.008961
  O       1.854315     -1.693093      0.697589
  O       2.046994      0.036412      2.114213
  H       0.356389     -0.311288     -1.643987
  H       1.532007     -1.348882     -0.984719
  H       1.944580     -0.186900     -2.201975
  H       2.514043      1.090586     -0.377164
  H       0.561922      1.918050      0.964082
  H       0.295660      2.094727     -0.795030
  H      -1.350934      0.362967      2.247721
  H      -3.251725     -1.078194      1.311026
  H      -3.063361     -1.263260     -1.223819
20
Coordinates from ORCA-job geo_opt E -34.375375545580
  N       1.296233     -0.362466     -1.422248
  C       1.588339      0.478516     -0.235231
  C       0.429263      1.428674      0.057125
  C      -0.800959      0.605480      0.174874
  C      -1.564820      0.231269      1.241288
  N      -2.501530     -0.636245      0.751372
  C      -2.268189     -0.775663     -0.564709
  N      -1.254777     -0.042904     -0.949433
  C       1.809384     -0.524163      0.964404
  O       1.746338     -1.728989      0.637107
  O       2.011650     -0.047569      2.084746
  H       0.262288     -0.298327     -1.675292
  H       1.483406     -1.325300     -1.023833
  H       1.888046     -0.178552     -2.229748
  H       2.515799      1.039921     -0.358337
  H       0.592792      1.987541      0.973319
  H       0.348460      2.134894     -0.774284
  H      -1.509563      0.501734      2.273989
  H      -3.227063     -1.084003      1.285453
  H      -2.845096     -1.403847     -1.210565
20
Coordinates from ORCA-job geo_opt E -34.376931292550
  N       1.352636     -0.328455     -1.448598
  C       1.622518      0.473188     -0.240752
  C       0.422700      1.373834      0.090783
  C      -0.816182      0.544878      0.167692
  C      -1.660999      0.316636      1.217056
  N      -2.597740     -0.567773      0.761373
  C      -2.292860     -0.845895     -0.519111
  N      -1.225508     -0.194057     -0.910952
  C       1.882345     -0.558837      0.927288
  O       1.874561     -1.753177      0.551972
  O       2.068748     -0.110514      2.062666
  H       0.323485     -0.281739     -1.662385
  H       1.567883     -1.304076     -1.103063
  H       1.910155     -0.072182     -2.262599
  H       2.521407      1.079011     -0.362440
  H       0.600801      1.862441      1.047851
  H       0.309611      2.125553     -0.691531
  H      -1.635653      0.694799      2.216397
  H      -3.372065     -0.935401      1.292004
  H      -2.855845     -1.518236     -1.133651
20
Coordinates from ORCA-job geo_opt E -34.376850546490
  N       1.401529     -0.341804     -1.448688
  C       1.626161      0.476359     -0.244805
  C       0.408413      1.355191      0.069661
  C      -0.831870      0.527781      0.157738
  C      -1.648870      0.284253      1.226161
  N      -2.620913     -0.562787      0.775030
  C      -2.364700     -0.803100     -0.524156
  N      -1.298439     -0.160749     -0.930612
  C       1.897995     -0.545419      0.931992
  O       1.954202     -1.737834      0.554829
  O       2.036036     -0.091430      2.071259
  H       0.374916     -0.353007     -1.657755
  H       1.667444     -1.303484     -1.091491
  H       1.948677     -0.064621     -2.262891
  H       2.514671      1.100826     -0.350216
  H       0.584697      1.850797      1.024239
  H       0.289422      2.105930     -0.713059
  H      -1.591032      0.634265      2.234631
  H      -3.384748     -0.930620      1.319828
  H      -2.963592     -1.440545     -1.141693
20
Coordinates from ORCA-job geo_opt E -34.377386058740
  N       1.357454     -0.347783     -1.449494
  C       1.621176      0.477141     -0.254766
  C       0.419608      1.348287      0.115527
  C      -0.815121      0.517497      0.185121
  C      -1.695506      0.327335      1.212864
  N      -2.646727     -0.532580      0.744852
  C      -2.319764     -0.831191     -0.526463
  N      -1.229099     -0.213443     -0.898840
  C       1.946717     -0.546181      0.905112
  O       2.021932     -1.734422      0.520594
  O       2.101303     -0.100406      2.045161
  H       0.317613     -0.409128     -1.593697
  H       1.683802     -1.297232     -1.101215
  H       1.845918     -0.055103     -2.293480
  H       2.505627      1.103523     -0.383832
  H       0.611682      1.802997      1.085636
  H       0.298081      2.134274     -0.632707
  H      -1.696033      0.719047      2.208144
  H      -3.441019     -0.872738      1.260948
  H      -2.887643     -1.489894     -1.149467
20
Coordinates from ORCA-job geo_opt E -34.377471963170
  N       1.361541     -0.322062     -1.469986
  C       1.622069      0.470933     -0.252518
  C       0.425588      1.348640      0.116835
  C      -0.811756      0.524198      0.199351
  C      -1.712953      0.362198      1.212619
  N      -2.646291     -0.524604      0.754979
  C      -2.284934     -0.872475     -0.493144
  N      -1.190111     -0.258753     -0.862325
  C       1.923290     -0.579431      0.895989
  O       2.006548     -1.758615      0.494076
  O       2.053843     -0.146689      2.045354
  H       0.314559     -0.350118     -1.627249
  H       1.653560     -1.286358     -1.159666
  H       1.870208     -0.017184     -2.297406
  H       2.516025      1.088149     -0.355292
  H       0.617334      1.814084      1.082202
  H       0.309379      2.131390     -0.637112
  H      -1.749656      0.795167      2.189510
  H      -3.449547     -0.853502      1.265261
  H      -2.828695     -1.564968     -1.101478
20
Coordinates from ORCA-job geo_opt E -34.377614417670
  N       1.380061     -0.326210     -1.473095
  C       1.628864      0.469468     -0.257745
  C       0.421033      1.324687      0.131638
  C      -0.819638      0.500852      0.201628
  C      -1.742932      0.381615      1.202078
  N      -2.686394     -0.496271      0.749130
  C      -2.313716     -0.874709     -0.487203
  N      -1.201298     -0.290262     -0.851430
  C       1.967735     -0.577275      0.882952
  O       2.103232     -1.747887      0.467981
  O       2.076899     -0.151972      2.037212
  H       0.334134     -0.405143     -1.599323
  H       1.726036     -1.278022     -1.173352
  H       1.849999      0.010290     -2.311202
  H       2.508942      1.105646     -0.366968
  H       0.620770      1.760073      1.110641
  H       0.293511      2.129029     -0.596562
  H      -1.781973      0.833819      2.170190
  H      -3.502714     -0.800429      1.254634
  H      -2.862551     -1.567300     -1.091203
20
Coordinates from ORCA-job geo_opt E -34.377658613710
  N       1.364799     -0.335641     -1.462010
  C       1.626972      0.469569     -0.256043
  C       0.423739      1.331680      0.126543
  C      -0.818115      0.509691      0.193941
  C      -1.728445      0.367567      1.203192
  N      -2.673507     -0.505820      0.744180
  C      -2.312747     -0.860336     -0.503028
  N      -1.206056     -0.265658     -0.868536
  C       1.965657     -0.569610      0.893386
  O       2.102578     -1.742612      0.486322
  O       2.075522     -0.134666      2.043601
  H       0.317768     -0.409360     -1.575983
  H       1.711339     -1.285959     -1.162096
  H       1.826424     -0.005611     -2.307421
  H       2.510615      1.099205     -0.374623
  H       0.620948      1.772897      1.103916
  H       0.299171      2.132391     -0.605818
  H      -1.759561      0.800365      2.180450
  H      -3.482078     -0.823655      1.253514
  H      -2.865021     -1.544436     -1.113487
20
Coordinates from ORCA-job geo_opt E -34.377686993950
  N       1.365880     -0.333596     -1.465737
  C       1.625393      0.466850     -0.255465
  C       0.424396      1.331198      0.128827
  C      -0.818666      0.511277      0.197416
  C      -1.734364      0.375690      1.202427
  N      -2.676862     -0.501241      0.744537
  C      -2.308574     -0.866451     -0.497037
  N      -1.200154     -0.273690     -0.860674
  C       1.965496     -0.574642      0.890682
  O       2.111866     -1.745267      0.480674
  O       2.068458     -0.143275      2.042986
  H       0.316695     -0.413493     -1.578344
  H       1.720596     -1.282680     -1.175492
  H       1.822923      0.005964     -2.309824
  H       2.510958      1.094712     -0.371038
  H       0.621551      1.772278      1.106109
  H       0.301274      2.132926     -0.602895
  H      -1.772562      0.814961      2.176444
  H      -3.487714     -0.815982      1.252093
  H      -2.856590     -1.555538     -1.105688
20
Coordinates from ORCA-job geo_opt E -34.377700871050
  N       1.367412     -0.332290     -1.467557
  C       1.624950      0.463723     -0.254123
  C       0.425165      1.330017      0.129118
  C      -0.819720      0.512187      0.198333
  C      -1.738670      0.382626      1.201005
  N      -2.679701     -0.497326      0.745299
  C      -2.307366     -0.870668     -0.492251
  N      -1.197874     -0.279345     -0.855914
  C       1.966029     -0.579371      0.889873
  O       2.128074     -1.746615      0.476170
  O       2.056195     -0.151846      2.044885
  H       0.316421     -0.417171     -1.576260
  H       1.731575     -1.279527     -1.188904
  H       1.816582      0.018723     -2.311371
  H       2.512348      1.089828     -0.368090
  H       0.621663      1.771132      1.106437
  H       0.302836      2.131925     -0.602620
  H      -1.781238      0.826922      2.172444
  H      -3.491585     -0.809826      1.252717
  H      -2.853094     -1.563098     -1.099191
20
Coordinates from ORCA-job geo_opt E -34.377704123440
  N       1.367297     -0.332564     -1.467417
  C       1.624854      0.462558     -0.253348
  C       0.425525      1.329654      0.129170
  C      -0.819706      0.511916      0.198539
  C      -1.739756      0.384590      1.200482
  N      -2.680786     -0.495615      0.745129
  C      -2.307349     -0.871374     -0.491228
  N      -1.196999     -0.281243     -0.854622
  C       1.966876     -0.580545      0.889849
  O       2.137121     -1.746168      0.474402
  O       2.050467     -0.155203      2.046180
  H       0.315960     -0.420900     -1.572924
  H       1.737921     -1.278186     -1.193198
  H       1.810437      0.023929     -2.312215
  H       2.512829      1.087967     -0.367977
  H       0.621748      1.770618      1.106568
  H       0.303219      2.131235     -0.602851
  H      -1.783541      0.830336      2.171181
  H      -3.493305     -0.806903      1.252354
  H      -2.852812     -1.564102     -1.098072
20
Coordinates from ORCA-job geo_opt E -34.377705281090
  N       1.367607     -0.332403     -1.467252
  C       1.624980      0.462290     -0.252697
  C       0.425613      1.330031      0.128205
  C      -0.819476      0.511907      0.198277
  C      -1.739079      0.384721      1.200657
  N      -2.680108     -0.495752      0.745776
  C      -2.307310     -0.871368     -0.490782
  N      -1.197202     -0.281048     -0.854776
  C       1.965429     -0.581316      0.890251
  O       2.138630     -1.746268      0.473816
  O       2.045347     -0.157460      2.047399
  H       0.316505     -0.421187     -1.572293
  H       1.740214     -1.277440     -1.194235
  H       1.808554      0.026164     -2.312371
  H       2.513425      1.087116     -0.367198
  H       0.621402      1.772052      1.105185
  H       0.303471      2.130339     -0.605129
  H      -1.782614      0.830668      2.171275
  H      -3.492406     -0.807004      1.253397
  H      -2.852984     -1.564044     -1.097503
20
Coordinates from ORCA-job geo_opt E -34.377705651910
  N       1.367893     -0.332098     -1.467321
  C       1.625053      0.462426     -0.252419
  C       0.425594      1.330436      0.127625
  C      -0.819202      0.511934      0.198213
  C      -1.738494      0.384643      1.200873
  N      -2.679496     -0.495976      0.746260
  C      -2.307016     -0.871452     -0.490465
  N      -1.197087     -0.281041     -0.854781
  C       1.964014     -0.581838      0.890270
  O       2.137819     -1.746520      0.473264
  O       2.042354     -0.158916      2.047879
  H       0.317091     -0.421041     -1.572430
  H       1.740968     -1.276934     -1.194153
  H       1.808122      0.027033     -2.312588
  H       2.513725      1.086959     -0.366498
  H       0.621201      1.773213      1.104281
  H       0.303632      2.129952     -0.606554
  H      -1.781773      0.830706      2.171459
  H      -3.491691     -0.807187      1.254057
  H      -2.852706     -1.564300     -1.096971
