20
Coordinates from ORCA-job geo_opt E -34.377705651910
  N           1.36789280807874     -0.33209824762082     -1.46732105755106
  C           1.62505279074757      0.46242550895656     -0.25241852062835
  C           0.42559391035490      1.33043597813482      0.12762505058831
  C          -0.81920233677521      0.51193404060787      0.19821312416784
  C          -1.73849390321964      0.38464293895291      1.20087259178383
  N          -2.67949560819948     -0.49597595136067      0.74625995728414
  C          -2.30701612080046     -0.87145228729555     -0.49046548755299
  N          -1.19708710656808     -0.28104066777456     -0.85478092636733
  C           1.96401419663400     -0.58183835864411      0.89027033468634
  O           2.13781943096777     -1.74651973254937      0.47326412668108
  O           2.04235434619501     -0.15891572799829      2.04787912758807
  H           0.31709092687172     -0.42104061345571     -1.57243007433550
  H           1.74096826563719     -1.27693401048205     -1.19415349271280
  H           1.80812167723552      0.02703317331725     -2.31258847420240
  H           2.51372497426906      1.08695871379700     -0.36649795264312
  H           0.62120051836530      1.77321335584758      1.10428074766424
  H           0.30363169588160      2.12995238101328     -0.60655428585002
  H          -1.78177337620261      0.83070606596903      2.17145863198808
  H          -3.49169104843037     -0.80718660649019      1.25405748092837
  H          -2.85270604104252     -1.56429995292497     -1.09697088151671
