20
zwitterion conformer 2
N       1.64562352    -0.70326761    -0.99949949
C       1.57892130     0.42682524    -0.11358288
C       0.31981205     1.21318379    -0.31875749
C      -0.93257237     0.50693386    -0.10752359
C      -1.20058867    -0.79622941     0.25409760
N      -2.53610215    -0.99371672     0.32422764
C      -3.08112201     0.18502156     0.00640050
N      -2.15817803     1.09583696    -0.25506772
C       1.88601617     0.12212476     1.30078513
O       1.84496625    -1.02954247     1.80195290
O       2.24230571     1.19600062     2.11544187
H       0.75213638    -0.89554139    -1.49987036
H       1.82087851    -1.54299607    -0.40617613
H       2.39845211    -0.54503002    -1.68989970
H       2.40380857     1.12242385    -0.43390730
H       0.33813570     2.06859786     0.38885172
H       0.34409153     1.61191242    -1.35676252
H      -0.47855439    -1.54969282     0.45188001
H      -3.03447051    -1.88107740     0.57423746
H      -4.15355967     0.38823299    -0.03682763
