13
Coordinates from ORCA-job geo_opt E -323.911478280746
  C       1.418882     -0.043262      0.062191
  C      -0.055227     -0.168445      0.405437
  N      -0.783698      1.102252      0.193081
  C      -0.763147     -1.220165     -0.544657
  O      -1.702723     -0.730639     -1.212939
  O      -0.346019     -2.379444     -0.534199
  H       1.872565     -1.029805      0.110366
  H       1.931064      0.611364      0.762456
  H       1.543838      0.327416     -0.952593
  H      -0.175146     -0.530653      1.426858
  H      -1.498748      0.781351     -0.538964
  H      -1.259777      1.451608      1.025674
  H      -0.181865      1.828423     -0.202710
13
Coordinates from ORCA-job geo_opt E -323.913730953210
  C       1.431382     -0.047443      0.061004
  C      -0.051580     -0.178530      0.396895
  N      -0.789289      1.105582      0.194364
  C      -0.779243     -1.227802     -0.541236
  O      -1.718946     -0.734359     -1.239045
  O      -0.352480     -2.399333     -0.531001
  H       1.897445     -1.037946      0.119258
  H       1.942125      0.621699      0.765928
  H       1.564795      0.328734     -0.963516
  H      -0.179563     -0.518368      1.431439
  H      -1.510477      0.790725     -0.536571
  H      -1.260632      1.451951      1.036132
  H      -0.193539      1.845090     -0.193651
13
Coordinates from ORCA-job geo_opt E -323.911512792570
  C       1.452480     -0.039486      0.059018
  C      -0.037633     -0.196089      0.363180
  N      -0.789025      1.102230      0.185798
  C      -0.756589     -1.224102     -0.590007
  O      -1.775689     -0.750924     -1.211180
  O      -0.427264     -2.432120     -0.462709
  H       1.938244     -1.025945      0.118125
  H       1.940421      0.634397      0.784753
  H       1.605311      0.361256     -0.960612
  H      -0.184408     -0.531313      1.400636
  H      -1.499494      0.813989     -0.561551
  H      -1.269251      1.421235      1.035775
  H      -0.197104      1.866871     -0.161227
13
Coordinates from ORCA-job geo_opt E -323.914334919170
  C       1.439997     -0.050403      0.058272
  C      -0.044917     -0.196368      0.377694
  N      -0.789941      1.104530      0.189583
  C      -0.779852     -1.227994     -0.547650
  O      -1.746354     -0.745391     -1.236194
  O      -0.369037     -2.415034     -0.518644
  H       1.922334     -1.034243      0.132783
  H       1.933598      0.634020      0.764824
  H       1.585348      0.330182     -0.966117
  H      -0.186895     -0.509982      1.420471
  H      -1.510355      0.812805     -0.542231
  H      -1.255794      1.437239      1.040447
  H      -0.198132      1.860639     -0.173238
13
Coordinates from ORCA-job geo_opt E -323.914418312404
  C       1.436033     -0.051056      0.057349
  C      -0.047034     -0.196779      0.377550
  N      -0.788872      1.105361      0.191495
  C      -0.778388     -1.227836     -0.547876
  O      -1.735960     -0.746737     -1.242657
  O      -0.365229     -2.411267     -0.520353
  H       1.919243     -1.032244      0.139868
  H       1.926577      0.638682      0.758293
  H       1.580763      0.320744     -0.968277
  H      -0.187922     -0.512352      1.419116
  H      -1.514144      0.816050     -0.534344
  H      -1.248816      1.438685      1.045104
  H      -0.196252      1.858748     -0.175268
13
Coordinates from ORCA-job geo_opt E -323.914460029761
  C       1.434021     -0.052422      0.056609
  C      -0.048568     -0.199876      0.374498
  N      -0.787795      1.106395      0.192105
  C      -0.778332     -1.228221     -0.549790
  O      -1.738352     -0.752540     -1.241877
  O      -0.358995     -2.409305     -0.526270
  H       1.921196     -1.029910      0.152454
  H       1.918614      0.647209      0.751185
  H       1.580745      0.308911     -0.971804
  H      -0.190935     -0.513347      1.416375
  H      -1.515286      0.826134     -0.530876
  H      -1.243041      1.437359      1.049144
  H      -0.193273      1.859614     -0.171753
13
Coordinates from ORCA-job geo_opt E -323.914482601657
  C       1.433234     -0.052939      0.056066
  C      -0.049709     -0.202842      0.371047
  N      -0.787286      1.107050      0.193325
  C      -0.778108     -1.228930     -0.554177
  O      -1.738944     -0.757473     -1.245986
  O      -0.357541     -2.410200     -0.527682
  H       1.924790     -1.026721      0.164920
  H       1.911766      0.656560      0.744906
  H       1.582272      0.298287     -0.975414
  H      -0.193496     -0.515645      1.412961
  H      -1.519510      0.836870     -0.524344
  H      -1.235768      1.436334      1.054597
  H      -0.191699      1.859650     -0.170219
13
Coordinates from ORCA-job geo_opt E -323.914490243073
  C       1.433064     -0.053042      0.056334
  C      -0.050452     -0.203492      0.370119
  N      -0.787123      1.107362      0.193702
  C      -0.778367     -1.229706     -0.556329
  O      -1.741764     -0.760684     -1.245569
  O      -0.354290     -2.410362     -0.530091
  H       1.925881     -1.025792      0.169842
  H       1.909763      0.659832      0.743276
  H       1.583027      0.294212     -0.976547
  H      -0.194807     -0.517035      1.411758
  H      -1.521440      0.842897     -0.522294
  H      -1.232985      1.436910      1.056341
  H      -0.190507      1.858900     -0.170542
13
Coordinates from ORCA-job geo_opt E -323.914493777507
  C       1.433034     -0.052802      0.056829
  C      -0.050993     -0.203477      0.369751
  N      -0.787131      1.107289      0.194144
  C      -0.778564     -1.230449     -0.557923
  O      -1.742470     -0.762579     -1.246937
  O      -0.352309     -2.410840     -0.530647
  H       1.926040     -1.025449      0.171517
  H       1.909241      0.660797      0.743645
  H       1.583456      0.293314     -0.976562
  H      -0.195690     -0.518292      1.410988
  H      -1.524286      0.846499     -0.519194
  H      -1.229929      1.438722      1.057690
  H      -0.190398      1.857267     -0.173300
13
Coordinates from ORCA-job geo_opt E -323.914494560551
  C       1.433005     -0.052665      0.057257
  C      -0.051128     -0.203180      0.369848
  N      -0.787115      1.107160      0.194043
  C      -0.778531     -1.230717     -0.557955
  O      -1.742911     -0.763215     -1.246594
  O      -0.351131     -2.410759     -0.531028
  H       1.925379     -1.025865      0.170165
  H       1.909750      0.659450      0.745260
  H       1.583487      0.295022     -0.975637
  H      -0.196046     -0.518488      1.410913
  H      -1.525317      0.846640     -0.518262
  H      -1.228782      1.440266      1.057555
  H      -0.190661      1.856351     -0.175566
