13
Coordinates from ORCA-job geo_opt E -323.914494560551
  C           1.43300546527490     -0.05266458123015      0.05725742202773
  C          -0.05112789732688     -0.20317964381908      0.36984815671553
  N          -0.78711450852169      1.10716018128109      0.19404327667107
  C          -0.77853067813445     -1.23071724389894     -0.55795497166112
  O          -1.74291062125453     -0.76321506380333     -1.24659417416810
  O          -0.35113077947977     -2.41075917171689     -0.53102769498397
  H           1.92537854055820     -1.02586485524203      0.17016466220638
  H           1.90974956516876      0.65945015792597      0.74525963207779
  H           1.58348669196305      0.29502180899721     -0.97563700769833
  H          -0.19604618849221     -0.51848818857567      1.41091315979398
  H          -1.52531710425900      0.84663999965911     -0.51826206985787
  H          -1.22878176539262      1.44026585754158      1.05755516225595
  H          -0.19066072010376      1.85635073288113     -0.17556554337905
