13
zwitterion conformer 1
C       1.41888215    -0.04326206     0.06219117
C      -0.05522727    -0.16844458     0.40543729
N      -0.78369845     1.10225180     0.19308097
C      -0.76314721    -1.22016477    -0.54465729
O      -1.70272265    -0.73063946    -1.21293946
O      -0.34601863    -2.37944425    -0.53419935
H       1.87256531    -1.02980546     0.11036580
H       1.93106406     0.61136351     0.76245621
H       1.54383758     0.32741571    -0.95259344
H      -0.17514584    -0.53065265     1.42685810
H      -1.49874774     0.78135133    -0.53896421
H      -1.25977681     1.45160796     1.02567393
H      -0.18186450     1.82842291    -0.20270971
