27
zwitterion CPCM-opt conformer 1
N      -2.72053872    -0.35076100    -0.75065202
C      -2.45798957     0.30144483     0.57822261
C      -1.38403009    -0.46304877     1.38580970
C      -0.16022488    -0.85959921     0.60941969
C       0.08917171    -2.12811798     0.10896350
N       1.30136834    -2.15128053    -0.54496499
C       1.87648866    -0.90008305    -0.48531504
C       3.10073679    -0.44239093    -0.99109918
C       3.43286450     0.89172694    -0.76149642
C       2.56674422     1.74821224    -0.04393136
C       1.34862132     1.29149078     0.45508353
C       0.97910152    -0.05175732     0.23732554
C      -2.13468031     1.80106680     0.27722410
O      -1.86789462     2.52484216     1.26703301
O      -2.21350589     2.14475106    -0.94468460
H      -2.70023074     0.46859004    -1.41527520
H      -1.95951850    -1.00257228    -1.00280990
H      -3.61682556    -0.84638954    -0.80038934
H      -3.40103731     0.28597671     1.14029001
H      -1.12169173     0.18196241     2.23727340
H      -1.84921121    -1.36840557     1.80331141
H      -0.50931285    -3.03186910     0.19163307
H       1.70897303    -2.96793123    -0.98909263
H       3.76791274    -1.10841797    -1.54108274
H       4.37896766     1.28113415    -1.14171558
H       2.86025856     2.78696789     0.11906583
H       0.68548290     1.96445851     1.00185366
