27
zwitterion CPCM-opt conformer 2
N       2.14238308    -1.20547508     0.41131249
C       2.55097480    -0.00836674    -0.40687438
C       1.39241080     0.53149280    -1.26483732
C       0.12785290     0.80962070    -0.50078246
C      -0.16502904     1.93758004     0.24703645
N      -1.41547132     1.81735592     0.81384681
C      -1.97311323     0.61177554     0.44879151
C      -3.21916479     0.05307461     0.76255060
C      -3.51692758    -1.19880947     0.22560073
C      -2.59654683    -1.87720504    -0.60631915
C      -1.35766945    -1.32063873    -0.91690247
C      -1.02184301    -0.05706733    -0.38595547
C       3.15307234     1.02372819     0.60318115
O       3.48416175     2.14026212     0.13669194
O       3.28137099     0.60751597     1.79806543
H       2.47460607    -2.09798492     0.03125384
H       1.12030121    -1.25608248     0.53245651
H       2.57714257    -0.99818225     1.34978670
H       3.36984012    -0.33461886    -1.06292196
H       1.76982520     1.44604739    -1.74279492
H       1.18792547    -0.18776909    -2.07249355
H       0.42736936     2.83282968     0.41320412
H      -1.86053030     2.52120925     1.39440257
H      -3.92968490     0.58109152     1.40099861
H      -4.47923890    -1.66227232     0.44975895
H      -2.86544224    -2.85395376    -1.01272353
H      -0.65857500    -1.85515769    -1.56405063
