17
Coordinates from ORCA-job geo_opt_tzvp E -438.505941722417
  C           1.97529049445141     -0.26124377744856     -0.05124492596213
  C           0.67471930293142      0.40876485800414      0.36344398528015
  O           0.70288932793288      1.83010812790894      0.11266062191931
  C          -0.56200998804259     -0.22146471006713     -0.32887970780962
  N          -1.73168283448237      0.68853229346959     -0.09707168603967
  C          -0.94010764455808     -1.60945780713505      0.28395801491269
  O          -0.28904748569004     -2.60548999211034     -0.11605993588867
  O          -1.86411823442841     -1.57457433155978      1.15354657179615
  H           2.81610064703252      0.18945425580552      0.49275152295958
  H           1.94511964061087     -1.33639831350329      0.16675764512021
  H           2.14158832521654     -0.13295438565776     -1.13229241101289
  H           0.53411824932349      0.33272901206463      1.45370664849900
  H           0.99666414455014      1.96543407575852     -0.80978647400687
  H          -0.39166483305937     -0.30041116848827     -1.40995684861087
  H          -1.40224936518520      1.65090318805860      0.08495112429251
  H          -2.38074116765982      0.70349256195344     -0.89201203144482
  H          -2.22486859894338      0.27257607294678      0.72552790599595
