17
Coordinates from ORCA-job geo_opt_tzvp E -438.505934118162
  C       1.976008     -0.260764     -0.052654
  C       0.675073      0.407735      0.363974
  O       0.701328      1.831943      0.114540
  C      -0.561168     -0.222445     -0.328942
  N      -1.731326      0.689207     -0.097490
  C      -0.940797     -1.609253      0.285335
  O      -0.287724     -2.606573     -0.110858
  O      -1.868409     -1.572876      1.153032
  H       2.816909      0.189695      0.491339
  H       1.945786     -1.336082      0.164541
  H       2.141425     -0.131449     -1.133633
  H       0.535376      0.331218      1.453940
  H       0.992668      1.964887     -0.809578
  H      -0.391416     -0.302516     -1.409771
  H      -1.399462      1.649977      0.088864
  H      -2.377403      0.707797     -0.894689
  H      -2.226870      0.269498      0.722049
17
Coordinates from ORCA-job geo_opt_tzvp E -438.505940893812
  C       1.975578     -0.260818     -0.052268
  C       0.674856      0.407925      0.363750
  O       0.702126      1.830731      0.113747
  C      -0.561653     -0.221908     -0.328904
  N      -1.731543      0.688878     -0.097342
  C      -0.940636     -1.608997      0.284718
  O      -0.287625     -2.605359     -0.111682
  O      -1.866606     -1.573372      1.152825
  H       2.816473      0.189574      0.491823
  H       1.945245     -1.336125      0.165072
  H       2.141282     -0.131717     -1.133271
  H       0.534892      0.331866      1.453957
  H       0.994438      1.964365     -0.809505
  H      -0.391754     -0.301563     -1.409941
  H      -1.400361      1.650038      0.088008
  H      -2.378377      0.706581     -0.893967
  H      -2.226333      0.269900      0.722981
17
Coordinates from ORCA-job geo_opt_tzvp E -438.505931980579
  C       1.975863     -0.260423     -0.051646
  C       0.675311      0.408902      0.363598
  O       0.703044      1.830123      0.112093
  C      -0.561605     -0.221665     -0.327765
  N      -1.731351      0.688280     -0.096400
  C      -0.939144     -1.609081      0.286362
  O      -0.290592     -2.605682     -0.115274
  O      -1.869591     -1.575349      1.148684
  H       2.816837      0.190598      0.491816
  H       1.945926     -1.335548      0.166693
  H       2.141466     -0.132396     -1.132833
  H       0.535400      0.333705      1.454070
  H       0.996210      1.964598     -0.810532
  H      -0.391863     -0.301530     -1.408947
  H      -1.401406      1.650337      0.086373
  H      -2.379632      0.703800     -0.891925
  H      -2.224872      0.271331      0.725632
17
Coordinates from ORCA-job geo_opt_tzvp E -438.505940838449
  C       1.975047     -0.261268     -0.051383
  C       0.674596      0.408743      0.363237
  O       0.703231      1.829550      0.112461
  C      -0.562353     -0.221190     -0.328811
  N      -1.731864      0.688511     -0.097139
  C      -0.940117     -1.609323      0.284023
  O      -0.288251     -2.604812     -0.114946
  O      -1.863471     -1.574650      1.153673
  H       2.815924      0.189233      0.492659
  H       1.944761     -1.336478      0.166486
  H       2.141345     -0.132916     -1.132438
  H       0.533971      0.332796      1.453617
  H       0.997503      1.965472     -0.809628
  H      -0.391895     -0.300174     -1.409952
  H      -1.402508      1.650727      0.085878
  H      -2.380357      0.704182     -0.892509
  H      -2.225564      0.271598      0.724772
17
Coordinates from ORCA-job geo_opt_tzvp E -438.505941504363
  C       1.975284     -0.261237     -0.051428
  C       0.674712      0.408660      0.363415
  O       0.702808      1.830233      0.112764
  C      -0.562008     -0.221482     -0.328940
  N      -1.731735      0.688595     -0.097104
  C      -0.940155     -1.609368      0.284072
  O      -0.288474     -2.605372     -0.115090
  O      -1.864404     -1.574347      1.153521
  H       2.816121      0.189345      0.492615
  H       1.945000     -1.336419      0.166458
  H       2.141528     -0.132834     -1.132466
  H       0.534182      0.332633      1.453669
  H       0.996489      1.965343     -0.809762
  H      -0.391746     -0.300553     -1.410015
  H      -1.402013      1.650706      0.085801
  H      -2.380285      0.704267     -0.892435
  H      -2.225303      0.271827      0.724923
17
Coordinates from ORCA-job geo_opt_tzvp E -438.505941722417
  C       1.975290     -0.261244     -0.051245
  C       0.674719      0.408765      0.363444
  O       0.702889      1.830108      0.112661
  C      -0.562010     -0.221465     -0.328880
  N      -1.731683      0.688532     -0.097072
  C      -0.940108     -1.609458      0.283958
  O      -0.289047     -2.605490     -0.116060
  O      -1.864118     -1.574574      1.153547
  H       2.816101      0.189454      0.492752
  H       1.945120     -1.336398      0.166758
  H       2.141588     -0.132954     -1.132292
  H       0.534118      0.332729      1.453707
  H       0.996664      1.965434     -0.809786
  H      -0.391665     -0.300411     -1.409957
  H      -1.402249      1.650903      0.084951
  H      -2.380741      0.703493     -0.892012
  H      -2.224869      0.272576      0.725528
