17
zwitterion conformer 1
C       1.97600848    -0.26076367    -0.05265419
C       0.67507330     0.40773539     0.36397436
O       0.70132823     1.83194272     0.11454048
C      -0.56116778    -0.22244482    -0.32894185
N      -1.73132602     0.68920673    -0.09748956
C      -0.94079727    -1.60925304     0.28533534
O      -0.28772379    -2.60657313    -0.11085798
O      -1.86840879    -1.57287596     1.15303221
H       2.81690872     0.18969537     0.49133899
H       1.94578581    -1.33608185     0.16454143
H       2.14142486    -0.13144867    -1.13363344
H       0.53537567     0.33121783     1.45393975
H       0.99266807     1.96488713    -0.80957781
H      -0.39141587    -0.30251587    -1.40977104
H      -1.39946155     1.64997654     0.08886358
H      -2.37740252     0.70779712    -0.89468878
H      -2.22686957     0.26949814     0.72204853
