14
zwitterion CPCM-opt conformer 2
N      -0.66181114    -1.23754181     0.07670541
C      -0.23551909     0.09172315    -0.48194641
C       1.08592653     0.50661397     0.15180270
O       2.04778456    -0.52646550    -0.11801234
C      -1.36375511     1.12048351    -0.14774479
O      -2.24597271     0.71247855     0.66711036
O      -1.26777997     2.24386396    -0.69818816
H      -1.04569537    -1.86124298    -0.64227559
H       0.11502449    -1.72701494     0.54223722
H      -1.43150825    -0.98704236     0.74444947
H      -0.12127188    -0.01169897    -1.56793634
H       0.95728114     0.63926063     1.23970909
H       1.39129396     1.46867924    -0.28807319
H       2.77600284    -0.43209645     0.52216260
