13
Coordinates from ORCA-job geo_opt E -21.015631543380
  C       1.355831     -0.116908      0.167965
  C      -0.146162     -0.113423      0.320536
  N      -0.720436      1.141600     -0.081964
  C      -0.772892     -1.284527     -0.335228
  O      -1.949665     -1.608571     -0.000710
  O      -0.052712     -1.980789     -1.287066
  H       1.740857     -0.941251     -0.436859
  H       1.897186     -0.158371      1.147934
  H       1.707011      0.824026     -0.312032
  H      -0.366604     -0.218410      1.406902
  H      -1.487758      1.003146     -0.775803
  H      -1.180337      1.672606      0.712771
  H      -0.024318      1.780871     -0.526445
13
Coordinates from ORCA-job geo_opt E -21.037006888980
  C       1.391845     -0.104388      0.181463
  C      -0.124737     -0.119653      0.340956
  N      -0.737199      1.151784     -0.086828
  C      -0.777758     -1.310334     -0.343228
  O      -1.952818     -1.596659     -0.039624
  O      -0.116182     -1.943124     -1.252094
  H       1.749177     -0.931626     -0.425385
  H       1.917787     -0.155977      1.137731
  H       1.735914      0.815501     -0.300288
  H      -0.350607     -0.246383      1.412061
  H      -1.492062      0.987490     -0.772118
  H      -1.187722      1.670473      0.684735
  H      -0.055639      1.782894     -0.537381
13
Coordinates from ORCA-job geo_opt E -21.041534958080
  C       1.407561     -0.086645      0.182970
  C      -0.109248     -0.118133      0.354510
  N      -0.745205      1.162456     -0.086129
  C      -0.785985     -1.312143     -0.393718
  O      -1.957162     -1.566282     -0.067204
  O      -0.110099     -1.964520     -1.164586
  H       1.720458     -0.914097     -0.449234
  H       1.921997     -0.173611      1.128849
  H       1.743504      0.828088     -0.291969
  H      -0.347188     -0.274548      1.408617
  H      -1.491239      0.970786     -0.766142
  H      -1.183641      1.667977      0.685385
  H      -0.063753      1.780671     -0.541350
13
Coordinates from ORCA-job geo_opt E -21.043418908120
  C       1.420782     -0.076426      0.192041
  C      -0.091761     -0.124281      0.382371
  N      -0.751761      1.140555     -0.084757
  C      -0.773466     -1.344212     -0.361759
  O      -1.990409     -1.469013     -0.126870
  O      -0.118588     -1.942279     -1.205532
  H       1.718224     -0.915346     -0.435581
  H       1.942120     -0.154169      1.136084
  H       1.741274      0.832790     -0.303655
  H      -0.334379     -0.266032      1.435170
  H      -1.504773      0.912677     -0.745178
  H      -1.177927      1.659307      0.686793
  H      -0.079336      1.746430     -0.569127
13
Coordinates from ORCA-job geo_opt E -21.044905712100
  C       1.420743     -0.068062      0.183810
  C      -0.089583     -0.116540      0.381045
  N      -0.757696      1.147677     -0.073261
  C      -0.779337     -1.327867     -0.397203
  O      -2.007808     -1.407455     -0.184153
  O      -0.059317     -2.058219     -1.131522
  H       1.705853     -0.897692     -0.463926
  H       1.946950     -0.171620      1.127686
  H       1.742103      0.851091     -0.297860
  H      -0.340586     -0.274786      1.430820
  H      -1.529315      0.909117     -0.710307
  H      -1.159580      1.669243      0.714897
  H      -0.092427      1.745112     -0.580026
13
Coordinates from ORCA-job geo_opt E -21.047295628390
  C       1.426767     -0.060379      0.178697
  C      -0.080257     -0.116739      0.385537
  N      -0.766581      1.140021     -0.062198
  C      -0.773556     -1.323605     -0.409962
  O      -2.014161     -1.317824     -0.295380
  O      -0.044126     -2.110589     -1.037866
  H       1.702452     -0.885312     -0.480142
  H       1.957208     -0.176061      1.118072
  H       1.742112      0.863453     -0.296261
  H      -0.332180     -0.287932      1.431528
  H      -1.562586      0.880227     -0.660498
  H      -1.134220      1.670459      0.735338
  H      -0.120873      1.724282     -0.606866
13
Coordinates from ORCA-job geo_opt E -21.049464334560
  C       1.433135     -0.057172      0.175297
  C      -0.071324     -0.114903      0.385503
  N      -0.774942      1.130440     -0.049713
  C      -0.767756     -1.312602     -0.419212
  O      -2.008000     -1.229413     -0.413808
  O      -0.044261     -2.146820     -0.954135
  H       1.710373     -0.880400     -0.485197
  H       1.966718     -0.176360      1.111696
  H       1.746741      0.870139     -0.293521
  H      -0.322169     -0.297724      1.429981
  H      -1.602201      0.839402     -0.595093
  H      -1.104008      1.675869      0.752774
  H      -0.162306      1.699546     -0.644574
13
Coordinates from ORCA-job geo_opt E -21.050898651180
  C       1.437177     -0.055767      0.173958
  C      -0.065691     -0.112560      0.385216
  N      -0.779604      1.124955     -0.040658
  C      -0.764205     -1.301817     -0.427002
  O      -1.997929     -1.169831     -0.492191
  O      -0.049474     -2.170847     -0.902840
  H       1.716771     -0.877897     -0.486566
  H       1.972931     -0.176685      1.108702
  H       1.750051      0.873886     -0.290547
  H      -0.315219     -0.304481      1.428770
  H      -1.626250      0.805274     -0.545954
  H      -1.083776      1.683553      0.761521
  H      -0.194782      1.682217     -0.672410
13
Coordinates from ORCA-job geo_opt E -21.053112738750
  C       1.443537     -0.059013      0.173861
  C      -0.057833     -0.104368      0.381536
  N      -0.783821      1.117920     -0.025262
  C      -0.759508     -1.272383     -0.437854
  O      -1.976788     -1.077569     -0.608028
  O      -0.067213     -2.194132     -0.840249
  H       1.735064     -0.879843     -0.480976
  H       1.982799     -0.179388      1.106646
  H       1.759655      0.874326     -0.281676
  H      -0.302236     -0.311668      1.425540
  H      -1.656298      0.727184     -0.456841
  H      -1.056853      1.704259      0.766030
  H      -0.260504      1.654673     -0.722728
13
Coordinates from ORCA-job geo_opt E -21.054804493650
  C       1.452515     -0.048566      0.169249
  C      -0.046382     -0.103779      0.383937
  N      -0.795246      1.109371     -0.006659
  C      -0.751436     -1.261081     -0.460810
  O      -1.916291     -0.959213     -0.780636
  O      -0.114841     -2.261969     -0.715077
  H       1.740455     -0.866637     -0.491549
  H       1.996063     -0.174498      1.099107
  H       1.759557      0.889718     -0.281851
  H      -0.289317     -0.334244      1.422668
  H      -1.689732      0.671893     -0.359750
  H      -1.018492      1.719901      0.781044
  H      -0.326853      1.619103     -0.759674
13
Coordinates from ORCA-job geo_opt E -21.055544761910
  C       1.451727     -0.050053      0.163511
  C      -0.049712     -0.101566      0.375361
  N      -0.790370      1.120307      0.012341
  C      -0.749191     -1.249603     -0.471326
  O      -1.907036     -0.941307     -0.840426
  O      -0.138606     -2.295926     -0.671210
  H       1.757338     -0.871840     -0.482401
  H       1.998069     -0.156447      1.095557
  H       1.753146      0.887672     -0.294834
  H      -0.281501     -0.354297      1.413741
  H      -1.686924      0.638095     -0.338764
  H      -1.010038      1.743076      0.791135
  H      -0.346902      1.631889     -0.752684
13
Coordinates from ORCA-job geo_opt E -21.056227711730
  C       1.447714     -0.040166      0.152940
  C      -0.054080     -0.114217      0.378716
  N      -0.792389      1.120288      0.023116
  C      -0.751190     -1.269073     -0.471795
  O      -1.900425     -0.952347     -0.858522
  O      -0.148003     -2.328577     -0.631202
  H       1.753214     -0.871826     -0.481281
  H       1.997508     -0.119770      1.085674
  H       1.730450      0.888943     -0.333185
  H      -0.282241     -0.377158      1.413783
  H      -1.681781      0.688070     -0.393585
  H      -1.014533      1.724136      0.816890
  H      -0.304245      1.651699     -0.701549
13
Coordinates from ORCA-job geo_opt E -21.056680055170
  C       1.447548     -0.034104      0.143283
  C      -0.053821     -0.123154      0.384485
  N      -0.796337      1.110805      0.040865
  C      -0.756616     -1.265670     -0.473805
  O      -1.875428     -0.913518     -0.915220
  O      -0.178194     -2.347234     -0.593982
  H       1.761717     -0.891932     -0.450009
  H       2.001902     -0.055247      1.076402
  H       1.709916      0.871080     -0.395801
  H      -0.274097     -0.400967      1.416792
  H      -1.669143      0.690428     -0.413272
  H      -1.024852      1.701340      0.842604
  H      -0.292593      1.658174     -0.662343
13
Coordinates from ORCA-job geo_opt E -21.057411451380
  C       1.442056     -0.030461      0.126474
  C      -0.056994     -0.136076      0.388090
  N      -0.799753      1.103126      0.077461
  C      -0.762005     -1.256995     -0.486543
  O      -1.833519     -0.872292     -1.009301
  O      -0.218779     -2.363934     -0.553510
  H       1.781566     -0.946031     -0.354689
  H       1.996813      0.088877      1.052031
  H       1.671481      0.801673     -0.531675
  H      -0.257864     -0.443254      1.415707
  H      -1.645369      0.709388     -0.436887
  H      -1.043008      1.661914      0.897216
  H      -0.274625      1.684067     -0.584373
13
Coordinates from ORCA-job geo_opt E -21.058555827830
  C       1.432974     -0.030815      0.105320
  C      -0.060814     -0.151115      0.390352
  N      -0.803560      1.095250      0.128811
  C      -0.766257     -1.238521     -0.510657
  O      -1.775635     -0.818983     -1.119799
  O      -0.267305     -2.370416     -0.530887
  H       1.816393     -1.009534     -0.174218
  H       1.974736      0.311855      0.981710
  H       1.622395      0.645183     -0.722590
  H      -0.231893     -0.499730      1.409890
  H      -1.608394      0.740168     -0.460262
  H      -1.077236      1.601922      0.972003
  H      -0.255404      1.724735     -0.469673
13
Coordinates from ORCA-job geo_opt E -21.059470042050
  C       1.421590     -0.036109      0.087877
  C      -0.062929     -0.162563      0.391534
  N      -0.803166      1.092351      0.176007
  C      -0.764375     -1.217435     -0.540953
  O      -1.723773     -0.769364     -1.204194
  O      -0.301371     -2.363851     -0.542385
  H       1.849542     -1.033742      0.032988
  H       1.936431      0.522223      0.863961
  H       1.581911      0.436992     -0.876799
  H      -0.203283     -0.546234      1.403401
  H      -1.573748      0.769530     -0.467778
  H      -1.115958      1.542877      1.036594
  H      -0.240871      1.765324     -0.360252
13
Coordinates from ORCA-job geo_opt E -21.060010796620
  C       1.418733     -0.043311      0.087139
  C      -0.061467     -0.163191      0.393297
  N      -0.797333      1.098108      0.182808
  C      -0.758982     -1.212414     -0.553574
  O      -1.730396     -0.758560     -1.194800
  O      -0.291046     -2.353506     -0.580738
  H       1.854458     -1.039062      0.096265
  H       1.926571      0.567037      0.827745
  H       1.574491      0.370566     -0.906270
  H      -0.195455     -0.544084      1.407461
  H      -1.566679      0.768281     -0.464982
  H      -1.138358      1.528996      1.042602
  H      -0.234538      1.781138     -0.336953
13
Coordinates from ORCA-job geo_opt E -21.060409787670
  C       1.421797     -0.046940      0.085379
  C      -0.058607     -0.165474      0.395128
  N      -0.789720      1.104695      0.185350
  C      -0.756087     -1.215414     -0.564945
  O      -1.746144     -0.749670     -1.173331
  O      -0.290572     -2.355125     -0.611243
  H       1.864617     -1.038487      0.136333
  H       1.924672      0.598047      0.800731
  H       1.573149      0.329063     -0.924138
  H      -0.195067     -0.535371      1.412427
  H      -1.560342      0.766014     -0.474305
  H      -1.169921      1.513015      1.040139
  H      -0.217775      1.795646     -0.307526
13
Coordinates from ORCA-job geo_opt E -21.060450653340
  C       1.422601     -0.046125      0.083150
  C      -0.057608     -0.167552      0.396462
  N      -0.786806      1.103467      0.186393
  C      -0.758899     -1.216040     -0.564368
  O      -1.748884     -0.744510     -1.170025
  O      -0.295638     -2.356743     -0.613576
  H       1.870184     -1.034682      0.145359
  H       1.923243      0.610654      0.789614
  H       1.570465      0.318207     -0.930964
  H      -0.196113     -0.534241      1.414371
  H      -1.552248      0.767013     -0.483856
  H      -1.183412      1.502143      1.038130
  H      -0.206885      1.798408     -0.290689
13
Coordinates from ORCA-job geo_opt E -21.060477028900
  C       1.422919     -0.044273      0.079488
  C      -0.056466     -0.169418      0.397262
  N      -0.784171      1.102099      0.187641
  C      -0.761799     -1.217613     -0.561498
  O      -1.744489     -0.740659     -1.175618
  O      -0.307273     -2.362038     -0.601753
  H       1.875261     -1.030423      0.143185
  H       1.922363      0.617352      0.782332
  H       1.566204      0.317660     -0.936031
  H      -0.196261     -0.534347      1.415519
  H      -1.542965      0.769045     -0.494306
  H      -1.197236      1.491144      1.036116
  H      -0.196087      1.801471     -0.272336
13
Coordinates from ORCA-job geo_opt E -21.060497653130
  C       1.422460     -0.042861      0.074672
  C      -0.055208     -0.170823      0.398740
  N      -0.781981      1.101028      0.188892
  C      -0.764458     -1.218673     -0.555999
  O      -1.736636     -0.736785     -1.182987
  O      -0.320755     -2.367910     -0.583995
  H       1.879276     -1.027019      0.135611
  H       1.922440      0.620478      0.775496
  H       1.559603      0.320172     -0.941323
  H      -0.193608     -0.535210      1.417451
  H      -1.528859      0.772025     -0.508732
  H      -1.216498      1.478630      1.031973
  H      -0.185775      1.806949     -0.249800
13
Coordinates from ORCA-job geo_opt E -21.060512414040
  C       1.421551     -0.042139      0.070500
  C      -0.054591     -0.170948      0.399976
  N      -0.781523      1.101164      0.189943
  C      -0.765117     -1.219750     -0.551549
  O      -1.726075     -0.735307     -1.193162
  O      -0.331784     -2.372999     -0.564962
  H       1.879621     -1.026106      0.125358
  H       1.923772      0.618178      0.772572
  H       1.554196      0.325471     -0.944485
  H      -0.189151     -0.535861      1.419006
  H      -1.518946      0.775499     -0.518447
  H      -1.230443      1.469935      1.029134
  H      -0.181511      1.812864     -0.233883
13
Coordinates from ORCA-job geo_opt E -21.060524923760
  C       1.420253     -0.042272      0.065898
  C      -0.054322     -0.170133      0.402125
  N      -0.782087      1.101817      0.191129
  C      -0.764842     -1.220148     -0.546675
  O      -1.713826     -0.733464     -1.203554
  O      -0.341587     -2.377293     -0.545637
  H       1.877616     -1.026969      0.114719
  H       1.926774      0.613804      0.768847
  H       1.548298      0.329475     -0.948201
  H      -0.181952     -0.535411      1.421846
  H      -1.507073      0.779131     -0.529789
  H      -1.247229      1.460366      1.025948
  H      -0.180026      1.821097     -0.216657
13
Coordinates from ORCA-job geo_opt E -21.060529900640
  C       1.419498     -0.042649      0.063753
  C      -0.054645     -0.169273      0.403600
  N      -0.782938      1.102305      0.192076
  C      -0.764023     -1.220273     -0.545274
  O      -1.707364     -0.732440     -1.209239
  O      -0.344906     -2.378866     -0.537782
  H       1.875180     -1.028266      0.111328
  H       1.928855      0.611872      0.766128
  H       1.545807      0.329408     -0.950422
  H      -0.177855     -0.533923      1.423943
  H      -1.502288      0.780845     -0.534627
  H      -1.254343      1.455839      1.025538
  H      -0.180979      1.825421     -0.209023
13
Coordinates from ORCA-job geo_opt E -21.060532366900
  C       1.419025     -0.043180      0.062586
  C      -0.055073     -0.168463      0.404994
  N      -0.783599      1.102455      0.192564
  C      -0.763300     -1.220214     -0.544551
  O      -1.703987     -0.731440     -1.211669
  O      -0.345440     -2.379244     -0.534803
  H       1.872800     -1.029753      0.109547
  H       1.930876      0.610255      0.764178
  H       1.544438      0.328911     -0.951638
  H      -0.175457     -0.531368      1.426160
  H      -1.499516      0.781209     -0.537960
  H      -1.258776      1.452826      1.025245
  H      -0.181991      1.828005     -0.204653
13
Coordinates from ORCA-job geo_opt E -21.060532770900
  C       1.418882     -0.043262      0.062191
  C      -0.055227     -0.168445      0.405437
  N      -0.783698      1.102252      0.193081
  C      -0.763147     -1.220165     -0.544657
  O      -1.702723     -0.730639     -1.212939
  O      -0.346019     -2.379444     -0.534199
  H       1.872565     -1.029805      0.110366
  H       1.931064      0.611364      0.762456
  H       1.543838      0.327416     -0.952593
  H      -0.175146     -0.530653      1.426858
  H      -1.498748      0.781351     -0.538964
  H      -1.259777      1.451608      1.025674
  H      -0.181864      1.828423     -0.202710
