13
Coordinates from ORCA-job geo_opt E -21.060532770900
  C           1.41888214507736     -0.04326205577419      0.06219116874549
  C          -0.05522727100217     -0.16844458108893      0.40543728889955
  N          -0.78369845128498      1.10225179782076      0.19308097135191
  C          -0.76314720847886     -1.22016477164522     -0.54465728931456
  O          -1.70272264925114     -0.73063946152146     -1.21293946318374
  O          -0.34601862958270     -2.37944424626265     -0.53419935311415
  H           1.87256531224563     -1.02980546360497      0.11036579746449
  H           1.93106406021391      0.61136350807880      0.76245621279912
  H           1.54383757612198      0.32741571208114     -0.95259344051767
  H          -0.17514584145586     -0.53065264908214      1.42685810081434
  H          -1.49874773720162      0.78135133310518     -0.53896421412946
  H          -1.25977680998820      1.45160795545370      1.02567392797979
  H          -0.18186449541334      1.82842291243998     -0.20270970779511
