13
zwitterion conformer 1
C       1.35583117    -0.11690778     0.16796488
C      -0.14616221    -0.11342267     0.32053590
N      -0.72043635     1.14160027    -0.08196446
C      -0.77289237    -1.28452683    -0.33522842
O      -1.94966539    -1.60857079    -0.00070974
O      -0.05271217    -1.98078857    -1.28706618
H       1.74085700    -0.94125060    -0.43685924
H       1.89718572    -0.15837076     1.14793419
H       1.70701055     0.82402579    -0.31203210
H      -0.36660402    -0.21841032     1.40690239
H      -1.48775776     1.00314559    -0.77580274
H      -1.18033664     1.67260579     0.71277058
H      -0.02431753     1.78087087    -0.52644506
