17
Coordinates from ORCA-job geo_opt_tzvp E -438.504669443424
  C          -1.21438717597765     -0.18031391742204      1.14597644073538
  C          -0.55668806267356     -0.83325010919218     -0.06645767363304
  O          -1.42263306290953     -0.79276713731402     -1.22141068045623
  C           0.75318918123605     -0.17486210279878     -0.52097539474746
  N           0.50114780489472      1.22733530561777     -1.00644902371512
  C           1.80656713060568     -0.08332782793312      0.62724290207452
  O           2.25443673414881     -1.17446087895646      1.05561855848114
  O           2.08961966519123      1.09131118877469      1.01490174649985
  H          -0.56091092267822     -0.24556583289085      2.02723693440556
  H          -2.15016168849719     -0.70757009620607      1.38270990646475
  H          -1.45689387720319      0.87694025015455      0.96326734095255
  H          -0.30116710904531     -1.87887473247236      0.17510821035086
  H          -2.31752197431438     -1.04786616960332     -0.92984839035603
  H           1.16688250336275     -0.75013448024913     -1.35798256926210
  H           0.95966992514435      1.41356667679577     -1.90545659200948
  H           0.95016461971610      1.82630875082696     -0.26964052662705
  H          -0.50131373100065      1.43353113286860     -1.11384119915810
