17
Coordinates from ORCA-job geo_opt_tzvp E -438.504660173023
  C      -1.212993     -0.181709      1.147363
  C      -0.556680     -0.833582     -0.066796
  O      -1.424106     -0.790580     -1.223718
  C       0.753681     -0.175832     -0.521211
  N       0.501407      1.227195     -1.008529
  C       1.804860     -0.081737      0.628441
  O       2.254178     -1.172424      1.059143
  O       2.085721      1.095001      1.015645
  H      -0.559152     -0.250914      2.027937
  H      -2.149761     -0.707668      1.383030
  H      -1.453244      0.876410      0.967497
  H      -0.302894     -1.879826      0.172084
  H      -2.318998     -1.043109     -0.928297
  H       1.168605     -0.751253     -1.357158
  H       0.960707      1.412460     -1.907300
  H       0.949886      1.825772     -0.270953
  H      -0.501217      1.431797     -1.117178
17
Coordinates from ORCA-job geo_opt_tzvp E -438.504668408417
  C      -1.213748     -0.180692      1.146212
  C      -0.556314     -0.833414     -0.066430
  O      -1.422868     -0.791828     -1.222379
  C       0.753664     -0.175469     -0.521186
  N       0.501014      1.227031     -1.007146
  C       1.806169     -0.082552      0.627273
  O       2.254503     -1.173172      1.057088
  O       2.086964      1.092834      1.015797
  H      -0.560382     -0.248064      2.027346
  H      -2.150237     -0.707074      1.382090
  H      -1.454716      0.877061      0.964643
  H      -0.302071     -1.879495      0.173757
  H      -2.317579     -1.045022     -0.928344
  H       1.167712     -0.750521     -1.358061
  H       0.959270      1.412834     -1.906340
  H       0.950312      1.825497     -0.269977
  H      -0.501694      1.432048     -1.114341
17
Coordinates from ORCA-job geo_opt_tzvp E -438.504641869758
  C      -1.217297     -0.179705      1.144758
  C      -0.557181     -0.833307     -0.065522
  O      -1.421290     -0.793822     -1.220922
  C       0.752807     -0.174803     -0.519082
  N       0.500548      1.226953     -1.003923
  C       1.805775     -0.083537      0.629259
  O       2.260419     -1.173809      1.050822
  O       2.099576      1.090863      1.007356
  H      -0.565317     -0.244041      2.027250
  H      -2.153315     -0.707088      1.380267
  H      -1.459730      0.877376      0.960626
  H      -0.302003     -1.878970      0.176970
  H      -2.316273     -1.048663     -0.930557
  H       1.166851     -0.749467     -1.356545
  H       0.959307      1.413578     -1.902715
  H       0.949108      1.825743     -0.266577
  H      -0.501984      1.432699     -1.111466
17
Coordinates from ORCA-job geo_opt_tzvp E -438.504670606994
  C      -1.214437     -0.180331      1.145861
  C      -0.556569     -0.833238     -0.066370
  O      -1.422527     -0.792675     -1.221299
  C       0.753275     -0.174876     -0.520955
  N       0.501106      1.227246     -1.006432
  C       1.806635     -0.083218      0.627152
  O       2.254593     -1.174142      1.055592
  O       2.089461      1.091331      1.014880
  H      -0.561075     -0.245805      2.027217
  H      -2.150304     -0.707507      1.382388
  H      -1.456747      0.876978      0.963209
  H      -0.301310     -1.878997      0.175004
  H      -2.317397     -1.047386     -0.929463
  H       1.166947     -0.750102     -1.358046
  H       0.959534      1.413407     -1.905495
  H       0.950222      1.826125     -0.269505
  H      -0.501408      1.433189     -1.113738
17
Coordinates from ORCA-job geo_opt_tzvp E -438.504669443424
  C      -1.214387     -0.180314      1.145976
  C      -0.556688     -0.833250     -0.066458
  O      -1.422633     -0.792767     -1.221411
  C       0.753189     -0.174862     -0.520975
  N       0.501148      1.227335     -1.006449
  C       1.806567     -0.083328      0.627243
  O       2.254437     -1.174461      1.055619
  O       2.089620      1.091311      1.014902
  H      -0.560911     -0.245566      2.027237
  H      -2.150162     -0.707570      1.382710
  H      -1.456894      0.876940      0.963267
  H      -0.301167     -1.878875      0.175108
  H      -2.317522     -1.047866     -0.929848
  H       1.166883     -0.750134     -1.357983
  H       0.959670      1.413567     -1.905457
  H       0.950165      1.826309     -0.269641
  H      -0.501314      1.433531     -1.113841
