17
zwitterion conformer 2
C      -1.21299281    -0.18170891     1.14736285
C      -0.55668043    -0.83358213    -0.06679597
O      -1.42410586    -0.79058007    -1.22371843
C       0.75368116    -0.17583227    -0.52121148
N       0.50140669     1.22719495    -1.00852860
C       1.80485965    -0.08173741     0.62844131
O       2.25417796    -1.17242388     1.05914335
O       2.08572121     1.09500133     1.01564466
H      -0.55915151    -0.25091431     2.02793666
H      -2.14976122    -0.70766787     1.38303026
H      -1.45324380     0.87641037     0.96749701
H      -0.30289357    -1.87982617     0.17208394
H      -2.31899811    -1.04310937    -0.92829664
H       1.16860462    -0.75125330    -1.35715839
H       0.96070692     1.41246040    -1.90730035
H       0.94988581     1.82577152    -0.27095260
H      -0.50121675     1.43179714    -1.11717759
