20
neutral_epsilon CPCM-opt conformer 3
N      -2.74900369    -1.20984941     0.23640449
C      -1.53831502    -0.44029640    -0.08033778
C      -0.24234617    -1.00969593     0.58201921
C       1.03187391    -0.30380176     0.23598070
C       1.91443221    -0.57731171    -0.79227355
N       2.91044531     0.36984559    -0.69203799
C       2.61514596     1.17088912     0.36803478
N       1.48447357     0.79474046     0.95596737
C      -1.76618141     0.99562999     0.37154735
O      -2.24489966     1.30863364     1.45131113
O      -1.36755438     1.90090545    -0.54800685
H      -2.59231267    -2.18647033    -0.02912467
H      -2.88479378    -1.21168570     1.25259106
H      -1.39997828    -0.44128902    -1.17083294
H      -0.18090710    -2.06219645     0.26685775
H      -0.38843881    -0.99872724     1.67396918
H       1.92486654    -1.34299107    -1.56055554
H       3.72681102     0.44661104    -1.29334056
H       3.25112902     1.99866953     0.66946251
H      -1.50444657     2.79839021    -0.16956702
