27
Coordinates from ORCA-job geo_opt_tzvp E -686.682449455589
  N           2.14238307901627     -1.20547507610504      0.41131248885592
  C           2.55097479943182     -0.00836673884938     -0.40687437915455
  C           1.39241079786182      0.53149279911813     -1.26483731505012
  C           0.12785290025679      0.80962070477218     -0.50078245966244
  C          -0.16502903627718      1.93758004056332      0.24703644983992
  N          -1.41547131585186      1.81735591570742      0.81384680754264
  C          -1.97311323227193      0.61177554354684      0.44879150612529
  C          -3.21916478682117      0.05307460772587      0.76255059557301
  C          -3.51692757696891     -1.19880946559164      0.22560072896100
  C          -2.59654682648847     -1.87720504363285     -0.60631915252948
  C          -1.35766944772170     -1.32063872810307     -0.91690247063785
  C          -1.02184300831504     -0.05706733477266     -0.38595547376685
  C           3.15307234174962      1.02372819339744      0.60318115153096
  O           3.48416174680558      2.14026211933408      0.13669193783296
  O           3.28137098535478      0.60751596823779      1.79806542687365
  H           2.47460606501064     -2.09798492493265      0.03125384305500
  H           1.12030120659904     -1.25608247625265      0.53245651497482
  H           2.57714256539910     -0.99818224827512      1.34978670274863
  H           3.36984012258769     -0.33461885847915     -1.06292195888371
  H           1.76982519529278      1.44604738871234     -1.74279491671137
  H           1.18792546896728     -0.18776909085320     -2.07249355414716
  H           0.42736935714418      2.83282967629632      0.41320412159924
  H          -1.86053029508773      2.52120924791130      1.39440256704400
  H          -3.92968490028214      0.58109151779209      1.40099860587167
  H          -4.47923889827528     -1.66227232400510      0.44975895391318
  H          -2.86544224488000     -2.85395375766347     -1.01272353333501
  H          -0.65857500223596     -1.85515768559914     -1.56405062846335
