27
Coordinates from ORCA-job geo_opt_tzvp E -686.682444224455
  N       2.140042     -1.202995      0.415956
  C       2.551152     -0.008624     -0.407224
  C       1.392673      0.530953     -1.265786
  C       0.127975      0.808823     -0.501673
  C      -0.163571      1.935679      0.248281
  N      -1.413705      1.814984      0.816956
  C      -1.971943      0.609646      0.449929
  C      -3.217951      0.051023      0.763695
  C      -3.516965     -1.199491      0.224515
  C      -2.597797     -1.876669     -0.609714
  C      -1.359045     -1.320080     -0.920261
  C      -1.021862     -0.057962     -0.386863
  C       3.154964      1.025419      0.599659
  O       3.488138      2.140774      0.129282
  O       3.282224      0.612523      1.797173
  H       2.471135     -2.097464      0.039633
  H       1.117669     -1.250353      0.535880
  H       2.574359     -0.992396      1.353788
  H       3.368914     -0.338686     -1.062346
  H       1.769788      1.445295     -1.744115
  H       1.188173     -0.188392     -2.073220
  H       0.429535      2.830289      0.415301
  H      -1.858393      2.518123      1.398350
  H      -3.927568      0.578196      1.403786
  H      -4.479310     -1.662781      0.448648
  H      -2.867643     -2.852277     -1.018064
  H      -0.660988     -1.853557     -1.569283
27
Coordinates from ORCA-job geo_opt_tzvp E -686.682448117387
  N       2.140743     -1.204635      0.412492
  C       2.550792     -0.008278     -0.406864
  C       1.392581      0.531729     -1.265293
  C       0.127823      0.809702     -0.501447
  C      -0.164741      1.937309      0.246916
  N      -1.414914      1.816738      0.814662
  C      -1.972511      0.611053      0.449165
  C      -3.218419      0.052237      0.763177
  C      -3.516483     -1.199316      0.225693
  C      -2.596518     -1.877238     -0.607087
  C      -1.357872     -1.320409     -0.917985
  C      -1.021763     -0.057189     -0.386441
  C       3.152858      1.024021      0.602647
  O       3.486772      2.139471      0.135073
  O       3.282180      0.608011      1.797871
  H       2.473132     -2.097664      0.033874
  H       1.118384     -1.253969      0.531973
  H       2.574447     -0.996091      1.351148
  H       3.369560     -0.336002     -1.062209
  H       1.770048      1.446289     -1.743161
  H       1.188187     -0.187470     -2.073011
  H       0.427721      2.832516      0.413102
  H      -1.860107      2.520487      1.395228
  H      -3.928613      0.579946      1.402241
  H      -4.478682     -1.662885      0.450116
  H      -2.865563     -2.853768     -1.013905
  H      -0.659043     -1.854595     -1.565691
27
Coordinates from ORCA-job geo_opt_tzvp E -686.682408950232
  N       2.144882     -1.208858      0.405572
  C       2.551546     -0.009034     -0.407082
  C       1.393152      0.531585     -1.264464
  C       0.128812      0.810172     -0.500433
  C      -0.165067      1.939294      0.245041
  N      -1.415188      1.819458      0.811089
  C      -1.972496      0.613794      0.448232
  C      -3.218533      0.055278      0.762719
  C      -3.515748     -1.197796      0.227883
  C      -2.594940     -1.877308     -0.602731
  C      -1.356123     -1.320773     -0.914265
  C      -1.021000     -0.056008     -0.385540
  C       3.151595      1.020323      0.606333
  O       3.472834      2.140885      0.146565
  O       3.264849      0.606873      1.801884
  H       2.478620     -2.099199      0.021771
  H       1.122883     -1.262063      0.526743
  H       2.579715     -1.004620      1.344867
  H       3.371639     -0.331880     -1.063832
  H       1.771111      1.446442     -1.741861
  H       1.188418     -0.187481     -2.072487
  H       0.426664      2.835278      0.409798
  H      -1.860642      2.524381      1.390613
  H      -3.929360      0.584175      1.400206
  H      -4.477962     -1.661338      0.452765
  H      -2.863277     -2.855164     -1.007119
  H      -0.656382     -1.856416     -1.559984
27
Coordinates from ORCA-job geo_opt_tzvp E -686.682448850183
  N       2.143244     -1.204845      0.412796
  C       2.551306     -0.008370     -0.406670
  C       1.392340      0.530764     -1.264623
  C       0.127815      0.808894     -0.500496
  C      -0.164889      1.936776      0.247459
  N      -1.415120      1.816469      0.814683
  C      -1.973110      0.611212      0.449131
  C      -3.219282      0.052733      0.762820
  C      -3.517637     -1.198668      0.225053
  C      -2.597760     -1.876738     -0.607697
  C      -1.358780     -1.320356     -0.918232
  C      -1.022266     -0.057381     -0.386254
  C       3.153693      1.024588      0.602166
  O       3.484729      2.140606      0.134587
  O       3.282427      0.609582      1.797370
  H       2.475520     -2.097605      0.033390
  H       1.121215     -1.255382      0.534320
  H       2.578401     -0.996523      1.350884
  H       3.369931     -0.335205     -1.062751
  H       1.769403      1.445244     -1.743014
  H       1.187910     -0.188879     -2.071976
  H       0.427663      2.831904      0.413759
  H      -1.860037      2.520251      1.395450
  H      -3.929472      0.580586      1.401778
  H      -4.480067     -1.661938      0.449120
  H      -2.867122     -2.853081     -1.014779
  H      -0.660057     -1.854636     -1.565994
27
Coordinates from ORCA-job geo_opt_tzvp E -686.682449455589
  N       2.142383     -1.205475      0.411312
  C       2.550975     -0.008367     -0.406874
  C       1.392411      0.531493     -1.264837
  C       0.127853      0.809621     -0.500782
  C      -0.165029      1.937580      0.247036
  N      -1.415471      1.817356      0.813847
  C      -1.973113      0.611776      0.448792
  C      -3.219165      0.053075      0.762551
  C      -3.516928     -1.198809      0.225601
  C      -2.596547     -1.877205     -0.606319
  C      -1.357669     -1.320639     -0.916902
  C      -1.021843     -0.057067     -0.385955
  C       3.153072      1.023728      0.603181
  O       3.484162      2.140262      0.136692
  O       3.281371      0.607516      1.798065
  H       2.474606     -2.097985      0.031254
  H       1.120301     -1.256082      0.532457
  H       2.577143     -0.998182      1.349787
  H       3.369840     -0.334619     -1.062922
  H       1.769825      1.446047     -1.742795
  H       1.187925     -0.187769     -2.072494
  H       0.427369      2.832830      0.413204
  H      -1.860530      2.521209      1.394403
  H      -3.929685      0.581092      1.400999
  H      -4.479239     -1.662272      0.449759
  H      -2.865442     -2.853954     -1.012724
  H      -0.658575     -1.855158     -1.564051
