27
zwitterion conformer 2
N       2.14004153    -1.20299505     0.41595596
C       2.55115163    -0.00862444    -0.40722439
C       1.39267325     0.53095303    -1.26578582
C       0.12797549     0.80882266    -0.50167260
C      -0.16357143     1.93567925     0.24828135
N      -1.41370471     1.81498439     0.81695586
C      -1.97194254     0.60964601     0.44992889
C      -3.21795098     0.05102328     0.76369482
C      -3.51696543    -1.19949131     0.22451465
C      -2.59779711    -1.87666925    -0.60971374
C      -1.35904460    -1.32007960    -0.92026084
C      -1.02186202    -0.05796214    -0.38686308
C       3.15496396     1.02541897     0.59965881
O       3.48813813     2.14077375     0.12928227
O       3.28222428     0.61252311     1.79717274
H       2.47113471    -2.09746362     0.03963265
H       1.11766864    -1.25035341     0.53587960
H       2.57435926    -0.99239556     1.35378841
H       3.36891421    -0.33868579    -1.06234567
H       1.76978758     1.44529519    -1.74411546
H       1.18817316    -0.18839245    -2.07322006
H       0.42953480     2.83028925     0.41530127
H      -1.85839342     2.51812316     1.39834996
H      -3.92756827     0.57819567     1.40378621
H      -4.47930960    -1.66278138     0.44864774
H      -2.86764257    -2.85227720    -1.01806410
H      -0.66098789    -1.85355655    -1.56928287
