27
Coordinates from ORCA-job geo_opt E -43.679624482930
  N           3.28503556918698      0.04337965708513     -1.29961097691965
  C           2.09528303781515     -0.22899052681951     -0.46358399140689
  C           1.31124164322756      1.06180809217092     -0.19119370369580
  C           0.03040826790229      0.76999724414003      0.51686086332405
  C          -0.23635103490280      0.92343411440449      1.84551851540032
  N          -1.51073877422614      0.51961397215319      2.12363421718756
  C          -2.09166068016282      0.07005794101802      0.97516843463805
  C          -3.36152451664855     -0.44510006604934      0.74608494733856
  C          -3.68113361364718     -0.81177443979339     -0.54363513405706
  C          -2.76319832395785     -0.66613806459247     -1.58766512188748
  C          -1.50379338067203     -0.15519129316859     -1.36857449295793
  C          -1.14850969502916      0.21901955307029     -0.07222281478180
  C           2.67306429938772     -0.82677889062456      0.88522995718510
  O           1.88929529579273     -1.30509264641454      1.70366309808646
  O           3.92299414380427     -0.74180032705638      0.96008375120209
  H           3.38281587352164     -0.59531721685900     -2.09011169926865
  H           4.05586905762991     -0.15028484515197     -0.57492765008600
  H           3.32890416485507      1.01392474891914     -1.61794716413820
  H           1.43549852169542     -0.97246290275587     -0.91060587692495
  H           1.08217360844575      1.54498243296792     -1.14455759340831
  H           1.91622603082624      1.73199198925960      0.42254654402500
  H           0.40683307511703      1.29288528250840      2.62084249839810
  H          -1.92406443692179      0.49244302672316      3.03960950331199
  H          -4.07137568461970     -0.55692829621494      1.55198151544198
  H          -4.65867432300276     -1.21924525789294     -0.75536626188308
  H          -3.05574143021405     -0.96363639115336     -2.58404596542278
  H          -0.80887671520293     -0.04479687987344     -2.18717541870069
