27
Coordinates from ORCA-job geo_opt E -43.634758007800
  N       3.576381     -0.198721     -0.906763
  C       2.517634     -0.291791      0.127304
  C       1.202751     -0.268602     -0.558138
  C       0.011592     -0.374809      0.305030
  C      -0.134782     -0.753839      1.611132
  N      -1.431736     -0.695181      1.936194
  C      -2.147043     -0.288061      0.881052
  C      -3.507076     -0.068285      0.710854
  C      -3.948966      0.355164     -0.501688
  C      -3.086277      0.577206     -1.578425
  C      -1.732183      0.357895     -1.405539
  C      -1.271193     -0.075072     -0.172766
  C       2.702597      0.937695      0.956309
  O       2.300922      1.056914      2.133236
  O       3.362946      2.061472      0.429171
  H       4.363417     -0.830049     -0.649071
  H       3.923637      0.763004     -0.994015
  H       3.179582     -0.479706     -1.828161
  H       2.744379     -1.161158      0.730779
  H       1.112330     -1.061632     -1.348743
  H       1.188754      0.693415     -1.156924
  H       0.650673     -1.061261      2.282379
  H      -1.823200     -0.935472      2.888005
  H      -4.175203     -0.242272      1.539345
  H      -5.021959      0.541231     -0.671035
  H      -3.499379      0.913253     -2.518236
  H      -1.058599      0.528661     -2.241285
27
Coordinates from ORCA-job geo_opt E -43.664548889720
  N       3.658060     -0.222746     -0.893292
  C       2.552808     -0.287296      0.122292
  C       1.225622     -0.247376     -0.598836
  C       0.016451     -0.348240      0.263482
  C      -0.115412     -0.720336      1.576128
  N      -1.423664     -0.675222      1.933383
  C      -2.171083     -0.276450      0.878862
  C      -3.542595     -0.071686      0.735901
  C      -4.006983      0.343507     -0.482507
  C      -3.153008      0.565905     -1.572683
  C      -1.795449      0.365174     -1.435276
  C      -1.296742     -0.058091     -0.204687
  C       2.711391      0.943757      0.993586
  O       2.256827      1.029002      2.143097
  O       3.371454      1.955587      0.476984
  H       4.432023     -0.842285     -0.623580
  H       4.006477      0.753420     -0.950227
  H       3.304380     -0.494528     -1.822351
  H       2.715568     -1.170130      0.739362
  H       1.155403     -1.038023     -1.368735
  H       1.200289      0.703309     -1.166868
  H       0.672066     -1.008658      2.245472
  H      -1.778825     -0.901831      2.855859
  H      -4.202095     -0.244621      1.574709
  H      -5.069132      0.515564     -0.631698
  H      -3.579648      0.893027     -2.507355
  H      -1.144179      0.539265     -2.281021
27
Coordinates from ORCA-job geo_opt E -43.673464881990
  N       3.687938     -0.253385     -0.871027
  C       2.567704     -0.278903      0.120669
  C       1.242712     -0.220158     -0.636897
  C       0.023033     -0.321124      0.222495
  C      -0.092819     -0.691002      1.532947
  N      -1.404587     -0.661398      1.919440
  C      -2.174259     -0.268907      0.866320
  C      -3.550150     -0.081164      0.752020
  C      -4.040041      0.328427     -0.466694
  C      -3.195645      0.554382     -1.563100
  C      -1.836048      0.372394     -1.458688
  C      -1.306736     -0.042930     -0.235594
  C       2.730322      0.975022      1.021644
  O       2.229242      1.007612      2.150997
  O       3.395755      1.869763      0.508401
  H       4.455697     -0.864299     -0.588561
  H       4.024100      0.735187     -0.890692
  H       3.362466     -0.518035     -1.805181
  H       2.656011     -1.172561      0.740788
  H       1.195877     -1.017161     -1.384882
  H       1.204436      0.729569     -1.174562
  H       0.692850     -0.959850      2.208142
  H      -1.736434     -0.880703      2.834689
  H      -4.199497     -0.255715      1.597441
  H      -5.098708      0.486424     -0.594222
  H      -3.633614      0.876212     -2.494682
  H      -1.199605      0.552303     -2.311208
27
Coordinates from ORCA-job geo_opt E -43.675911801280
  N       3.686392     -0.269095     -0.860894
  C       2.565640     -0.278171      0.121868
  C       1.241369     -0.206752     -0.641528
  C       0.018976     -0.314390      0.215811
  C      -0.095363     -0.691735      1.522606
  N      -1.407355     -0.670554      1.911233
  C      -2.178079     -0.274805      0.859129
  C      -3.553762     -0.093555      0.750576
  C      -4.049823      0.319763     -0.465798
  C      -3.206740      0.553666     -1.559522
  C      -1.845724      0.378120     -1.460833
  C      -1.311506     -0.039904     -0.241268
  C       2.760323      0.998318      1.015609
  O       2.256459      1.022683      2.145492
  O       3.476746      1.873214      0.485680
  H       4.456360     -0.874702     -0.570493
  H       4.013208      0.725663     -0.863937
  H       3.369852     -0.532426     -1.798662
  H       2.622577     -1.169581      0.748720
  H       1.199749     -1.007991     -1.385670
  H       1.200181      0.748692     -1.170734
  H       0.686734     -0.950529      2.206446
  H      -1.738614     -0.890894      2.831065
  H      -4.202128     -0.272784      1.595446
  H      -5.110448      0.472840     -0.587971
  H      -3.645543      0.879129     -2.490343
  H      -1.209482      0.565779     -2.312027
27
Coordinates from ORCA-job geo_opt E -43.675230948240
  N       3.690663     -0.291977     -0.844840
  C       2.567320     -0.296093      0.121178
  C       1.246366     -0.195283     -0.647509
  C       0.022261     -0.307878      0.208658
  C      -0.089041     -0.693692      1.511005
  N      -1.400365     -0.679715      1.902580
  C      -2.171513     -0.278062      0.852562
  C      -3.546137     -0.102740      0.753037
  C      -4.051283      0.316476     -0.459379
  C      -3.210923      0.558227     -1.550108
  C      -1.848175      0.387547     -1.460031
  C      -1.307447     -0.034866     -0.245754
  C       2.804244      0.996575      1.017637
  O       2.211485      1.050489      2.099037
  O       3.448921      1.891426      0.418704
  H       4.460902     -0.899149     -0.554560
  H       4.006013      0.712177     -0.791606
  H       3.391495     -0.527734     -1.795884
  H       2.575615     -1.186064      0.749127
  H       1.207200     -0.998501     -1.390966
  H       1.207183      0.769055     -1.163485
  H       0.686150     -0.941033      2.208337
  H      -1.730541     -0.898360      2.827989
  H      -4.193121     -0.286588      1.597431
  H      -5.114931      0.465044     -0.572651
  H      -3.650394      0.888396     -2.480330
  H      -1.211946      0.582321     -2.310177
27
Coordinates from ORCA-job geo_opt E -43.676753520650
  N       3.680132     -0.290386     -0.845731
  C       2.557865     -0.289108      0.116594
  C       1.238322     -0.182536     -0.650528
  C       0.015147     -0.298909      0.206096
  C      -0.094273     -0.684711      1.507943
  N      -1.405265     -0.677056      1.898242
  C      -2.176295     -0.279149      0.847479
  C      -3.550860     -0.112326      0.749416
  C      -4.060411      0.303277     -0.462838
  C      -3.221528      0.547881     -1.552318
  C      -1.857285      0.384528     -1.463121
  C      -1.313790     -0.033410     -0.249078
  C       2.811225      1.014506      1.004903
  O       2.276242      1.053043      2.112869
  O       3.586502      1.829560      0.457059
  H       4.455495     -0.890309     -0.551518
  H       3.983442      0.721848     -0.779951
  H       3.388049     -0.525977     -1.799162
  H       2.551615     -1.173518      0.749644
  H       1.202346     -0.988724     -1.392342
  H       1.197323      0.783048     -1.166193
  H       0.676951     -0.922696      2.213810
  H      -1.735346     -0.892041      2.826086
  H      -4.197625     -0.298012      1.593364
  H      -5.126279      0.445155     -0.573666
  H      -3.661226      0.874717     -2.484240
  H      -1.220470      0.581307     -2.312819
27
Coordinates from ORCA-job geo_opt E -43.677004729040
  N       3.681849     -0.283651     -0.856134
  C       2.559632     -0.291079      0.114797
  C       1.238091     -0.188535     -0.645653
  C       0.017287     -0.301727      0.212819
  C      -0.093656     -0.682736      1.517728
  N      -1.405112     -0.670585      1.905148
  C      -2.175267     -0.275620      0.853437
  C      -3.550600     -0.105738      0.749681
  C      -4.054760      0.306405     -0.464849
  C      -3.214415      0.546135     -1.556215
  C      -1.851032      0.379520     -1.461274
  C      -1.311455     -0.035522     -0.243815
  C       2.791400      0.998291      1.011257
  O       2.260163      1.044013      2.122069
  O       3.540972      1.840803      0.469384
  H       4.448964     -0.898090     -0.574427
  H       4.006430      0.723365     -0.790287
  H       3.381074     -0.506994     -1.808980
  H       2.574375     -1.179482      0.743763
  H       1.195586     -0.987392     -1.394809
  H       1.200708      0.774151     -1.164674
  H       0.679753     -0.925651      2.218682
  H      -1.735825     -0.883233      2.829648
  H      -4.198901     -0.288360      1.593567
  H      -5.118826      0.450683     -0.580396
  H      -3.652702      0.869769     -2.489036
  H      -1.213735      0.571261     -2.311431
27
Coordinates from ORCA-job geo_opt E -43.677105079330
  N       3.680941     -0.287077     -0.854917
  C       2.558793     -0.294497      0.113001
  C       1.237284     -0.182149     -0.646066
  C       0.016954     -0.297130      0.212810
  C      -0.093089     -0.678591      1.517583
  N      -1.404844     -0.669521      1.904767
  C      -2.175530     -0.275595      0.853033
  C      -3.551180     -0.109420      0.749536
  C      -4.056682      0.301432     -0.465088
  C      -3.216819      0.542750     -1.556220
  C      -1.852990      0.379340     -1.461482
  C      -1.312110     -0.034054     -0.243963
  C       2.801559      0.994822      1.009943
  O       2.256542      1.054286      2.112429
  O       3.563838      1.825989      0.466649
  H       4.444282     -0.908852     -0.579371
  H       4.008788      0.720075     -0.766801
  H       3.382727     -0.493489     -1.811926
  H       2.565221     -1.182879      0.741791
  H       1.192589     -0.977356     -1.399238
  H       1.201899      0.783157     -1.160630
  H       0.678606     -0.918137      2.221618
  H      -1.735171     -0.880095      2.830405
  H      -4.199633     -0.293065      1.593055
  H      -5.121253      0.442869     -0.579850
  H      -3.654982      0.865126     -2.489600
  H      -1.215739      0.572062     -2.311465
27
Coordinates from ORCA-job geo_opt E -43.677176679400
  N       3.678954     -0.293478     -0.856205
  C       2.557568     -0.296956      0.109727
  C       1.235503     -0.169856     -0.645735
  C       0.016368     -0.288705      0.213893
  C      -0.092189     -0.669428      1.518996
  N      -1.404601     -0.666133      1.905366
  C      -2.176515     -0.275445      0.853360
  C      -3.552907     -0.115850      0.748946
  C      -4.059621      0.291683     -0.466369
  C      -3.220378      0.535319     -1.557463
  C      -1.855961      0.377708     -1.461819
  C      -1.313588     -0.031933     -0.243511
  C       2.813726      0.989152      1.008991
  O       2.249963      1.071122      2.099124
  O       3.606829      1.798698      0.475265
  H       4.432321     -0.932515     -0.594029
  H       4.019491      0.712298     -0.734079
  H       3.381305     -0.470044     -1.818596
  H       2.554282     -1.185743      0.737862
  H       1.186155     -0.956624     -1.407685
  H       1.203523      0.800002     -1.152305
  H       0.677670     -0.904224      2.226551
  H      -1.734107     -0.872790      2.832433
  H      -4.201714     -0.301009      1.591825
  H      -5.124836      0.428220     -0.581080
  H      -3.658401      0.854770     -2.491867
  H      -1.218842      0.571763     -2.311596
27
Coordinates from ORCA-job geo_opt E -43.677199482450
  N       3.678202     -0.298891     -0.857365
  C       2.557327     -0.295122      0.108903
  C       1.234450     -0.162086     -0.644461
  C       0.015757     -0.284827      0.215053
  C      -0.092336     -0.665411      1.520167
  N      -1.405191     -0.666015      1.905803
  C      -2.177747     -0.276767      0.853732
  C      -3.554510     -0.120320      0.748247
  C      -4.061173      0.286233     -0.467350
  C      -3.221979      0.531802     -1.558174
  C      -1.857359      0.377059     -1.461567
  C      -1.314822     -0.031470     -0.242922
  C       2.819701      0.989117      1.007426
  O       2.246022      1.085395      2.090828
  O       3.631646      1.785924      0.481535
  H       4.423134     -0.950532     -0.603304
  H       4.031092      0.704479     -0.721260
  H       3.378371     -0.459592     -1.821590
  H       2.550406     -1.183329      0.738115
  H       1.182977     -0.943258     -1.411953
  H       1.203406      0.810658     -1.145725
  H       0.677198     -0.898896      2.228431
  H      -1.734244     -0.871017      2.833273
  H      -4.203585     -0.306788      1.590613
  H      -5.126590      0.420579     -0.582683
  H      -3.659965      0.850485     -2.492801
  H      -1.220190      0.572589     -2.310972
27
Coordinates from ORCA-job geo_opt E -43.677214405410
  N       3.677939     -0.304575     -0.857816
  C       2.556903     -0.291816      0.108548
  C       1.233473     -0.153690     -0.643469
  C       0.015026     -0.281001      0.215652
  C      -0.092460     -0.660901      1.520850
  N      -1.405567     -0.665830      1.906046
  C      -2.178972     -0.278448      0.853851
  C      -3.556051     -0.125049      0.747578
  C      -4.062917      0.280560     -0.468194
  C      -3.223963      0.528224     -1.558785
  C      -1.859073      0.376465     -1.461551
  C      -1.316294     -0.031048     -0.242752
  C       2.825409      0.989926      1.006163
  O       2.241325      1.098554      2.082884
  O       3.656055      1.774077      0.489297
  H       4.412608     -0.970407     -0.611961
  H       4.045833      0.694222     -0.711207
  H       3.375147     -0.449552     -1.823510
  H       2.546478     -1.179532      0.738779
  H       1.180598     -0.929543     -1.416036
  H       1.202921      0.822207     -1.138682
  H       0.677609     -0.893195      2.228930
  H      -1.733933     -0.869338      2.833926
  H      -4.205021     -0.312974      1.589695
  H      -5.128532      0.412738     -0.584165
  H      -3.662466      0.846221     -2.493380
  H      -1.222074      0.573704     -2.310693
27
Coordinates from ORCA-job geo_opt E -43.677231938700
  N       3.676586     -0.314857     -0.858310
  C       2.555751     -0.285923      0.108229
  C       1.231836     -0.136840     -0.641525
  C       0.013617     -0.271809      0.216845
  C      -0.092936     -0.651366      1.521999
  N      -1.406356     -0.664389      1.906245
  C      -2.181112     -0.280732      0.853577
  C      -3.558798     -0.134109      0.745972
  C      -4.066540      0.269034     -0.470252
  C      -3.228030      0.521046     -1.560159
  C      -1.862448      0.376138     -1.461774
  C      -1.318925     -0.028738     -0.242585
  C       2.839002      0.991158      1.005095
  O       2.240515      1.118258      2.071978
  O       3.697720      1.753935      0.500958
  H       4.391219     -1.006773     -0.627290
  H       4.072574      0.672607     -0.693575
  H       3.369034     -0.430969     -1.826333
  H       2.537316     -1.173107      0.739442
  H       1.176492     -0.904022     -1.422236
  H       1.202738      0.844630     -1.125735
  H       0.678125     -0.881094      2.229866
  H      -1.733769     -0.866418      2.834660
  H      -4.207438     -0.325413      1.587589
  H      -5.132659      0.395967     -0.587415
  H      -3.667719      0.837005     -2.494891
  H      -1.225794      0.576780     -2.310375
27
Coordinates from ORCA-job geo_opt E -43.677249413810
  N       3.670879     -0.335115     -0.862697
  C       2.552472     -0.275571      0.105610
  C       1.227999     -0.094346     -0.636858
  C       0.010605     -0.244903      0.220298
  C      -0.093520     -0.621614      1.526143
  N      -1.407399     -0.653509      1.907949
  C      -2.185298     -0.282154      0.853014
  C      -3.564499     -0.154385      0.741929
  C      -4.075014      0.238511     -0.476529
  C      -3.237803      0.499180     -1.565282
  C      -1.870461      0.373483     -1.463615
  C      -1.324566     -0.020686     -0.242261
  C       2.874148      0.984218      1.009880
  O       2.246464      1.147869      2.055002
  O       3.793586      1.696901      0.538407
  H       4.337396     -1.083784     -0.670293
  H       4.128576      0.620452     -0.654229
  H       3.355871     -0.380844     -1.834096
  H       2.513860     -1.165163      0.733133
  H       1.164579     -0.840268     -1.436849
  H       1.205102      0.900130     -1.094144
  H       0.679897     -0.841604      2.234655
  H      -1.732976     -0.851688      2.837790
  H      -4.212108     -0.352709      1.582731
  H      -5.142472      0.350449     -0.596785
  H      -3.680488      0.806469     -2.501514
  H      -1.234829      0.580682     -2.311388
27
Coordinates from ORCA-job geo_opt E -43.677275375720
  N       3.665808     -0.341029     -0.869318
  C       2.550950     -0.273270      0.102777
  C       1.225995     -0.070336     -0.633244
  C       0.009004     -0.227492      0.223458
  C      -0.094222     -0.600110      1.530537
  N      -1.408326     -0.640699      1.910587
  C      -2.187406     -0.279220      0.853042
  C      -3.567373     -0.162778      0.739397
  C      -4.079231      0.220323     -0.481666
  C      -3.242411      0.482497     -1.570301
  C      -1.874200      0.368521     -1.465985
  C      -1.327184     -0.015540     -0.241966
  C       2.895678      0.971274      1.019976
  O       2.260004      1.142848      2.059057
  O       3.838915      1.663526      0.565382
  H       4.307947     -1.116573     -0.702049
  H       4.152630      0.594137     -0.637849
  H       3.346735     -0.347131     -1.840431
  H       2.502531     -1.168117      0.722281
  H       1.156232     -0.803766     -1.444074
  H       1.208369      0.931190     -1.075085
  H       0.680342     -0.811356      2.240513
  H      -1.733581     -0.835885      2.841231
  H      -4.214571     -0.362561      1.580181
  H      -5.147363      0.323066     -0.604146
  H      -3.686372      0.781542     -2.508620
  H      -1.238901      0.576941     -2.313686
27
Coordinates from ORCA-job geo_opt E -43.677295087710
  N       3.658438     -0.349744     -0.877533
  C       2.548765     -0.269628      0.099769
  C       1.223334     -0.039279     -0.627391
  C       0.006780     -0.205386      0.228299
  C      -0.095701     -0.573621      1.536617
  N      -1.410227     -0.626274      1.913821
  C      -2.190447     -0.276621      0.853080
  C      -3.571256     -0.174976      0.735616
  C      -4.084141      0.196891     -0.488514
  C      -3.247453      0.462436     -1.576411
  C      -1.878346      0.363546     -1.468232
  C      -1.330457     -0.008844     -0.241030
  C       2.923713      0.956227      1.030072
  O       2.280162      1.143205      2.061628
  O       3.897230      1.618085      0.594124
  H       4.267997     -1.156852     -0.741998
  H       4.182094      0.558157     -0.617529
  H       3.336535     -0.306602     -1.846780
  H       2.487664     -1.169653      0.710906
  H       1.145366     -0.755863     -1.452302
  H       1.212500      0.971062     -1.049053
  H       0.679806     -0.774253      2.248681
  H      -1.735422     -0.818577      2.845108
  H      -4.218336     -0.377615      1.575814
  H      -5.152982      0.287790     -0.614128
  H      -3.692446      0.751867     -2.517264
  H      -1.243169      0.574522     -2.315369
27
Coordinates from ORCA-job geo_opt E -43.677331997790
  N       3.648519     -0.352718     -0.889990
  C       2.546582     -0.270899      0.096487
  C       1.221486     -0.009262     -0.619741
  C       0.004864     -0.180759      0.234632
  C      -0.097600     -0.542112      1.545037
  N      -1.412753     -0.605010      1.918361
  C      -2.193100     -0.270164      0.852964
  C      -3.574655     -0.184671      0.730849
  C      -4.087950      0.173133     -0.497307
  C      -3.250676      0.439945     -1.584508
  C      -1.880954      0.356953     -1.471528
  C      -1.332564     -0.000744     -0.239944
  C       2.953276      0.931276      1.048907
  O       2.316233      1.113003      2.085325
  O       3.939332      1.578729      0.622141
  H       4.237294     -1.178761     -0.779463
  H       4.195740      0.533561     -0.617359
  H       3.320357     -0.277435     -1.855462
  H       2.474404     -1.179637      0.693375
  H       1.133080     -0.708791     -1.458345
  H       1.220353      1.009324     -1.021518
  H       0.678481     -0.727532      2.260618
  H      -1.739204     -0.796946      2.849455
  H      -4.222116     -0.388344      1.570501
  H      -5.157368      0.251482     -0.626410
  H      -3.695647      0.717309     -2.529008
  H      -1.245413      0.569070     -2.318069
27
Coordinates from ORCA-job geo_opt E -43.677362938930
  N       3.637976     -0.354706     -0.902302
  C       2.544164     -0.275352      0.093596
  C       1.220346      0.018976     -0.610916
  C       0.003021     -0.156489      0.241469
  C      -0.099995     -0.511283      1.553874
  N      -1.415932     -0.582820      1.922908
  C      -2.195682     -0.263147      0.852521
  C      -3.577781     -0.193744      0.725440
  C      -4.090796      0.150888     -0.506577
  C      -3.252480      0.419492     -1.592629
  C      -1.882460      0.351628     -1.474579
  C      -1.333995      0.007460     -0.238815
  C       2.981589      0.904004      1.067312
  O       2.365096      1.066810      2.118849
  O       3.964347      1.551448      0.636150
  H       4.218223     -1.188800     -0.804598
  H       4.196722      0.519106     -0.628226
  H       3.302740     -0.266615     -1.864480
  H       2.461332     -1.192138      0.676395
  H       1.120477     -0.662357     -1.463339
  H       1.230794      1.045291     -0.992779
  H       0.675922     -0.680413      2.273643
  H      -1.744314     -0.777612      2.852839
  H      -4.226164     -0.398487      1.564095
  H      -5.160622      0.217156     -0.639067
  H      -3.696369      0.686188     -2.540698
  H      -1.246157      0.565517     -2.320088
27
Coordinates from ORCA-job geo_opt E -43.677390848570
  N       3.626377     -0.361700     -0.914099
  C       2.540259     -0.278550      0.089695
  C       1.219305      0.054993     -0.601728
  C       0.001218     -0.127936      0.247900
  C      -0.101688     -0.475479      1.562348
  N      -1.418083     -0.559246      1.927404
  C      -2.197884     -0.256981      0.852047
  C      -3.580379     -0.206460      0.719940
  C      -4.093539      0.124055     -0.515860
  C      -3.254915      0.396756     -1.600686
  C      -1.884629      0.346939     -1.477638
  C      -1.335740      0.016883     -0.238033
  C       3.010714      0.874050      1.083553
  O       2.409578      1.024478      2.145544
  O       3.998857      1.513220      0.653549
  H       4.193642     -1.206376     -0.829397
  H       4.200718      0.498611     -0.634878
  H       3.286344     -0.257897     -1.873024
  H       2.441792     -1.202576      0.658346
  H       1.106772     -0.601530     -1.471862
  H       1.243821      1.090844     -0.956739
  H       0.674450     -0.627537      2.285751
  H      -1.747618     -0.756923      2.856426
  H      -4.229232     -0.414039      1.557505
  H      -5.163727      0.175747     -0.651947
  H      -3.698315      0.652415     -2.552010
  H      -1.248097      0.564240     -2.322109
27
Coordinates from ORCA-job geo_opt E -43.677483805590
  N       3.577788     -0.390070     -0.956816
  C       2.522342     -0.283638      0.076395
  C       1.216934      0.188212     -0.560587
  C      -0.005567     -0.026927      0.275158
  C      -0.111751     -0.350290      1.595723
  N      -1.429003     -0.480800      1.944475
  C      -2.205095     -0.239269      0.851286
  C      -3.586491     -0.255464      0.699202
  C      -4.095966      0.027147     -0.549869
  C      -3.254826      0.316989     -1.628332
  C      -1.885762      0.331544     -1.485526
  C      -1.339733      0.049086     -0.232600
  C       3.110192      0.768689      1.124874
  O       2.560027      0.888229      2.217490
  O       4.123936      1.365633      0.696050
  H       4.090138     -1.272993     -0.919278
  H       4.213795      0.417165     -0.658570
  H       3.223746     -0.226819     -1.902298
  H       2.365149     -1.226041      0.600067
  H       1.063105     -0.368465     -1.491521
  H       1.293071      1.252182     -0.811436
  H       0.662196     -0.445476      2.331357
  H      -1.763180     -0.689087      2.869664
  H      -4.238165     -0.475316      1.531369
  H      -5.165447      0.027002     -0.700723
  H      -3.694008      0.535622     -2.590729
  H      -1.247424      0.563154     -2.324825
27
Coordinates from ORCA-job geo_opt E -43.677597918540
  N       3.538271     -0.407315     -0.988990
  C       2.504754     -0.286063      0.063848
  C       1.217556      0.285563     -0.527482
  C      -0.009366      0.044949      0.294824
  C      -0.119613     -0.257381      1.620056
  N      -1.436019     -0.420817      1.957937
  C      -2.207119     -0.226185      0.851831
  C      -3.585609     -0.288953      0.685906
  C      -4.090393     -0.042766     -0.572702
  C      -3.247696      0.256927     -1.647200
  C      -1.881365      0.316383     -1.490959
  C      -1.339508      0.070152     -0.228576
  C       3.167742      0.684707      1.146135
  O       2.648545      0.779213      2.256253
  O       4.201992      1.249046      0.721831
  H       4.008431     -1.314308     -0.987053
  H       4.217732      0.358177     -0.672088
  H       3.179596     -0.197625     -1.923313
  H       2.302683     -1.238485      0.553219
  H       1.038148     -0.188203     -1.498261
  H       1.334217      1.362372     -0.695057
  H       0.651830     -0.313786      2.362794
  H      -1.772873     -0.633924      2.881053
  H      -4.239115     -0.515797      1.514723
  H      -5.157696     -0.079693     -0.734136
  H      -3.682935      0.447639     -2.617252
  H      -1.242190      0.556173     -2.327340
27
Coordinates from ORCA-job geo_opt E -43.677757619970
  N       3.508014     -0.428613     -1.009277
  C       2.485262     -0.288905      0.050591
  C       1.222880      0.374005     -0.504078
  C      -0.009785      0.103974      0.300956
  C      -0.120522     -0.178072      1.630487
  N      -1.433248     -0.368957      1.965619
  C      -2.202973     -0.216671      0.851603
  C      -3.578531     -0.314961      0.679800
  C      -4.082866     -0.099541     -0.584547
  C      -3.243500      0.207294     -1.659390
  C      -1.879658      0.302196     -1.498017
  C      -1.337848      0.085762     -0.230679
  C       3.189617      0.611663      1.155727
  O       2.685966      0.686489      2.275507
  O       4.243562      1.151316      0.743117
  H       3.951033     -1.348634     -1.022341
  H       4.216676      0.310097     -0.669864
  H       3.155301     -0.193271     -1.939086
  H       2.236512     -1.246747      0.507684
  H       1.029400     -0.011353     -1.509149
  H       1.379849      1.455503     -0.583320
  H       0.654175     -0.213960      2.372013
  H      -1.767773     -0.586562      2.888175
  H      -4.229765     -0.547361      1.508895
  H      -5.147837     -0.166463     -0.751436
  H      -3.679771      0.374643     -2.633210
  H      -1.244171      0.547129     -2.335781
27
Coordinates from ORCA-job geo_opt E -43.677774732520
  N       3.448918     -0.443668     -1.049171
  C       2.467286     -0.281907      0.046315
  C       1.225288      0.464539     -0.448834
  C      -0.015338      0.167722      0.335273
  C      -0.141599     -0.096374      1.667429
  N      -1.453595     -0.320242      1.982960
  C      -2.207581     -0.207816      0.853488
  C      -3.576651     -0.347851      0.660255
  C      -4.065411     -0.165106     -0.615301
  C      -3.216915      0.150492     -1.680348
  C      -1.859298      0.287131     -1.497626
  C      -1.332953      0.104005     -0.218584
  C       3.256201      0.541504      1.154214
  O       2.792104      0.613991      2.291298
  O       4.327086      1.031743      0.724934
  H       3.836623     -1.386488     -1.106695
  H       4.209206      0.241158     -0.708875
  H       3.083467     -0.156166     -1.959303
  H       2.180206     -1.239686      0.481195
  H       1.016387      0.165606     -1.479391
  H       1.417794      1.543205     -0.444280
  H       0.624254     -0.102098      2.418926
  H      -1.796683     -0.542151      2.901284
  H      -4.234841     -0.587249      1.481869
  H      -5.125015     -0.265015     -0.799015
  H      -3.641333      0.291534     -2.663516
  H      -1.217604      0.539186     -2.328500
27
Coordinates from ORCA-job geo_opt E -43.677788450000
  N       3.488313     -0.457711     -1.007307
  C       2.487018     -0.276658      0.069300
  C       1.225704      0.401253     -0.481251
  C      -0.013628      0.109266      0.307737
  C      -0.130231     -0.180797      1.635836
  N      -1.441002     -0.389094      1.962609
  C      -2.207209     -0.228638      0.847205
  C      -3.581794     -0.328049      0.670159
  C      -4.082814     -0.106208     -0.594486
  C      -3.240077      0.208937     -1.664189
  C      -1.877078      0.309212     -1.497017
  C      -1.339867      0.088592     -0.228886
  C       3.221770      0.636054      1.135732
  O       2.728282      0.770632      2.255419
  O       4.284878      1.136700      0.699033
  H       3.912323     -1.386007     -1.016251
  H       4.218041      0.270346     -0.692147
  H       3.124680     -0.225404     -1.934350
  H       2.225089     -1.225110      0.539101
  H       1.042841      0.044600     -1.498292
  H       1.384233      1.483833     -0.523485
  H       0.645509     -0.235895      2.374393
  H      -1.778010     -0.616201      2.881800
  H      -4.233631     -0.568821      1.496561
  H      -5.146828     -0.174031     -0.766847
  H      -3.675539      0.378713     -2.638011
  H      -1.240972      0.560487     -2.332367
27
Coordinates from ORCA-job geo_opt E -43.677862903010
  N       3.458612     -0.451159     -1.040046
  C       2.466356     -0.283981      0.046597
  C       1.228901      0.467294     -0.458776
  C      -0.012923      0.165053      0.320426
  C      -0.132554     -0.099251      1.653505
  N      -1.441365     -0.326776      1.975462
  C      -2.201799     -0.209165      0.850553
  C      -3.572409     -0.344454      0.666279
  C      -4.069075     -0.160378     -0.606089
  C      -3.225780      0.152324     -1.676138
  C      -1.866820      0.287499     -1.501872
  C      -1.333437      0.104374     -0.225907
  C       3.235785      0.547295      1.157646
  O       2.746192      0.635433      2.283558
  O       4.315296      1.032526      0.744684
  H       3.851181     -1.392598     -1.088039
  H       4.212945      0.236920     -0.698298
  H       3.100914     -0.169735     -1.955676
  H       2.169378     -1.241050      0.475849
  H       1.030812      0.178504     -1.493909
  H       1.422408      1.545113     -0.438378
  H       0.640346     -0.117249      2.397776
  H      -1.779931     -0.548297      2.895743
  H      -4.225014     -0.582555      1.492762
  H      -5.130065     -0.256171     -0.783713
  H      -3.657210      0.292956     -2.656376
  H      -1.230745      0.537530     -2.337626
27
Coordinates from ORCA-job geo_opt E -43.677888673600
  N       3.440908     -0.452582     -1.052561
  C       2.459910     -0.282401      0.043651
  C       1.230142      0.494848     -0.442288
  C      -0.014423      0.185180      0.329732
  C      -0.138215     -0.073764      1.663807
  N      -1.446626     -0.309921      1.980418
  C      -2.202380     -0.204668      0.851126
  C      -3.570954     -0.353005      0.661432
  C      -4.063242     -0.180960     -0.614280
  C      -3.217310      0.132445     -1.682141
  C      -1.860490      0.280540     -1.502371
  C      -1.331373      0.110174     -0.222646
  C       3.253294      0.522879      1.158526
  O       2.771644      0.610793      2.287803
  O       4.339379      0.990228      0.743599
  H       3.812009     -1.401598     -1.118765
  H       4.212082      0.212422     -0.707692
  H       3.083063     -0.148401     -1.960756
  H       2.150449     -1.239513      0.463617
  H       1.029451      0.234191     -1.484176
  H       1.434797      1.569862     -0.395130
  H       0.631915     -0.082791      2.411046
  H      -1.788160     -0.529218      2.900093
  H      -4.225309     -0.591711      1.486357
  H      -5.122515     -0.286884     -0.796177
  H      -3.645121      0.262801     -2.665393
  H      -1.222926      0.531053     -2.336832
27
Coordinates from ORCA-job geo_opt E -43.677932028010
  N       3.383600     -0.451990     -1.092560
  C       2.437457     -0.275876      0.032328
  C       1.234836      0.579924     -0.390390
  C      -0.018716      0.249958      0.358503
  C      -0.155775      0.008487      1.695631
  N      -1.462156     -0.255290      1.995819
  C      -2.202588     -0.188366      0.853447
  C      -3.563755     -0.378849      0.647531
  C      -4.041375     -0.247104     -0.638377
  C      -3.187101      0.067375     -1.699631
  C      -1.838170      0.257729     -1.503238
  C      -1.323436      0.130244     -0.211937
  C       3.301378      0.442044      1.159679
  O       2.837179      0.536117      2.295481
  O       4.412449      0.841064      0.743770
  H       3.674731     -1.421683     -1.224822
  H       4.209573      0.126550     -0.734823
  H       3.035123     -0.064254     -1.972090
  H       2.088051     -1.231899      0.421193
  H       1.029141      0.407155     -1.448932
  H       1.474551      1.641011     -0.260752
  H       0.605170      0.026318      2.451857
  H      -1.813909     -0.463663      2.914173
  H      -4.223338     -0.619102      1.467823
  H      -5.094374     -0.386378     -0.833306
  H      -3.602610      0.162549     -2.692205
  H      -1.195934      0.507929     -2.334171
27
Coordinates from ORCA-job geo_opt E -43.677951007070
  N       3.391228     -0.455642     -1.085761
  C       2.440061     -0.275861      0.033925
  C       1.234511      0.571552     -0.398001
  C      -0.018139      0.242389      0.352587
  C      -0.152190     -0.002489      1.689341
  N      -1.458080     -0.265217      1.992346
  C      -2.201751     -0.192115      0.852444
  C      -3.564004     -0.377912      0.649670
  C      -4.044965     -0.239647     -0.634326
  C      -3.192941      0.076520     -1.696846
  C      -1.842856      0.261923     -1.503675
  C      -1.324864      0.128151     -0.214416
  C       3.294166      0.455885      1.158462
  O       2.821960      0.562669      2.289816
  O       4.407748      0.852948      0.745565
  H       3.685402     -1.425150     -1.213454
  H       4.214219      0.127082     -0.722933
  H       3.047009     -0.071009     -1.968199
  H       2.093927     -1.230905      0.428142
  H       1.031528      0.390948     -1.455788
  H       1.469760      1.634150     -0.274862
  H       0.610820      0.008595      2.443652
  H      -1.808225     -0.472760      2.911522
  H      -4.221846     -0.619422      1.470983
  H      -5.098921     -0.375003     -0.826868
  H      -3.611223      0.177035     -2.687730
  H      -1.202334      0.513287     -2.335596
27
Coordinates from ORCA-job geo_opt E -43.677976604830
  N       3.368464     -0.461641     -1.099741
  C       2.430219     -0.272741      0.028544
  C       1.237062      0.605355     -0.378738
  C      -0.018821      0.265661      0.361415
  C      -0.157340      0.028930      1.699228
  N      -1.461118     -0.248432      1.997141
  C      -2.199869     -0.190132      0.853082
  C      -3.559031     -0.391470      0.644597
  C      -4.035187     -0.264782     -0.642362
  C      -3.181577      0.054993     -1.702495
  C      -1.834409      0.254926     -1.503921
  C      -1.321103      0.133352     -0.211674
  C       3.305328      0.429723      1.153150
  O       2.833961      0.557249      2.282750
  O       4.433867      0.787875      0.742378
  H       3.631113     -1.437036     -1.250663
  H       4.211304      0.089895     -0.724211
  H       3.033803     -0.045952     -1.971403
  H       2.068296     -1.224778      0.416247
  H       1.033426      0.465668     -1.442250
  H       1.486838      1.659178     -0.217747
  H       0.603492      0.046960      2.455865
  H      -1.814455     -0.450719      2.916332
  H      -4.218142     -0.635649      1.464080
  H      -5.086683     -0.412184     -0.839483
  H      -3.596376      0.146862     -2.695661
  H      -1.193062      0.508888     -2.334461
27
Coordinates from ORCA-job geo_opt E -43.677997211670
  N       3.361086     -0.460948     -1.105385
  C       2.424439     -0.268928      0.023264
  C       1.237544      0.621380     -0.375455
  C      -0.019263      0.281298      0.362318
  C      -0.156886      0.046999      1.700703
  N      -1.458663     -0.240014      1.998147
  C      -2.197343     -0.187451      0.853683
  C      -3.554870     -0.399342      0.644644
  C      -4.030707     -0.280096     -0.643103
  C      -3.178389      0.042381     -1.703552
  C      -1.832973      0.252534     -1.504391
  C      -1.319820      0.138998     -0.211262
  C       3.305294      0.414797      1.155801
  O       2.821363      0.563377      2.277328
  O       4.450358      0.734982      0.759126
  H       3.586424     -1.440404     -1.285759
  H       4.221448      0.051077     -0.712109
  H       3.046187     -0.005821     -1.964857
  H       2.055622     -1.220453      0.405770
  H       1.034430      0.496040     -1.440970
  H       1.493499      1.671365     -0.201016
  H       0.603514      0.068992      2.457651
  H      -1.813402     -0.433407      2.918885
  H      -4.212848     -0.646081      1.464240
  H      -5.080847     -0.436254     -0.840817
  H      -3.592699      0.127701     -2.697503
  H      -1.192497      0.507278     -2.335383
27
Coordinates from ORCA-job geo_opt E -43.678009261290
  N       3.346118     -0.457787     -1.117776
  C       2.417363     -0.266060      0.017845
  C       1.238472      0.642011     -0.363002
  C      -0.019847      0.298468      0.370656
  C      -0.161620      0.071855      1.709799
  N      -1.462509     -0.223089      2.003534
  C      -2.196595     -0.183113      0.855559
  C      -3.551586     -0.406013      0.641683
  C      -4.022495     -0.298049     -0.648845
  C      -3.168137      0.024085     -1.707699
  C      -1.825110      0.245074     -1.503852
  C      -1.316748      0.142420     -0.208022
  C       3.312124      0.389617      1.155603
  O       2.831182      0.538756      2.278424
  O       4.464291      0.687577      0.762287
  H       3.547077     -1.438190     -1.319301
  H       4.220039      0.027536     -0.718816
  H       3.038232      0.022059     -1.966437
  H       2.041029     -1.217936      0.392726
  H       1.031595      0.538133     -1.429910
  H       1.504280      1.686264     -0.169663
  H       0.596186      0.104782      2.469052
  H      -1.819774     -0.413277      2.923910
  H      -4.211518     -0.652410      1.459817
  H      -5.070602     -0.463101     -0.850206
  H      -3.578711      0.100999     -2.703849
  H      -1.182737      0.499385     -2.333517
27
Coordinates from ORCA-job geo_opt E -43.678021136770
  N       3.321416     -0.448877     -1.138590
  C       2.405170     -0.261194      0.008165
  C       1.240265      0.676613     -0.341940
  C      -0.021125      0.327504      0.384110
  C      -0.170024      0.113922      1.724631
  N      -1.469341     -0.193159      2.012335
  C      -2.195345     -0.174721      0.858636
  C      -3.545972     -0.415940      0.637425
  C      -4.008612     -0.328525     -0.657637
  C      -3.150462     -0.008907     -1.714098
  C      -1.811637      0.230459     -1.503015
  C      -1.311569      0.148571     -0.202545
  C       3.323226      0.344658      1.155240
  O       2.845597      0.499374      2.278749
  O       4.487762      0.599085      0.768593
  H       3.478350     -1.428071     -1.380227
  H       4.216808     -0.015424     -0.728366
  H       3.030207      0.077160     -1.965627
  H       2.014968     -1.214010      0.366699
  H       1.029235      0.609291     -1.410689
  H       1.522131      1.709784     -0.115591
  H       0.583178      0.163663      2.487554
  H      -1.831275     -0.376459      2.932182
  H      -4.209200     -0.660226      1.453552
  H      -5.053251     -0.508155     -0.864523
  H      -3.554462      0.051561     -2.714037
  H      -1.166037      0.482022     -2.330986
27
Coordinates from ORCA-job geo_opt E -43.678047040870
  N       3.286098     -0.434726     -1.167924
  C       2.387340     -0.253844     -0.006033
  C       1.243331      0.724637     -0.311428
  C      -0.022771      0.367747      0.402908
  C      -0.182435      0.173072      1.745161
  N      -1.479247     -0.150789      2.024443
  C      -2.193086     -0.162860      0.863017
  C      -3.537228     -0.429276      0.631856
  C      -3.987553     -0.371121     -0.669210
  C      -3.123534     -0.055868     -1.722087
  C      -1.790995      0.208775     -1.501183
  C      -1.303467      0.157005     -0.194489
  C       3.335467      0.281028      1.151927
  O       2.862220      0.451213      2.275081
  O       4.515584      0.467075      0.774074
  H       3.379864     -1.406118     -1.466379
  H       4.208146     -0.078783     -0.742600
  H       3.024201      0.155065     -1.961198
  H       1.976403     -1.207093      0.328091
  H       1.028894      0.710561     -1.381137
  H       1.547500      1.739202     -0.036824
  H       0.564131      0.243814      2.512954
  H      -1.848210     -0.324287      2.943411
  H      -4.205278     -0.670173      1.445088
  H      -5.026998     -0.570887     -0.883680
  H      -3.517739     -0.019044     -2.727054
  H      -1.140637      0.455677     -2.326787
27
Coordinates from ORCA-job geo_opt E -43.678081757180
  N       3.205732     -0.404818     -1.227587
  C       2.346943     -0.237542     -0.034040
  C       1.251900      0.820299     -0.240487
  C      -0.025932      0.449188      0.445395
  C      -0.212246      0.293499      1.789583
  N      -1.503799     -0.064017      2.049072
  C      -2.187896     -0.137957      0.871957
  C      -3.516598     -0.456212      0.618520
  C      -3.936282     -0.458453     -0.694049
  C      -3.057091     -0.152097     -1.736855
  C      -1.739723      0.164314     -1.493928
  C      -1.283071      0.174524     -0.175162
  C       3.354774      0.151773      1.131202
  O       2.906770      0.353355      2.259479
  O       4.548307      0.199538      0.752723
  H       3.170595     -1.340273     -1.633074
  H       4.169179     -0.211200     -0.788045
  H       3.014446      0.298590     -1.945008
  H       1.891698     -1.186000      0.254561
  H       1.036449      0.920806     -1.304589
  H       1.602868      1.786055      0.133701
  H       0.517745      0.405550      2.568408
  H      -1.890708     -0.216223      2.964381
  H      -4.196668     -0.690500      1.423721
  H      -4.963112     -0.699984     -0.925651
  H      -3.426966     -0.163991     -2.751592
  H      -1.077316      0.401776     -2.312637
27
Coordinates from ORCA-job geo_opt E -43.678110024250
  N       3.180671     -0.387521     -1.249783
  C       2.329181     -0.233423     -0.049263
  C       1.255638      0.851824     -0.219751
  C      -0.025900      0.481971      0.459263
  C      -0.221067      0.342065      1.803976
  N      -1.510445     -0.026715      2.058169
  C      -2.183667     -0.126036      0.876595
  C      -3.506080     -0.464714      0.616772
  C      -3.914450     -0.491568     -0.699127
  C      -3.030316     -0.189338     -1.739005
  C      -1.719158      0.147312     -1.489748
  C      -1.274101      0.182896     -0.167487
  C       3.346866      0.096608      1.125602
  O       2.901325      0.302015      2.254153
  O       4.543254      0.098595      0.753064
  H       3.101520     -1.300812     -1.698095
  H       4.151027     -0.257638     -0.803724
  H       3.022576      0.356510     -1.933431
  H       1.856158     -1.180794      0.214325
  H       1.040852      0.992004     -1.279552
  H       1.626001      1.796318      0.187462
  H       0.502585      0.469905      2.586175
  H      -1.902882     -0.172156      2.972244
  H      -4.189893     -0.696474      1.419543
  H      -4.936003     -0.750113     -0.935641
  H      -3.391160     -0.221238     -2.756542
  H      -1.052531      0.380516     -2.306192
27
Coordinates from ORCA-job geo_opt E -43.678142285670
  N       3.120177     -0.347181     -1.299945
  C       2.283779     -0.226509     -0.085639
  C       1.266274      0.920410     -0.169122
  C      -0.024266      0.556719      0.494079
  C      -0.243643      0.455725      1.838616
  N      -1.528315      0.062335      2.078966
  C      -2.172417     -0.097981      0.887749
  C      -3.478805     -0.483545      0.612490
  C      -3.857482     -0.566706     -0.710060
  C      -2.959772     -0.273704     -1.741048
  C      -1.664289      0.108565     -1.476464
  C      -1.249834      0.202375     -0.147066
  C       3.317993     -0.031404      1.103863
  O       2.882876      0.171435      2.236796
  O       4.512447     -0.119367      0.734540
  H       2.956763     -1.203418     -1.831034
  H       4.095194     -0.348492     -0.849960
  H       3.032114      0.468996     -1.909673
  H       1.764839     -1.165340      0.116989
  H       1.057099      1.152075     -1.213987
  H       1.683115      1.809018      0.311001
  H       0.461974      0.619930      2.630226
  H      -1.933710     -0.072909      2.989004
  H      -4.172612     -0.709559      1.408281
  H      -4.865652     -0.863723     -0.958477
  H      -3.297246     -0.351048     -2.764161
  H      -0.986601      0.333302     -2.285965
27
Coordinates from ORCA-job geo_opt E -43.678127868190
  N       3.175797     -0.358188     -1.270783
  C       2.302794     -0.243687     -0.081653
  C       1.259139      0.873257     -0.221105
  C      -0.020474      0.523174      0.468703
  C      -0.219621      0.402355      1.814379
  N      -1.506875      0.024785      2.068873
  C      -2.171670     -0.108577      0.885884
  C      -3.487403     -0.472083      0.625207
  C      -3.887929     -0.526117     -0.692488
  C      -3.002868     -0.224664     -1.732072
  C      -1.698328      0.135505     -1.481799
  C      -1.261949      0.198728     -0.157491
  C       3.293835      0.021959      1.131170
  O       2.819817      0.194203      2.253306
  O       4.499928      0.019447      0.789110
  H       3.090855     -1.251535     -1.757684
  H       4.135178     -0.269168     -0.800933
  H       3.042386      0.415636     -1.925643
  H       1.802040     -1.191588      0.122957
  H       1.041847      1.041039     -1.277298
  H       1.658538      1.797125      0.205305
  H       0.495173      0.547316      2.601226
  H      -1.896463     -0.130329      2.982734
  H      -4.171040     -0.704616      1.427829
  H      -4.903738     -0.805615     -0.929877
  H      -3.357972     -0.278124     -2.750805
  H      -1.030996      0.369763     -2.297051
27
Coordinates from ORCA-job geo_opt E -43.678176502330
  N       3.163696     -0.353470     -1.277873
  C       2.304009     -0.238308     -0.078913
  C       1.259729      0.881313     -0.203260
  C      -0.023104      0.521373      0.477117
  C      -0.229932      0.407583      1.822266
  N      -1.518022      0.030305      2.071608
  C      -2.176885     -0.107366      0.885780
  C      -3.491907     -0.469577      0.620144
  C      -3.885765     -0.530519     -0.699155
  C      -2.994945     -0.237236     -1.735948
  C      -1.691134      0.122473     -1.480865
  C      -1.260870      0.191786     -0.154892
  C       3.314903      0.013711      1.120625
  O       2.859727      0.195442      2.249095
  O       4.516093     -0.010889      0.763249
  H       3.060561     -1.238517     -1.776043
  H       4.130778     -0.282142     -0.815498
  H       3.036750      0.431236     -1.921151
  H       1.804098     -1.185393      0.130640
  H       1.042289      1.062991     -1.256426
  H       1.658343      1.800016      0.234369
  H       0.481682      0.558503      2.611064
  H      -1.913979     -0.114705      2.984379
  H      -4.180658     -0.694620      1.420553
  H      -4.901082     -0.808666     -0.940232
  H      -3.344955     -0.295483     -2.756154
  H      -1.019419      0.350158     -2.294478
27
Coordinates from ORCA-job geo_opt E -43.678194177590
  N       3.143430     -0.329356     -1.299133
  C       2.286151     -0.235371     -0.096611
  C       1.263403      0.907720     -0.182041
  C      -0.022647      0.549238      0.492672
  C      -0.241296      0.455910      1.837405
  N      -1.528231      0.071073      2.080930
  C      -2.174002     -0.094279      0.891411
  C      -3.482955     -0.473357      0.619483
  C      -3.863232     -0.560893     -0.702326
  C      -2.965158     -0.276929     -1.735419
  C      -1.667377      0.099738     -1.474109
  C      -1.250804      0.195771     -0.145416
  C       3.302278     -0.046269      1.109837
  O       2.851340      0.130593      2.240705
  O       4.502615     -0.110202      0.754189
  H       3.005337     -1.184283     -1.839531
  H       4.111607     -0.317864     -0.833485
  H       3.049761      0.490057     -1.903714
  H       1.767956     -1.179153      0.081318
  H       1.045961      1.125523     -1.228265
  H       1.680484      1.804070      0.283274
  H       0.461252      0.624784      2.630581
  H      -1.930440     -0.066160      2.992136
  H      -4.177405     -0.691056      1.417000
  H      -4.873500     -0.852866     -0.948243
  H      -3.304717     -0.356215     -2.757737
  H      -0.989808      0.319774     -2.284909
27
Coordinates from ORCA-job geo_opt E -43.678206029790
  N       3.148965     -0.322722     -1.300527
  C       2.285262     -0.239815     -0.101546
  C       1.263831      0.904898     -0.184763
  C      -0.021328      0.548572      0.492624
  C      -0.240582      0.460018      1.837491
  N      -1.528175      0.077974      2.081934
  C      -2.173596     -0.091604      0.892831
  C      -3.483091     -0.469521      0.621882
  C      -3.863331     -0.560226     -0.699730
  C      -2.964821     -0.280018     -1.733458
  C      -1.666577      0.095705     -1.473107
  C      -1.249958      0.194511     -0.144634
  C       3.293984     -0.056109      1.111939
  O       2.836405      0.100262      2.243201
  O       4.496679     -0.100653      0.761310
  H       3.025175     -1.180361     -1.840206
  H       4.114788     -0.299101     -0.831099
  H       3.046685      0.494513     -1.906638
  H       1.765055     -1.184461      0.064915
  H       1.044245      1.122079     -1.230755
  H       1.683423      1.800873      0.278933
  H       0.461200      0.630400      2.630977
  H      -1.929000     -0.061235      2.993425
  H      -4.177833     -0.684040      1.420007
  H      -4.873953     -0.851492     -0.945000
  H      -3.304602     -0.361528     -2.755534
  H      -0.988852      0.313082     -2.284471
27
Coordinates from ORCA-job geo_opt E -43.678253121560
  N       3.163458     -0.276143     -1.316058
  C       2.269908     -0.253916     -0.135788
  C       1.266857      0.909896     -0.184725
  C      -0.016257      0.563873      0.501034
  C      -0.244687      0.508327      1.845675
  N      -1.534026      0.132504      2.091022
  C      -2.170398     -0.071620      0.902510
  C      -3.478210     -0.456059      0.632613
  C      -3.850199     -0.577741     -0.688873
  C      -2.945757     -0.319805     -1.723143
  C      -1.649455      0.063220     -1.463745
  C      -1.240798      0.191779     -0.135359
  C       3.248911     -0.138980      1.110202
  O       2.766234     -0.068144      2.239567
  O       4.459745     -0.138286      0.784887
  H       3.073782     -1.118731     -1.885416
  H       4.117242     -0.250309     -0.822894
  H       3.056903      0.557972     -1.897870
  H       1.731322     -1.197454     -0.038709
  H       1.037549      1.145665     -1.224992
  H       1.707453      1.790880      0.287335
  H       0.448078      0.697397      2.642558
  H      -1.933616     -0.005833      3.003126
  H      -4.177496     -0.652386      1.431445
  H      -4.859107     -0.875345     -0.933597
  H      -3.279868     -0.424596     -2.744983
  H      -0.967568      0.263835     -2.275824
27
Coordinates from ORCA-job geo_opt E -43.678386953800
  N       3.169757     -0.214393     -1.337977
  C       2.240463     -0.265329     -0.185850
  C       1.274435      0.931265     -0.173519
  C      -0.009551      0.597966      0.516192
  C      -0.253638      0.588340      1.858793
  N      -1.543949      0.214858      2.102725
  C      -2.163374     -0.041872      0.915436
  C      -3.465670     -0.444048      0.644805
  C      -3.821933     -0.614033     -0.675717
  C      -2.908078     -0.384079     -1.708192
  C      -1.617485      0.017374     -1.448058
  C      -1.224249      0.193128     -0.120444
  C       3.182398     -0.265697      1.093801
  O       2.668149     -0.308343      2.210508
  O       4.402162     -0.222898      0.806458
  H       3.111929     -1.030336     -1.948872
  H       4.107484     -0.204915     -0.815893
  H       3.067713      0.645317     -1.882170
  H       1.671112     -1.195285     -0.182962
  H       1.038286      1.211968     -1.201366
  H       1.749592      1.778494      0.325159
  H       0.425765      0.807396      2.659194
  H      -1.944054      0.080132      3.015092
  H      -4.172216     -0.618083      1.442421
  H      -4.825872     -0.927526     -0.921019
  H      -3.230535     -0.525708     -2.729339
  H      -0.928642      0.196308     -2.259203
27
Coordinates from ORCA-job geo_opt E -43.678533348860
  N       3.180662     -0.171302     -1.346048
  C       2.218230     -0.269231     -0.224631
  C       1.279195      0.947525     -0.171589
  C      -0.004566      0.624028      0.522345
  C      -0.255986      0.643038      1.863214
  N      -1.546049      0.269146      2.108680
  C      -2.156266     -0.021994      0.924496
  C      -3.454419     -0.438739      0.656160
  C      -3.802201     -0.641172     -0.662097
  C      -2.884359     -0.428015     -1.694579
  C      -1.597946     -0.011885     -1.436640
  C      -1.213122      0.196096     -0.111253
  C       3.124020     -0.354693      1.077841
  O       2.579603     -0.474572      2.174224
  O       4.351117     -0.289318      0.827273
  H       3.143694     -0.963689     -1.988475
  H       4.102626     -0.184056     -0.795708
  H       3.093094      0.708313     -1.859981
  H       1.628688     -1.184032     -0.289048
  H       1.039761      1.257689     -1.190495
  H       1.777656      1.771195      0.343453
  H       0.415087      0.883521      2.664343
  H      -1.945953      0.140653      3.022056
  H      -4.164013     -0.599913      1.453758
  H      -4.802533     -0.967479     -0.905457
  H      -3.200183     -0.594684     -2.714018
  H      -0.905835      0.153570     -2.247826
27
Coordinates from ORCA-job geo_opt E -43.678672484180
  N       3.188402     -0.141927     -1.349292
  C       2.201807     -0.268808     -0.252296
  C       1.282966      0.961328     -0.170857
  C      -0.000915      0.644066      0.524985
  C      -0.256377      0.681919      1.864539
  N      -1.545456      0.305616      2.111971
  C      -2.149965     -0.008644      0.930685
  C      -3.444757     -0.437127      0.664805
  C      -3.787123     -0.662089     -0.651275
  C      -2.867320     -0.459500     -1.684094
  C      -1.584225     -0.031653     -1.428547
  C      -1.204977      0.199163     -0.105414
  C       3.078442     -0.417885      1.063966
  O       2.509415     -0.589038      2.140777
  O       4.310879     -0.343087      0.843361
  H       3.161944     -0.914673     -2.015634
  H       4.098310     -0.176776     -0.779275
  H       3.116009      0.753008     -1.838517
  H       1.598470     -1.169986     -0.363265
  H       1.043162      1.293225     -1.182997
  H       1.797172      1.767009      0.356918
  H       0.409500      0.938693      2.664962
  H      -1.945931      0.184866      3.026173
  H      -4.155838     -0.590476      1.462622
  H      -4.784642     -0.998387     -0.892579
  H      -3.178723     -0.643850     -2.701844
  H      -0.890230      0.125014     -2.239877
27
Coordinates from ORCA-job geo_opt E -43.678795031060
  N       3.194486     -0.119745     -1.350293
  C       2.188216     -0.266632     -0.274096
  C       1.286068      0.973677     -0.170623
  C       0.002009      0.660924      0.526214
  C      -0.255974      0.712420      1.864741
  N      -1.543801      0.332996      2.114165
  C      -2.144249      0.001515      0.935460
  C      -3.436056     -0.437208      0.671940
  C      -3.774353     -0.679680     -0.642124
  C      -2.853503     -0.484356     -1.675391
  C      -1.573368     -0.046226     -1.422185
  C      -1.198404      0.202462     -0.101138
  C       3.039739     -0.467233      1.051256
  O       2.449832     -0.673692      2.110467
  O       4.276384     -0.391705      0.855213
  H       3.174378     -0.875441     -2.036135
  H       4.094002     -0.175420     -0.765069
  H       3.136921      0.787617     -1.818129
  H       1.574057     -1.155257     -0.421097
  H       1.047157      1.323058     -1.177254
  H       1.812342      1.764488      0.367659
  H       0.406142      0.982266      2.664016
  H      -1.945099      0.219735      3.028986
  H      -4.147898     -0.585395      1.470063
  H      -4.769390     -1.024648     -0.881444
  H      -3.161481     -0.682767     -2.691534
  H      -0.878156      0.104245     -2.233668
27
Coordinates from ORCA-job geo_opt E -43.678919770860
  N       3.200491     -0.097862     -1.350481
  C       2.174337     -0.263710     -0.296225
  C       1.289245      0.986383     -0.169990
  C       0.005061      0.677938      0.527842
  C      -0.255879      0.743309      1.865091
  N      -1.542414      0.360576      2.116309
  C      -2.138393      0.011652      0.940346
  C      -3.427037     -0.437565      0.679130
  C      -3.760835     -0.697777     -0.632722
  C      -2.838724     -0.509642     -1.666186
  C      -1.561744     -0.060998     -1.415297
  C      -1.191472      0.205721     -0.096481
  C       2.999729     -0.516491      1.036324
  O       2.388732     -0.755658      2.076508
  O       4.240317     -0.443000      0.865346
  H       3.185867     -0.835072     -2.056250
  H       4.088912     -0.177219     -0.751000
  H       3.159167      0.821985     -1.795084
  H       1.549571     -1.138022     -0.479856
  H       1.051415      1.353499     -1.170731
  H       1.827520      1.761797      0.378631
  H       0.402082      1.026451      2.663194
  H      -1.944658      0.254639      3.031595
  H      -4.139814     -0.580543      1.477381
  H      -4.753246     -1.051549     -0.870104
  H      -3.143019     -0.722326     -2.680550
  H      -0.865213      0.083486     -2.226740
27
Coordinates from ORCA-job geo_opt E -43.679041898000
  N       3.208241     -0.076254     -1.349033
  C       2.161269     -0.260324     -0.318571
  C       1.292243      0.998324     -0.170223
  C       0.008198      0.693759      0.528960
  C      -0.255484      0.772944      1.864803
  N      -1.540748      0.387267      2.118143
  C      -2.132553      0.021249      0.945270
  C      -3.418240     -0.437829      0.686761
  C      -3.747959     -0.715201     -0.622624
  C      -2.824802     -0.534311     -1.656434
  C      -1.550752     -0.075824     -1.408278
  C      -1.184722      0.208254     -0.091941
  C       2.958539     -0.564159      1.019997
  O       2.325542     -0.835238      2.038989
  O       4.202714     -0.493080      0.875708
  H       3.200402     -0.794673     -2.074003
  H       4.084664     -0.179276     -0.735573
  H       3.183038      0.855239     -1.770058
  H       1.527331     -1.119370     -0.539119
  H       1.055339      1.382417     -1.164975
  H       1.841701      1.758794      0.387985
  H       0.398476      1.069258      2.661414
  H      -1.943687      0.288488      3.033935
  H      -4.131816     -0.575413      1.485258
  H      -4.737950     -1.077163     -0.857773
  H      -3.125838     -0.760716     -2.668799
  H      -0.853146      0.062840     -2.219818
27
Coordinates from ORCA-job geo_opt E -43.679187921730
  N       3.221754     -0.056910     -1.341151
  C       2.149146     -0.251629     -0.340291
  C       1.295420      1.013994     -0.176896
  C       0.011005      0.710352      0.520834
  C      -0.248474      0.797694      1.857062
  N      -1.530236      0.405451      2.117744
  C      -2.123544      0.028144      0.949263
  C      -3.405909     -0.443650      0.697768
  C      -3.736928     -0.734388     -0.608417
  C      -2.817864     -0.555988     -1.646363
  C      -1.546635     -0.085713     -1.405157
  C      -1.180097      0.213236     -0.092490
  C       2.907048     -0.608523      1.005688
  O       2.242851     -0.911729      1.995560
  O       4.155161     -0.543248      0.896342
  H       3.219145     -0.754982     -2.085462
  H       4.082588     -0.188073     -0.708690
  H       3.220525      0.885960     -1.737258
  H       1.507724     -1.096395     -0.593361
  H       1.064600      1.414871     -1.166641
  H       1.852359      1.760085      0.393578
  H       0.406577      1.108288      2.647795
  H      -1.935178      0.324033      3.034341
  H      -4.116315     -0.580563      1.499248
  H      -4.724573     -1.106278     -0.837911
  H      -3.119127     -0.793991     -2.655971
  H      -0.851026      0.049951     -2.219164
27
Coordinates from ORCA-job geo_opt E -43.679366538860
  N       3.238725     -0.025055     -1.331804
  C       2.132438     -0.244879     -0.374385
  C       1.299418      1.030072     -0.180718
  C       0.015634      0.730972      0.519209
  C      -0.245956      0.838194      1.853574
  N      -1.525071      0.441252      2.119334
  C      -2.114458      0.041409      0.956510
  C      -3.392694     -0.444669      0.711357
  C      -3.719870     -0.759189     -0.590289
  C      -2.800856     -0.590919     -1.629977
  C      -1.533504     -0.107175     -1.395072
  C      -1.171293      0.216447     -0.087043
  C       2.841515     -0.677320      0.975882
  O       2.141789     -1.026751      1.925162
  O       4.093344     -0.616493      0.912655
  H       3.251960     -0.692807     -2.103445
  H       4.076297     -0.191991     -0.676866
  H       3.262178      0.932781     -1.688990
  H       1.481568     -1.063074     -0.684232
  H       1.070817      1.452655     -1.162194
  H       1.869928      1.756404      0.401407
  H       0.404195      1.168552      2.640240
  H      -1.932432      0.376279      3.036055
  H      -4.102969     -0.574116      1.514215
  H      -4.704323     -1.142440     -0.814771
  H      -3.098909     -0.848295     -2.635787
  H      -0.837472      0.020153     -2.210026
27
Coordinates from ORCA-job geo_opt E -43.679548555570
  N       3.263968      0.018384     -1.313865
  C       2.108273     -0.232906     -0.425183
  C       1.305555      1.053381     -0.185939
  C       0.023067      0.760046      0.517689
  C      -0.242040      0.895150      1.848709
  N      -1.517914      0.492936      2.121553
  C      -2.100933      0.060152      0.967534
  C      -3.373200     -0.445688      0.731463
  C      -3.693918     -0.794844     -0.562912
  C      -2.774548     -0.641621     -1.604603
  C      -1.512970     -0.138781     -1.378871
  C      -1.157454      0.219719     -0.078142
  C       2.740772     -0.772688      0.923261
  O       1.989556     -1.181658      1.807299
  O       3.995073     -0.725004      0.927885
  H       3.308495     -0.608755     -2.117738
  H       4.064071     -0.194674     -0.625726
  H       3.317991      0.992825     -1.618638
  H       1.447972     -1.006822     -0.817557
  H       1.079640      1.509095     -1.153500
  H       1.896369      1.748639      0.413445
  H       0.401535      1.252112      2.629265
  H      -1.928263      0.449287      3.038257
  H      -4.083725     -0.564066      1.535834
  H      -4.673523     -1.194378     -0.780114
  H      -3.067717     -0.926528     -2.604431
  H      -0.816134     -0.023312     -2.194972
27
Coordinates from ORCA-job geo_opt E -43.679568194860
  N       3.275395      0.050222     -1.303967
  C       2.075211     -0.220592     -0.481246
  C       1.316884      1.079395     -0.176903
  C       0.034108      0.792716      0.528678
  C      -0.244514      0.962004      1.852517
  N      -1.519817      0.557123      2.125720
  C      -2.085990      0.080580      0.980420
  C      -3.351037     -0.444587      0.747831
  C      -3.657410     -0.831555     -0.539255
  C      -2.732087     -0.694258     -1.577720
  C      -1.478083     -0.171182     -1.355648
  C      -1.135926      0.222849     -0.061765
  C       2.632958     -0.863726      0.853311
  O       1.837404     -1.358050      1.650824
  O       3.882882     -0.795289      0.941413
  H       3.365235     -0.569013     -2.110361
  H       4.039124     -0.178232     -0.580879
  H       3.340748      1.028290     -1.595953
  H       1.401738     -0.936053     -0.952795
  H       1.093388      1.584923     -1.120196
  H       1.937074      1.725628      0.446824
  H       0.387916      1.343533      2.630783
  H      -1.926298      0.508526      3.044036
  H      -4.066418     -0.550080      1.549681
  H      -4.630563     -1.248260     -0.753238
  H      -3.014738     -1.007460     -2.572125
  H      -0.777186     -0.067450     -2.169986
27
Coordinates from ORCA-job geo_opt E -43.679606704380
  N       3.290312      0.050794     -1.292264
  C       2.092468     -0.222773     -0.469536
  C       1.311496      1.069453     -0.193282
  C       0.029816      0.778123      0.512837
  C      -0.236078      0.936316      1.841267
  N      -1.508822      0.529661      2.122339
  C      -2.089570      0.073999      0.976244
  C      -3.357545     -0.447115      0.750374
  C      -3.676447     -0.821783     -0.537196
  C      -2.759667     -0.678478     -1.582490
  C      -1.502345     -0.160878     -1.366966
  C      -1.147951      0.221755     -0.072801
  C       2.655672     -0.845423      0.873532
  O       1.861779     -1.320358      1.684099
  O       3.907286     -0.784351      0.952427
  H       3.379482     -0.560368     -2.105062
  H       4.052393     -0.177665     -0.566195
  H       3.356902      1.030885     -1.574351
  H       1.430862     -0.957186     -0.928790
  H       1.087733      1.554697     -1.147038
  H       1.916937      1.737653      0.422096
  H       0.405251      1.313975      2.614238
  H      -1.921989      0.506919      3.038498
  H      -4.066268     -0.558063      1.557392
  H      -4.652512     -1.234198     -0.746215
  H      -3.051341     -0.983169     -2.576963
  H      -0.807854     -0.052425     -2.186194
27
Coordinates from ORCA-job geo_opt E -43.679615053150
  N       3.277854      0.036710     -1.304999
  C       2.097532     -0.229663     -0.453641
  C       1.310272      1.061013     -0.187303
  C       0.028281      0.769167      0.518562
  C      -0.239889      0.920094      1.847225
  N      -1.515338      0.517700      2.122915
  C      -2.094595      0.068719      0.973283
  C      -3.364777     -0.444415      0.741562
  C      -3.682988     -0.808917     -0.549118
  C      -2.763636     -0.662409     -1.591713
  C      -1.504245     -0.152367     -1.370232
  C      -1.150238      0.219404     -0.072840
  C       2.691085     -0.815596      0.893051
  O       1.916681     -1.276678      1.730101
  O       3.942903     -0.741954      0.946984
  H       3.358616     -0.595643     -2.102201
  H       4.057322     -0.166154     -0.591150
  H       3.327055      1.009662     -1.615515
  H       1.435634     -0.979648     -0.886629
  H       1.083319      1.539152     -1.143717
  H       1.912608      1.735794      0.423916
  H       0.401848      1.287709      2.624500
  H      -1.925515      0.479384      3.039980
  H      -4.075617     -0.556958      1.546488
  H      -4.660675     -1.215047     -0.762785
  H      -3.055114     -0.958207     -2.588899
  H      -0.808382     -0.040853     -2.187826
27
Coordinates from ORCA-job geo_opt E -43.679621026190
  N       3.282889      0.042827     -1.300498
  C       2.094071     -0.227488     -0.462522
  C       1.311321      1.064293     -0.189289
  C       0.029802      0.773018      0.517539
  C      -0.238156      0.927618      1.845819
  N      -1.512932      0.524249      2.123168
  C      -2.091942      0.071229      0.975044
  C      -3.361247     -0.445011      0.745387
  C      -3.679218     -0.814161     -0.544029
  C      -2.760446     -0.669286     -1.587383
  C      -1.501840     -0.156487     -1.367891
  C      -1.148090      0.219947     -0.071771
  C       2.673204     -0.829043      0.883580
  O       1.889969     -1.301661      1.705819
  O       3.924217     -0.753746      0.952692
  H       3.372345     -0.586945     -2.098899
  H       4.054623     -0.163164     -0.579262
  H       3.334786      1.016760     -1.607270
  H       1.432117     -0.969562     -0.908766
  H       1.084408      1.547661     -1.143096
  H       1.916608      1.733950      0.424682
  H       0.403274      1.298791      2.621706
  H      -1.923820      0.490414      3.040055
  H      -4.071652     -0.556338      1.550869
  H      -4.656200     -1.222824     -0.756075
  H      -3.051705     -0.968733     -2.583554
  H      -0.806387     -0.046308     -2.186056
27
Coordinates from ORCA-job geo_opt E -43.679623106440
  N       3.285140      0.044453     -1.298866
  C       2.093889     -0.227471     -0.464960
  C       1.311530      1.064140     -0.190691
  C       0.030326      0.772723      0.516697
  C      -0.236931      0.927685      1.845092
  N      -1.511395      0.523983      2.123262
  C      -2.091206      0.071374      0.975414
  C      -3.360523     -0.445252      0.746643
  C      -3.679241     -0.814555     -0.542542
  C      -2.761091     -0.669651     -1.586472
  C      -1.502371     -0.156835     -1.367772
  C      -1.147902      0.219813     -0.071902
  C       2.668902     -0.831237      0.882107
  O       1.883246     -1.308382      1.699398
  O       3.919316     -0.752199      0.957052
  H       3.379720     -0.587854     -2.094771
  H       4.054524     -0.157839     -0.574445
  H       3.334960      1.017442     -1.608793
  H       1.432868     -0.968285     -0.914627
  H       1.084025      1.548638     -1.143761
  H       1.917189      1.732806      0.424018
  H       0.405244      1.299034      2.620320
  H      -1.923194      0.493473      3.039833
  H      -4.070477     -0.556547      1.552529
  H      -4.656261     -1.223445     -0.753946
  H      -3.052897     -0.969238     -2.582443
  H      -0.807390     -0.046775     -2.186371
27
Coordinates from ORCA-job geo_opt E -43.679624240390
  N       3.285797      0.044078     -1.298830
  C       2.094978     -0.228521     -0.464469
  C       1.311311      1.062427     -0.191587
  C       0.030448      0.770685      0.516403
  C      -0.236170      0.924606      1.845048
  N      -1.510557      0.520918      2.123436
  C      -2.091393      0.070496      0.975265
  C      -3.361135     -0.445143      0.746579
  C      -3.680763     -0.812653     -0.542894
  C      -2.762989     -0.667221     -1.587101
  C      -1.503744     -0.155719     -1.368408
  C      -1.148408      0.219247     -0.072284
  C       2.670925     -0.828481      0.884126
  O       1.886037     -1.307333      1.701155
  O       3.920875     -0.744531      0.960318
  H       3.383633     -0.592927     -2.090674
  H       4.055577     -0.151673     -0.573465
  H       3.331317      1.015275     -1.614908
  H       1.435152     -0.971024     -0.913056
  H       1.082613      1.545996     -1.144832
  H       1.916428      1.732154      0.422529
  H       0.406927      1.294651      2.620157
  H      -1.923307      0.492857      3.039647
  H      -4.070841     -0.556784      1.552632
  H      -4.658176     -1.220597     -0.754298
  H      -3.055513     -0.965380     -2.583291
  H      -0.809021     -0.045403     -2.187195
27
Coordinates from ORCA-job geo_opt E -43.679624482930
  N       3.285036      0.043380     -1.299611
  C       2.095283     -0.228991     -0.463584
  C       1.311242      1.061808     -0.191194
  C       0.030408      0.769997      0.516861
  C      -0.236351      0.923434      1.845519
  N      -1.510739      0.519614      2.123634
  C      -2.091661      0.070058      0.975168
  C      -3.361525     -0.445100      0.746085
  C      -3.681134     -0.811774     -0.543635
  C      -2.763198     -0.666138     -1.587665
  C      -1.503793     -0.155191     -1.368574
  C      -1.148510      0.219020     -0.072223
  C       2.673064     -0.826779      0.885230
  O       1.889295     -1.305093      1.703663
  O       3.922994     -0.741800      0.960084
  H       3.382816     -0.595317     -2.090112
  H       4.055869     -0.150285     -0.574928
  H       3.328904      1.013925     -1.617947
  H       1.435499     -0.972463     -0.910606
  H       1.082174      1.544982     -1.144558
  H       1.916226      1.731992      0.422547
  H       0.406833      1.292885      2.620842
  H      -1.924064      0.492443      3.039610
  H      -4.071376     -0.556928      1.551982
  H      -4.658674     -1.219245     -0.755366
  H      -3.055741     -0.963636     -2.584046
  H      -0.808877     -0.044797     -2.187175
