27
zwitterion conformer 1
N       3.57638143    -0.19872058    -0.90676331
C       2.51763421    -0.29179112     0.12730382
C       1.20275097    -0.26860186    -0.55813832
C       0.01159196    -0.37480873     0.30502997
C      -0.13478161    -0.75383926     1.61113239
N      -1.43173611    -0.69518148     1.93619385
C      -2.14704316    -0.28806136     0.88105158
C      -3.50707577    -0.06828514     0.71085420
C      -3.94896574     0.35516361    -0.50168821
C      -3.08627710     0.57720616    -1.57842517
C      -1.73218334     0.35789523    -1.40553850
C      -1.27119269    -0.07507163    -0.17276623
C       2.70259697     0.93769512     0.95630900
O       2.30092237     1.05691450     2.13323608
O       3.36294642     2.06147237     0.42917085
H       4.36341651    -0.83004922    -0.64907057
H       3.92363726     0.76300425    -0.99401526
H       3.17958161    -0.47970578    -1.82816101
H       2.74437914    -1.16115802     0.73077864
H       1.11233032    -1.06163207    -1.34874299
H       1.18875366     0.69341484    -1.15692373
H       0.65067295    -1.06126116     2.28237939
H      -1.82319998    -0.93547218     2.88800479
H      -4.17520341    -0.24227167     1.53934467
H      -5.02195919     0.54123120    -0.67103477
H      -3.49937900     0.91325328    -2.51823583
H      -1.05859870     0.52866071    -2.24128535
