20
Coordinates from ORCA-job geo_opt E -34.363727056100
  N          -2.53103762415330      0.44966721297419     -1.38317644436143
  C          -1.35234763744237      0.52649381396659     -0.54587149409526
  C          -0.11450225015635     -0.23678112574900     -1.10784336253928
  C           1.09559348891620      0.01875427039007     -0.28089153098357
  C           1.64889124562025     -0.75215997511736      0.70609320757146
  N           2.71696490598667     -0.04867284624296      1.18438438086750
  C           2.76415893264882      1.10430699159803      0.48400030880867
  N           1.81071765184191      1.17798374146192     -0.40469243744701
  C          -1.63231795033168     -0.05408844938933      0.82445957430833
  O          -1.15429038099653      0.37291430446220      1.85381696118941
  O          -2.40205217541054     -1.12595967251225      0.78835423260036
  H          -2.83204146202597     -0.51547890375110     -1.46709993257599
  H          -2.31088216006753      0.79536617551188     -2.30988920554140
  H          -1.07298584774561      1.57685815770136     -0.41587217423681
  H           0.06322501654807      0.12551203049730     -2.12151405005616
  H          -0.33315910638628     -1.30619732729030     -1.13607096622047
  H           1.37757099530924     -1.71415720728877      1.08672297269611
  H           3.33279837528595     -0.33446706303424      1.92813664046372
  H           3.50346630566290      1.86297565043901      0.64012287294736
  H          -2.57777031310384     -1.49324953862723      1.67683046660445
