20
Coordinates from ORCA-job geo_opt E -34.327579175980
  N      -2.478092      0.224094     -1.439655
  C      -1.335878      0.469659     -0.562816
  C      -0.049547      0.009320     -1.164715
  C       1.144607      0.228014     -0.330027
  C       1.664970     -0.652588      0.596075
  N       2.759989     -0.078939      1.146107
  C       2.935782      1.132166      0.589397
  N       1.945486      1.329137     -0.320607
  C      -1.641162     -0.187383      0.733349
  O      -0.839217     -0.156729      1.718984
  O      -2.831284     -0.885918      0.961872
  H      -2.972919     -0.646941     -1.128960
  H      -2.077809      0.014087     -2.387822
  H      -1.307094      1.561203     -0.347674
  H       0.035161      0.470312     -2.170101
  H      -0.170207     -1.092960     -1.376502
  H       1.329007     -1.629556      0.888912
  H       3.378297     -0.496330      1.883989
  H       3.730131      1.832334      0.824698
  H      -3.220222     -1.013361      1.885496
20
Coordinates from ORCA-job geo_opt E -34.351266140880
  N      -2.497142      0.255768     -1.451522
  C      -1.350392      0.453982     -0.547765
  C      -0.033006     -0.032739     -1.148786
  C       1.163077      0.189342     -0.308532
  C       1.692718     -0.689409      0.611129
  N       2.767889     -0.076635      1.149152
  C       2.887393      1.133510      0.570203
  N       1.923903      1.315378     -0.321999
  C      -1.644227     -0.182219      0.769344
  O      -0.875916     -0.143958      1.732951
  O      -2.801087     -0.858195      0.924439
  H      -3.012464     -0.576265     -1.168982
  H      -2.137674      0.069432     -2.387352
  H      -1.288173      1.534996     -0.332419
  H       0.074038      0.439610     -2.132944
  H      -0.136241     -1.115347     -1.349711
  H       1.379957     -1.670870      0.907038
  H       3.380993     -0.452455      1.864018
  H       3.648574      1.849180      0.792902
  H      -3.142219     -1.013484      1.828836
20
Coordinates from ORCA-job geo_opt E -34.357935847300
  N      -2.497423      0.298171     -1.456326
  C      -1.357962      0.445498     -0.541645
  C      -0.036259     -0.082010     -1.147513
  C       1.160176      0.144431     -0.297096
  C       1.700989     -0.719131      0.625981
  N       2.766959     -0.069220      1.158500
  C       2.835373      1.136935      0.555712
  N       1.885190      1.295649     -0.323697
  C      -1.632633     -0.178512      0.799067
  O      -0.875381     -0.119665      1.742366
  O      -2.777260     -0.824660      0.892547
  H      -3.039771     -0.513572     -1.195682
  H      -2.162113      0.144706     -2.396235
  H      -1.244944      1.518480     -0.332267
  H       0.092840      0.405907     -2.114539
  H      -0.142378     -1.154557     -1.329546
  H       1.408861     -1.702012      0.928726
  H       3.384551     -0.414610      1.869684
  H       3.576120      1.875618      0.768659
  H      -3.044934     -1.057825      1.793301
20
Coordinates from ORCA-job geo_opt E -34.359924336260
  N      -2.494941      0.335978     -1.457157
  C      -1.360236      0.456194     -0.544274
  C      -0.047952     -0.120962     -1.143167
  C       1.151117      0.111614     -0.292879
  C       1.710199     -0.737343      0.629152
  N       2.769572     -0.064913      1.161611
  C       2.808724      1.139891      0.551683
  N       1.857175      1.278159     -0.328130
  C      -1.639404     -0.144007      0.816397
  O      -0.896823     -0.038374      1.767539
  O      -2.764820     -0.828305      0.875915
  H      -3.052421     -0.472359     -1.210665
  H      -2.167998      0.208755     -2.405370
  H      -1.199579      1.527249     -0.353995
  H       0.099208      0.363055     -2.108776
  H      -0.172242     -1.194508     -1.300809
  H       1.435819     -1.723510      0.935923
  H       3.393491     -0.397535      1.876555
  H       3.538756      1.893148      0.762398
  H      -2.967643     -1.162607      1.768049
20
Coordinates from ORCA-job geo_opt E -34.360930539660
  N      -2.497265      0.367833     -1.447539
  C      -1.356748      0.471372     -0.553856
  C      -0.061559     -0.155343     -1.145021
  C       1.135385      0.081389     -0.292043
  C       1.704821     -0.751301      0.634276
  N       2.758120     -0.063249      1.167020
  C       2.779310      1.139766      0.553748
  N       1.823531      1.262195     -0.326848
  C      -1.627479     -0.118304      0.816734
  O      -0.911055      0.060110      1.778880
  O      -2.721751     -0.859015      0.866463
  H      -3.044095     -0.456437     -1.224338
  H      -2.185271      0.291462     -2.407527
  H      -1.150086      1.538791     -0.381130
  H       0.103216      0.319196     -2.112874
  H      -0.209168     -1.229562     -1.278011
  H       1.444310     -1.740350      0.945448
  H       3.383585     -0.387767      1.886773
  H       3.502033      1.902077      0.765169
  H      -2.869834     -1.243243      1.754675
20
Coordinates from ORCA-job geo_opt E -34.361759400860
  N      -2.507620      0.418840     -1.427939
  C      -1.354256      0.507474     -0.566681
  C      -0.087412     -0.196236     -1.138388
  C       1.108834      0.043872     -0.285852
  C       1.683146     -0.764182      0.655151
  N       2.731755     -0.059930      1.180652
  C       2.745681      1.132262      0.548107
  N       1.792286      1.230010     -0.340797
  C      -1.621500     -0.061406      0.812211
  O      -0.936586      0.187646      1.783273
  O      -2.610908     -0.944244      0.832346
  H      -3.022105     -0.436823     -1.240742
  H      -2.221905      0.422986     -2.400511
  H      -1.085256      1.565678     -0.425880
  H       0.101351      0.244949     -2.118189
  H      -0.274200     -1.268854     -1.228004
  H       1.431049     -1.750560      0.983905
  H       3.353022     -0.370793      1.912149
  H       3.465575      1.900690      0.752029
  H      -2.690951     -1.371760      1.713162
20
Coordinates from ORCA-job geo_opt E -34.362597384250
  N      -2.514552      0.446502     -1.407286
  C      -1.348983      0.524425     -0.568201
  C      -0.101078     -0.226266     -1.129263
  C       1.096865      0.017896     -0.281502
  C       1.681270     -0.774025      0.665742
  N       2.724655     -0.056012      1.181456
  C       2.728210      1.129707      0.537740
  N       1.773285      1.208613     -0.351700
  C      -1.611939     -0.056485      0.803844
  O      -1.008654      0.281184      1.802518
  O      -2.534745     -1.011502      0.808327
  H      -2.975055     -0.450905     -1.287557
  H      -2.254870      0.559360     -2.381054
  H      -1.046267      1.573488     -0.439821
  H       0.096999      0.186328     -2.119785
  H      -0.312307     -1.296087     -1.190197
  H       1.441749     -1.760477      1.005121
  H       3.346139     -0.356426      1.917373
  H       3.443663      1.903692      0.734543
  H      -2.624384     -1.413391      1.699702
20
Coordinates from ORCA-job geo_opt E -34.363276625880
  N      -2.523268      0.461370     -1.395263
  C      -1.349983      0.537449     -0.561699
  C      -0.110298     -0.239098     -1.113800
  C       1.091452      0.009673     -0.273535
  C       1.673977     -0.770285      0.686587
  N       2.725212     -0.051806      1.180248
  C       2.734301      1.123163      0.516626
  N       1.771380      1.196094     -0.362682
  C      -1.618489     -0.051519      0.802391
  O      -1.072258      0.319849      1.820821
  O      -2.466979     -1.069496      0.783701
  H      -2.923172     -0.469582     -1.346610
  H      -2.282368      0.667982     -2.357755
  H      -1.039749      1.581349     -0.439628
  H       0.086183      0.139646     -2.118121
  H      -0.335113     -1.306860     -1.151507
  H       1.433635     -1.750694      1.042072
  H       3.348375     -0.345076      1.916030
  H       3.456245      1.894074      0.695264
  H      -2.599082     -1.446612      1.676860
20
Coordinates from ORCA-job geo_opt E -34.363555427760
  N      -2.527719      0.461415     -1.390455
  C      -1.352336      0.538361     -0.551443
  C      -0.112961     -0.241239     -1.103362
  C       1.093977      0.011455     -0.272297
  C       1.672559     -0.766287      0.694300
  N       2.728008     -0.049527      1.178193
  C       2.745379      1.118526      0.501342
  N       1.786313      1.187018     -0.380616
  C      -1.627107     -0.051677      0.810572
  O      -1.117002      0.336637      1.840318
  O      -2.435691     -1.096718      0.778431
  H      -2.877461     -0.489804     -1.402874
  H      -2.295390      0.734700     -2.337335
  H      -1.053490      1.583006     -0.429564
  H       0.073543      0.115069     -2.117576
  H      -0.339477     -1.308785     -1.129448
  H       1.426583     -1.741441      1.058855
  H       3.349884     -0.338086      1.915465
  H       3.470947      1.887268      0.669895
  H      -2.608558     -1.460273      1.667601
20
Coordinates from ORCA-job geo_opt E -34.363650740120
  N      -2.529234      0.461948     -1.387276
  C      -1.353097      0.537673     -0.548321
  C      -0.116101     -0.243774     -1.100691
  C       1.092511      0.011976     -0.273174
  C       1.663246     -0.762082      0.701416
  N       2.724641     -0.049365      1.179358
  C       2.750563      1.112926      0.492669
  N       1.789178      1.183799     -0.386564
  C      -1.631045     -0.046839      0.816138
  O      -1.139747      0.357927      1.848405
  O      -2.411413     -1.111829      0.776122
  H      -2.852355     -0.498030     -1.434493
  H      -2.302952      0.772425     -2.324156
  H      -1.058280      1.583717     -0.428013
  H       0.065925      0.104128     -2.118583
  H      -0.343813     -1.311376     -1.120048
  H       1.409665     -1.732469      1.072952
  H       3.345686     -0.336278      1.917893
  H       3.481196      1.878440      0.654090
  H      -2.584571     -1.483296      1.662277
20
Coordinates from ORCA-job geo_opt E -34.363708539740
  N      -2.528568      0.453465     -1.387992
  C      -1.353137      0.529392     -0.544411
  C      -0.114910     -0.239964     -1.102793
  C       1.095543      0.018300     -0.278437
  C       1.658001     -0.757393      0.700062
  N       2.722851     -0.049878      1.179668
  C       2.758297      1.109796      0.489164
  N       1.800384      1.184110     -0.394294
  C      -1.632721     -0.049917      0.825081
  O      -1.146677      0.365655      1.855175
  O      -2.413478     -1.114249      0.787392
  H      -2.835318     -0.510631     -1.461874
  H      -2.300795      0.786284     -2.317288
  H      -1.071468      1.579555     -0.419551
  H       0.059360      0.110338     -2.121264
  H      -0.336822     -1.309106     -1.123981
  H       1.395446     -1.724510      1.073406
  H       3.342038     -0.337444      1.919776
  H       3.492354      1.872630      0.649045
  H      -2.590380     -1.486812      1.673115
20
Coordinates from ORCA-job geo_opt E -34.363719118890
  N      -2.529097      0.454116     -1.385108
  C      -1.352272      0.528803     -0.545486
  C      -0.116386     -0.242232     -1.103814
  C       1.094345      0.016556     -0.279552
  C       1.654963     -0.757088      0.701150
  N       2.719656     -0.049321      1.181565
  C       2.757476      1.108282      0.488213
  N       1.802157      1.180586     -0.398668
  C      -1.632421     -0.048781      0.825064
  O      -1.151983      0.375015      1.854377
  O      -2.404910     -1.119249      0.786792
  H      -2.831198     -0.511004     -1.467849
  H      -2.305319      0.797635     -2.311795
  H      -1.068418      1.578651     -0.420484
  H       0.058813      0.109851     -2.121554
  H      -0.338917     -1.311248     -1.123806
  H       1.390545     -1.723006      1.076582
  H       3.337577     -0.335537      1.923530
  H       3.492190      1.870843      0.647455
  H      -2.576801     -1.493251      1.673388
20
Coordinates from ORCA-job geo_opt E -34.363724183660
  N      -2.529290      0.451700     -1.385081
  C      -1.352062      0.527004     -0.546091
  C      -0.115350     -0.240419     -1.105524
  C       1.094939      0.017904     -0.280086
  C       1.653886     -0.755615      0.701539
  N       2.719438     -0.049320      1.181996
  C       2.759363      1.107695      0.488054
  N       1.803716      1.181581     -0.398450
  C      -1.632231     -0.051399      0.824813
  O      -1.149959      0.372797      1.853151
  O      -2.408165     -1.119328      0.788896
  H      -2.833450     -0.512773     -1.466716
  H      -2.305442      0.793729     -2.312387
  H      -1.069815      1.577083     -0.418674
  H       0.060641      0.116549     -2.121459
  H      -0.335733     -1.309711     -1.128626
  H       1.388032     -1.721098      1.077209
  H       3.337362     -0.336137      1.923752
  H       3.495332      1.869134      0.646906
  H      -2.581212     -1.489755      1.676775
20
Coordinates from ORCA-job geo_opt E -34.363725972990
  N      -2.530054      0.450459     -1.384412
  C      -1.352089      0.526511     -0.546337
  C      -0.114817     -0.239036     -1.106540
  C       1.095323      0.018392     -0.280394
  C       1.652478     -0.754518      0.702767
  N       2.718756     -0.049263      1.182724
  C       2.760975      1.106664      0.487092
  N       1.806193      1.180677     -0.400240
  C      -1.632364     -0.052609      0.824506
  O      -1.150915      0.372576      1.852936
  O      -2.406743     -1.121378      0.789248
  H      -2.833481     -0.514104     -1.466686
  H      -2.307624      0.793586     -2.311610
  H      -1.071007      1.576649     -0.417627
  H       0.062006      0.120447     -2.121435
  H      -0.334108     -1.308405     -1.131684
  H       1.384917     -1.719034      1.079741
  H       3.336109     -0.335911      1.924947
  H       3.497949      1.867215      0.645293
  H      -2.581505     -1.489297      1.677712
20
Coordinates from ORCA-job geo_opt E -34.363726682480
  N      -2.530712      0.449835     -1.383713
  C      -1.352216      0.526457     -0.546243
  C      -0.114582     -0.237808     -1.107318
  C       1.095500      0.018613     -0.280670
  C       1.650644     -0.753370      0.704413
  N       2.717771     -0.049047      1.183634
  C       2.762630      1.105392      0.485591
  N       1.808569      1.179338     -0.402440
  C      -1.632356     -0.053363      0.824407
  O      -1.152687      0.372970      1.853262
  O      -2.404113     -1.123828      0.788974
  H      -2.832671     -0.515062     -1.467039
  H      -2.309757      0.794595     -2.310613
  H      -1.072128      1.576704     -0.416789
  H       0.062836      0.123268     -2.121511
  H      -0.333376     -1.307214     -1.134130
  H       1.381134     -1.716628      1.083179
  H       3.334329     -0.335283      1.926629
  H       3.500783      1.864972      0.642796
  H      -2.579599     -1.490921      1.677581
20
Coordinates from ORCA-job geo_opt E -34.363727056100
  N      -2.531038      0.449667     -1.383176
  C      -1.352348      0.526494     -0.545871
  C      -0.114502     -0.236781     -1.107843
  C       1.095593      0.018754     -0.280892
  C       1.648891     -0.752160      0.706093
  N       2.716965     -0.048673      1.184384
  C       2.764159      1.104307      0.484000
  N       1.810718      1.177984     -0.404692
  C      -1.632318     -0.054088      0.824460
  O      -1.154290      0.372914      1.853817
  O      -2.402052     -1.125960      0.788354
  H      -2.832041     -0.515479     -1.467100
  H      -2.310882      0.795366     -2.309889
  H      -1.072986      1.576858     -0.415872
  H       0.063225      0.125512     -2.121514
  H      -0.333159     -1.306197     -1.136071
  H       1.377571     -1.714157      1.086723
  H       3.332798     -0.334467      1.928137
  H       3.503466      1.862976      0.640123
  H      -2.577770     -1.493250      1.676830
