20
neutral_epsilon conformer 3
N      -2.47809173     0.22409386    -1.43965544
C      -1.33587752     0.46965949    -0.56281603
C      -0.04954741     0.00932038    -1.16471455
C       1.14460670     0.22801379    -0.33002671
C       1.66497049    -0.65258824     0.59607492
N       2.75998929    -0.07893945     1.14610713
C       2.93578174     1.13216555     0.58939656
N       1.94548608     1.32913715    -0.32060721
C      -1.64116175    -0.18738265     0.73334913
O      -0.83921703    -0.15672908     1.71898393
O      -2.83128387    -0.88591846     0.96187202
H      -2.97291927    -0.64694092    -1.12895967
H      -2.07780923     0.01408707    -2.38782158
H      -1.30709449     1.56120258    -0.34767360
H       0.03516145     0.47031208    -2.17010136
H      -0.17020704    -1.09296040    -1.37650204
H       1.32900743    -1.62955556     0.88891208
H       3.37829737    -0.49633042     1.88398873
H       3.73013070     1.83233421     0.82469768
H      -3.22022190    -1.01336074     1.88549603
