17
Coordinates from ORCA-job geo_opt E -492.681199079236
  N      -2.187287      0.283645     -0.365493
  C      -1.550662      0.734455      0.887705
  C      -0.094805      0.301215      1.085538
  O       0.454355      0.521604      2.159392
  N       0.466818     -0.353545      0.067920
  C       1.869917     -0.665201     -0.011728
  C       2.268309     -0.552286     -1.524477
  O       3.458197     -0.722500     -1.819308
  O       1.317007     -0.300008     -2.296402
  H      -2.140853     -0.739811     -0.444203
  H      -1.720968      0.691077     -1.185634
  H      -3.174663      0.572809     -0.374861
  H      -1.560343      1.824519      0.947316
  H      -2.102333      0.353804      1.749148
  H       0.137426     -0.289575     -0.905267
  H       2.478146      0.023958      0.579293
  H       2.081739     -1.684161      0.323945
17
Coordinates from ORCA-job geo_opt E -492.685009584609
  N      -2.232958      0.320580     -0.359184
  C      -1.563384      0.720412      0.911007
  C      -0.099573      0.282428      1.086775
  O       0.449625      0.511154      2.172484
  N       0.482964     -0.352542      0.054006
  C       1.904277     -0.640719     -0.025835
  C       2.322398     -0.582122     -1.538079
  O       3.534733     -0.762102     -1.799588
  O       1.365950     -0.434275     -2.356100
  H      -2.192891     -0.699271     -0.497865
  H      -1.806536      0.776888     -1.177084
  H      -3.224355      0.597225     -0.334502
  H      -1.592079      1.813348      1.000899
  H      -2.123867      0.302612      1.754989
  H       0.145086     -0.288985     -0.926178
  H       2.495032      0.082872      0.552092
  H       2.135577     -1.647503      0.355046
17
Coordinates from ORCA-job geo_opt E -492.684359180340
  N      -2.267616      0.335968     -0.348101
  C      -1.560584      0.719490      0.921632
  C      -0.094829      0.281929      1.069934
  O       0.456943      0.525235      2.161623
  N       0.490853     -0.364403      0.038779
  C       1.922895     -0.652510     -0.037637
  C       2.350074     -0.660232     -1.539828
  O       3.591394     -0.755818     -1.766254
  O       1.423246     -0.388923     -2.379201
  H      -2.242653     -0.681277     -0.514729
  H      -1.879493      0.811416     -1.175594
  H      -3.260338      0.606245     -0.295873
  H      -1.606899      1.814381      1.009164
  H      -2.125459      0.286430      1.758136
  H       0.133261     -0.332025     -0.938471
  H       2.508045      0.097145      0.519290
  H       2.161159     -1.643047      0.390010
17
Coordinates from ORCA-job geo_opt E -492.686422281320
  N      -2.273423      0.349757     -0.345373
  C      -1.560946      0.706442      0.930576
  C      -0.094638      0.284237      1.059085
  O       0.451064      0.506787      2.157093
  N       0.497819     -0.339651      0.023080
  C       1.931080     -0.622033     -0.042389
  C       2.366192     -0.636869     -1.533148
  O       3.597101     -0.822474     -1.754676
  O       1.435651     -0.476532     -2.393786
  H      -2.243715     -0.660906     -0.542272
  H      -1.899228      0.851535     -1.163475
  H      -3.268562      0.607976     -0.278158
  H      -1.624196      1.796202      1.041898
  H      -2.121411      0.241740      1.751028
  H       0.135454     -0.311764     -0.945775
  H       2.506499      0.132781      0.514453
  H       2.165260     -1.607229      0.394721
17
Coordinates from ORCA-job geo_opt E -492.686679077813
  N      -2.273543      0.357263     -0.345388
  C      -1.561679      0.696670      0.934301
  C      -0.098930      0.268352      1.059121
  O       0.453260      0.497086      2.150289
  N       0.497140     -0.334582      0.017129
  C       1.929574     -0.608828     -0.045742
  C       2.368984     -0.645270     -1.533958
  O       3.598535     -0.826580     -1.748082
  O       1.444748     -0.513461     -2.399357
  H      -2.251167     -0.651648     -0.550901
  H      -1.891425      0.862326     -1.157161
  H      -3.266289      0.623880     -0.275905
  H      -1.619202      1.784672      1.057344
  H      -2.122765      0.224627      1.748702
  H       0.128762     -0.309380     -0.946776
  H       2.497248      0.158253      0.499544
  H       2.166750     -1.583380      0.409725
17
Coordinates from ORCA-job geo_opt E -492.686942694951
  N      -2.278583      0.374312     -0.344181
  C      -1.565890      0.678696      0.945144
  C      -0.099235      0.269009      1.050274
  O       0.452938      0.478694      2.144611
  N       0.501797     -0.305795     -0.000416
  C       1.932943     -0.581760     -0.054979
  C       2.380342     -0.678983     -1.535191
  O       3.609166     -0.876243     -1.729996
  O       1.470730     -0.573832     -2.413736
  H      -2.252811     -0.627344     -0.581992
  H      -1.900661      0.905792     -1.140556
  H      -3.272255      0.633591     -0.262140
  H      -1.638146      1.760742      1.102401
  H      -2.119233      0.169433      1.741602
  H       0.116418     -0.300446     -0.954070
  H       2.495593      0.208280      0.460995
  H       2.166885     -1.534147      0.445112
17
Coordinates from ORCA-job geo_opt E -492.687159590359
  N      -2.285680      0.395212     -0.343465
  C      -1.573585      0.654524      0.958067
  C      -0.101400      0.264186      1.044306
  O       0.452746      0.458848      2.141545
  N       0.509170     -0.269500     -0.020727
  C       1.940147     -0.548039     -0.066680
  C       2.393011     -0.722005     -1.536516
  O       3.622582     -0.941755     -1.708224
  O       1.497124     -0.638453     -2.428754
  H      -2.261423     -0.597230     -0.617198
  H      -1.907486      0.954699     -1.120315
  H      -3.279172      0.651182     -0.251122
  H      -1.661205      1.728441      1.157259
  H      -2.120251      0.103358      1.731016
  H       0.101534     -0.293311     -0.961230
  H       2.500674      0.270195      0.407285
  H       2.173213     -1.470352      0.487634
17
Coordinates from ORCA-job geo_opt E -492.687312071376
  N      -2.287847      0.415707     -0.345059
  C      -1.584032      0.628796      0.969154
  C      -0.103188      0.264317      1.042075
  O       0.450076      0.437182      2.144286
  N       0.517379     -0.226501     -0.037877
  C       1.946731     -0.512488     -0.077099
  C       2.398716     -0.766190     -1.536944
  O       3.628003     -1.008458     -1.690055
  O       1.508556     -0.709787     -2.436205
  H      -2.259562     -0.566283     -0.653571
  H      -1.904772      1.004154     -1.097615
  H      -3.282194      0.666291     -0.248715
  H      -1.689739      1.691188      1.216233
  H      -2.121346      0.033751      1.716025
  H       0.091644     -0.279591     -0.967646
  H       2.512284      0.330060      0.347327
  H       2.179292     -1.402147      0.528566
17
Coordinates from ORCA-job geo_opt E -492.687414062192
  N      -2.286161      0.430474     -0.347748
  C      -1.593718      0.607043      0.976185
  C      -0.105371      0.264106      1.044053
  O       0.445077      0.418908      2.150708
  N       0.525579     -0.186546     -0.048722
  C       1.952714     -0.482057     -0.084130
  C       2.397150     -0.800383     -1.535684
  O       3.624493     -1.063399     -1.679562
  O       1.504361     -0.768014     -2.434480
  H      -2.253619     -0.542911     -0.681823
  H      -1.895104      1.040421     -1.078908
  H      -3.281436      0.678230     -0.253920
  H      -1.714707      1.657797      1.263591
  H      -2.123312     -0.021943      1.700852
  H       0.090372     -0.262061     -0.972488
  H       2.528466      0.375357      0.295962
  H       2.185217     -1.345023      0.558997
17
Coordinates from ORCA-job geo_opt E -492.687491454104
  N      -2.281224      0.444527     -0.351895
  C      -1.602026      0.584282      0.981301
  C      -0.106674      0.265650      1.047483
  O       0.439095      0.405149      2.158334
  N       0.534985     -0.145632     -0.055601
  C       1.959503     -0.450923     -0.089411
  C       2.388934     -0.832731     -1.531445
  O       3.611097     -1.122467     -1.672471
  O       1.488367     -0.821055     -2.424453
  H      -2.240008     -0.518196     -0.714476
  H      -1.885330      1.078807     -1.059478
  H      -3.278680      0.685106     -0.262197
  H      -1.742018      1.620786      1.309450
  H      -2.123127     -0.079003      1.681476
  H       0.095630     -0.244640     -0.975665
  H       2.548207      0.417379      0.244342
  H       2.193271     -1.287038      0.587589
17
Coordinates from ORCA-job geo_opt E -492.687552074987
  N      -2.270509      0.464763     -0.358632
  C      -1.609647      0.553133      0.986266
  C      -0.106937      0.268358      1.052260
  O       0.432523      0.394187      2.167429
  N       0.546184     -0.098003     -0.060053
  C       1.968020     -0.411862     -0.095113
  C       2.370986     -0.873872     -1.521652
  O       3.585872     -1.190142     -1.666652
  O       1.455260     -0.893923     -2.400509
  H      -2.212924     -0.479632     -0.764376
  H      -1.873003      1.135091     -1.031485
  H      -3.272068      0.690045     -0.274149
  H      -1.777957      1.567512      1.366195
  H      -2.119840     -0.155517      1.649368
  H       0.105436     -0.228126     -0.976350
  H       2.570616      0.468661      0.177253
  H       2.207989     -1.210674      0.623083
17
Coordinates from ORCA-job geo_opt E -492.687577644040
  N      -2.266411      0.462660     -0.360686
  C      -1.608803      0.554221      0.985990
  C      -0.106649      0.270918      1.055591
  O       0.430508      0.401868      2.171098
  N       0.547579     -0.100203     -0.054241
  C       1.969272     -0.414602     -0.092078
  C       2.364543     -0.870866     -1.521816
  O       3.577506     -1.186188     -1.678062
  O       1.442712     -0.886768     -2.394726
  H      -2.205140     -0.481468     -0.766920
  H      -1.869800      1.133343     -1.033871
  H      -3.269008      0.684547     -0.279058
  H      -1.780300      1.569276      1.362318
  H      -2.120817     -0.153750      1.648372
  H       0.111547     -0.230127     -0.973785
  H       2.573308      0.463999      0.182792
  H       2.209953     -1.216858      0.621964
17
Coordinates from ORCA-job geo_opt E -492.687590972682
  N      -2.263811      0.461203     -0.361658
  C      -1.607022      0.555026      0.986272
  C      -0.105901      0.272976      1.056378
  O       0.430607      0.408115      2.171866
  N       0.548100     -0.101906     -0.050852
  C       1.969637     -0.417010     -0.089941
  C       2.360290     -0.868325     -1.521520
  O       3.571501     -1.183643     -1.685182
  O       1.435585     -0.879801     -2.391262
  H      -2.200943     -0.482383     -0.768927
  H      -1.868440      1.131672     -1.035697
  H      -3.266958      0.680522     -0.280085
  H      -1.781167      1.570965      1.358542
  H      -2.120843     -0.153069      1.646963
  H       0.116402     -0.233356     -0.972460
  H       2.573339      0.460542      0.188597
  H       2.209624     -1.221528      0.621848
17
Coordinates from ORCA-job geo_opt E -492.687592300088
  N      -2.263613      0.462904     -0.361669
  C      -1.607114      0.552821      0.987008
  C      -0.105770      0.272835      1.055623
  O       0.431129      0.406610      2.171323
  N       0.548355     -0.098643     -0.052202
  C       1.969888     -0.414296     -0.090684
  C       2.359871     -0.871209     -1.520586
  O       3.570794     -1.187921     -1.683416
  O       1.435084     -0.885061     -2.390047
  H      -2.200831     -0.479395     -0.771896
  H      -1.867706      1.135093     -1.033640
  H      -3.266701      0.681993     -0.279262
  H      -1.782878      1.567398      1.362124
  H      -2.120418     -0.158604      1.644473
  H       0.116757     -0.233302     -0.973461
  H       2.573446      0.464432      0.184515
  H       2.209705     -1.215656      0.624680
17
Coordinates from ORCA-job geo_opt E -492.687592903373
  N      -2.264484      0.461768     -0.361204
  C      -1.606735      0.554525      0.987076
  C      -0.105773      0.272528      1.054948
  O       0.431947      0.406725      2.170424
  N       0.547596     -0.100797     -0.052543
  C       1.969428     -0.416270     -0.090362
  C       2.361192     -0.868837     -1.521228
  O       3.572535     -1.184245     -1.683673
  O       1.437271     -0.880570     -2.391508
  H      -2.203561     -0.481899     -0.768558
  H      -1.867633      1.131093     -1.035421
  H      -3.267042      0.682761     -0.278048
  H      -1.780694      1.570609      1.358914
  H      -2.120878     -0.154564      1.646348
  H       0.116581     -0.235209     -0.974237
  H       2.571936      0.461924      0.188771
  H       2.208314     -1.219541      0.623182
17
Coordinates from ORCA-job geo_opt E -492.687593114021
  N      -2.264370      0.462156     -0.361380
  C      -1.606982      0.554087      0.987107
  C      -0.105844      0.272461      1.055050
  O       0.431889      0.406575      2.170517
  N       0.547670     -0.100322     -0.052671
  C       1.969560     -0.415736     -0.090396
  C       2.360992     -0.869263     -1.521168
  O       3.572398     -1.184473     -1.683765
  O       1.436592     -0.881944     -2.390990
  H      -2.203355     -0.481365     -0.769028
  H      -1.867100      1.131799     -1.035031
  H      -3.266896      0.683328     -0.278385
  H      -1.781124      1.569853      1.359763
  H      -2.120935     -0.155548      1.645944
  H       0.116694     -0.235708     -0.974236
  H       2.572172      0.462649      0.187946
  H       2.208638     -1.218549      0.623605
