17
Coordinates from ORCA-job geo_opt E -492.687593114021
  N          -2.26436994621240      0.46215613598124     -0.36137975050954
  C          -1.60698178882324      0.55408669405908      0.98710716215224
  C          -0.10584396211307      0.27246073131897      1.05504998787965
  O           0.43188903280597      0.40657470174028      2.17051667935276
  N           0.54767016551056     -0.10032170500854     -0.05267108456617
  C           1.96955953581559     -0.41573597439548     -0.09039569806730
  C           2.36099247842860     -0.86926308535997     -1.52116848897589
  O           3.57239845286634     -1.18447275721796     -1.68376548178698
  O           1.43659157152841     -0.88194378793156     -2.39098976097752
  H          -2.20335481947260     -0.48136488819763     -0.76902762210303
  H          -1.86709969487683      1.13179929784049     -1.03503055105443
  H          -3.26689566374914      0.68332828538873     -0.27838531184641
  H          -1.78112412741906      1.56985254666742      1.35976310496227
  H          -2.12093531612352     -0.15554826257957      1.64594401202958
  H           0.11669438705049     -0.23570803778445     -0.97423591085518
  H           2.57217168709808      0.46264862778845      0.18794600090189
  H           2.20863799768582     -1.21854852230951      0.62360507346404
