17
zwitterion conformer 3
N      -2.18728737     0.28364471    -0.36549256
C      -1.55066246     0.73445489     0.88770502
C      -0.09480534     0.30121456     1.08553819
O       0.45435467     0.52160443     2.15939166
N       0.46681822    -0.35354506     0.06791956
C       1.86991716    -0.66520077    -0.01172822
C       2.26830905    -0.55228648    -1.52447679
O       3.45819747    -0.72249969    -1.81930815
O       1.31700663    -0.30000763    -2.29640234
H      -2.14085283    -0.73981083    -0.44420345
H      -1.72096753     0.69107702    -1.18563388
H      -3.17466298     0.57280913    -0.37486112
H      -1.56034309     1.82451934     0.94731615
H      -2.10233312     0.35380438     1.74914790
H       0.13742602    -0.28957491    -0.90526747
H       2.47814625     0.02395795     0.57929274
H       2.08173924    -1.68416104     0.32394512
