20
zwitterion CPCM-opt conformer 2
N       1.44154987    -0.34115045    -1.47959603
C       1.64371381     0.43883159    -0.20710653
C       0.40603431     1.28865518     0.12391594
C      -0.86302512     0.49489270     0.20142589
C      -1.77802282     0.38448773     1.22719583
N      -2.75622224    -0.47020633     0.76365728
C      -2.42025082    -0.85489470    -0.49434948
N      -1.27965057    -0.28612990    -0.87244583
C       2.04880424    -0.58927730     0.90074849
O       2.30128525    -1.76562842     0.49429229
O       2.12238891    -0.14603837     2.07364831
H       0.41116697    -0.50170128    -1.62600595
H       1.89819072    -1.26105012    -1.28181709
H       1.84868989     0.10788244    -2.30613014
H       2.50733554     1.10010119    -0.36317673
H       0.59359798     1.78988415     1.08147813
H       0.30861107     2.07766191    -0.64038208
H      -1.82106361     0.82749376     2.21589000
H      -3.58786460    -0.75736449     1.27363535
H      -3.02526878    -1.53644926    -1.08487762
