24
Coordinates from ORCA-job geo_opt E -43.543616706030
  N           2.61924651322663      0.96833212167565      1.60802196267841
  C           2.01502844155302     -0.33997122473075      1.29634330668781
  C           1.30621062911055     -0.18792465438937     -0.04944184611964
  O           1.29760191272578      0.91516981367290     -0.59299939945207
  N           0.80889652076565     -1.30307432306188     -0.58224178109928
  C          -0.07237193612185     -1.26340598136778     -1.73693581886965
  C          -1.47455126023997     -0.88523303559940     -1.24539472120804
  O          -2.35405008163587     -1.72643327723303     -1.08625797720276
  N          -1.62048928522178      0.42325098232056     -0.98776144608082
  C          -2.61321075966911      0.87790344464080     -0.04712138738120
  C          -2.08130699888026      0.72516762559274      1.42409501329824
  O          -0.95215047511062      0.21739470352657      1.55563967043828
  O          -2.83019642993693      1.12964326027235      2.32771723110949
  H           2.33175320490730      1.57019815925622      0.79798457172364
  H           3.64083469701531      0.93564899664890      1.66913709365575
  H           2.23010797035809      1.37600568489833      2.46207866936821
  H           2.75836269778775     -1.13324451578130      1.24931893521558
  H           1.23805990467699     -0.59779146850840      2.01784569019357
  H           0.71295612901161     -2.11299580719886      0.01336267596729
  H           0.30059415528088     -0.51396590408367     -2.43652341744256
  H          -0.09956711385309     -2.24768745025475     -2.20140786685810
  H          -0.78170891900187      0.99259629326622     -1.02825880242452
  H          -2.87149232015767      1.92066277753089     -0.22979757975130
  H          -3.50855716659051      0.25975376890707     -0.13656084644633
