24
Coordinates from ORCA-job geo_opt E -43.467065249490
  N       3.370677      1.251816      0.851191
  C       2.746129     -0.035489      0.920438
  C       1.604328     -0.165780     -0.034239
  O       1.333312      0.826303     -0.758437
  N       0.883978     -1.392733     -0.079724
  C      -0.218512     -1.583108     -0.961279
  C      -1.374890     -0.711352     -0.775923
  O      -2.356730     -0.860500     -1.581361
  N      -1.511542      0.288806      0.220084
  C      -2.719725      1.083165      0.282249
  C      -3.925733      0.235358      0.503272
  O      -3.841710     -1.032844      0.616565
  O      -5.144075      0.897911      0.579265
  H       3.480885      1.595730     -0.115950
  H       4.346994      1.122756      1.246821
  H       2.898312      1.898390      1.500243
  H       3.486010     -0.838939      0.740639
  H       2.299159     -0.153591      1.935542
  H       1.207416     -2.164843      0.577312
  H       0.194629     -1.536217     -2.010783
  H      -0.580142     -2.647645     -0.855883
  H      -0.747857      0.445396      0.909354
  H      -2.622970      1.868534      1.053745
  H      -2.807943      1.608876     -0.702299
24
Coordinates from ORCA-job geo_opt E -43.506105177700
  N       3.352843      1.251295      0.875875
  C       2.715345     -0.059112      0.955447
  C       1.581447     -0.175276     -0.029552
  O       1.316448      0.786947     -0.758546
  N       0.893206     -1.359226     -0.074028
  C      -0.202671     -1.569381     -0.978663
  C      -1.389395     -0.702504     -0.826685
  O      -2.336457     -0.853303     -1.629644
  N      -1.495340      0.266447      0.136705
  C      -2.694305      1.063383      0.248782
  C      -3.912872      0.239408      0.570367
  O      -3.851483     -0.998497      0.732530
  O      -5.036439      0.906577      0.693310
  H       3.449754      1.577468     -0.095978
  H       4.314388      1.154167      1.265657
  H       2.872965      1.918302      1.491192
  H       3.443041     -0.863254      0.784938
  H       2.270943     -0.185151      1.957515
  H       1.197508     -2.097989      0.568287
  H       0.197170     -1.515667     -2.014339
  H      -0.553929     -2.615376     -0.872440
  H      -0.729375      0.415482      0.786320
  H      -2.554867      1.848351      0.999032
  H      -2.847924      1.566912     -0.725241
24
Coordinates from ORCA-job geo_opt E -43.520052027490
  N       3.378958      1.227264      0.896825
  C       2.690238     -0.075157      0.995945
  C       1.567035     -0.156154     -0.032691
  O       1.344553      0.782778     -0.784879
  N       0.884691     -1.300478     -0.056477
  C      -0.196586     -1.542473     -0.987582
  C      -1.421722     -0.674210     -0.893310
  O      -2.330983     -0.846327     -1.704615
  N      -1.498193      0.264821      0.047948
  C      -2.694912      1.052396      0.217552
  C      -3.907880      0.213075      0.637427
  O      -3.796074     -1.007437      0.815177
  O      -4.958111      0.852618      0.794886
  H       3.468878      1.520778     -0.085253
  H       4.326028      1.138879      1.288390
  H       2.897952      1.937056      1.458532
  H       3.388995     -0.898474      0.844753
  H       2.244134     -0.183066      1.987604
  H       1.153544     -2.018629      0.592168
  H       0.195237     -1.489621     -2.010920
  H      -0.543413     -2.570963     -0.861959
  H      -0.729328      0.403597      0.678477
  H      -2.528700      1.831671      0.959419
  H      -2.934339      1.538058     -0.736577
24
Coordinates from ORCA-job geo_opt E -43.524995957610
  N       3.449865      1.169158      0.913875
  C       2.672034     -0.083142      1.047519
  C       1.583582     -0.127875     -0.031383
  O       1.468175      0.784147     -0.839105
  N       0.841623     -1.237891     -0.031826
  C      -0.192816     -1.491356     -1.014548
  C      -1.430072     -0.609085     -1.000061
  O      -2.275808     -0.768290     -1.878215
  N      -1.530450      0.321737     -0.052872
  C      -2.764501      1.037362      0.164558
  C      -3.888375      0.135135      0.747782
  O      -3.611258     -1.035705      1.059166
  O      -4.975517      0.711160      0.942976
  H       3.563306      1.405205     -0.081566
  H       4.380273      1.058661      1.334178
  H       2.982214      1.942702      1.398032
  H       3.321765     -0.950972      0.941494
  H       2.197054     -0.130046      2.027879
  H       1.034243     -1.945463      0.658004
  H       0.237001     -1.439105     -2.019903
  H      -0.556165     -2.511293     -0.887862
  H      -0.774766      0.463968      0.593487
  H      -2.603258      1.862238      0.855233
  H      -3.128147      1.438749     -0.786000
24
Coordinates from ORCA-job geo_opt E -43.524912184520
  N       3.519430      1.112851      0.901225
  C       2.659583     -0.081502      1.084554
  C       1.622736     -0.117516     -0.054990
  O       1.620045      0.742482     -0.923395
  N       0.792299     -1.163230      0.005020
  C      -0.206421     -1.436491     -1.006836
  C      -1.438885     -0.517537     -1.064738
  O      -2.241860     -0.667914     -1.980486
  N      -1.548215      0.386564     -0.093883
  C      -2.802626      1.040765      0.175159
  C      -3.841677      0.064751      0.856526
  O      -3.440248     -1.095598      1.063025
  O      -5.014623      0.487612      0.884180
  H       3.641830      1.270042     -0.110360
  H       4.433940      1.002122      1.350790
  H       3.061400      1.952216      1.273716
  H       3.261628     -0.987451      1.036333
  H       2.155905     -0.054712      2.048852
  H       0.877934     -1.830246      0.756201
  H       0.243259     -1.399385     -2.002784
  H      -0.603314     -2.438043     -0.854259
  H      -0.830612      0.459624      0.605840
  H      -2.657141      1.874464      0.857584
  H      -3.264369      1.396133     -0.746432
24
Coordinates from ORCA-job geo_opt E -43.528988808940
  N       3.514300      1.110263      0.893017
  C       2.652138     -0.076029      1.090514
  C       1.647076     -0.136705     -0.074398
  O       1.686210      0.693891     -0.969086
  N       0.780054     -1.151862      0.009764
  C      -0.203077     -1.427241     -1.010742
  C      -1.425583     -0.490972     -1.078076
  O      -2.216375     -0.618901     -2.007494
  N      -1.545213      0.390963     -0.085037
  C      -2.799196      1.043976      0.171342
  C      -3.846139      0.029514      0.792974
  O      -3.407464     -1.103627      1.060962
  O      -4.993616      0.478804      0.962471
  H       3.643216      1.238358     -0.123755
  H       4.423053      1.018257      1.359994
  H       3.041589      1.961030      1.220975
  H       3.255601     -0.983856      1.071085
  H       2.128340     -0.025924      2.043992
  H       0.813322     -1.790401      0.790720
  H       0.256899     -1.389163     -2.004192
  H      -0.615163     -2.424007     -0.855528
  H      -0.878283      0.380522      0.669317
  H      -2.670042      1.857052      0.884324
  H      -3.241646      1.416057     -0.752300
24
Coordinates from ORCA-job geo_opt E -43.530377059110
  N       3.514142      1.113339      0.872783
  C       2.658863     -0.069026      1.090541
  C       1.656036     -0.144631     -0.070440
  O       1.750978      0.631121     -1.009655
  N       0.772844     -1.146087      0.021755
  C      -0.194631     -1.419966     -1.010399
  C      -1.425331     -0.497509     -1.054870
  O      -2.177298     -0.557504     -2.023636
  N      -1.549591      0.377397     -0.050426
  C      -2.801425      1.043900      0.184678
  C      -3.864674      0.028340      0.772649
  O      -3.436496     -1.105147      1.051832
  O      -5.010016      0.482536      0.940212
  H       3.632094      1.226437     -0.148908
  H       4.426762      1.030018      1.334559
  H       3.039853      1.967569      1.191050
  H       3.262864     -0.978410      1.081686
  H       2.134369     -0.001655      2.043142
  H       0.771566     -1.761761      0.822371
  H       0.274562     -1.349751     -1.998262
  H      -0.594656     -2.426680     -0.883197
  H      -0.943910      0.280646      0.750884
  H      -2.679688      1.854408      0.902239
  H      -3.217219      1.422414     -0.749747
24
Coordinates from ORCA-job geo_opt E -43.531866190930
  N       3.510112      1.114727      0.836059
  C       2.667068     -0.062644      1.095942
  C       1.716084     -0.210901     -0.096278
  O       1.903663      0.464716     -1.097730
  N       0.755499     -1.131369      0.041646
  C      -0.198924     -1.390038     -1.003340
  C      -1.399463     -0.432565     -1.046524
  O      -2.114984     -0.409170     -2.044225
  N      -1.538011      0.401109     -0.002953
  C      -2.805915      1.045169      0.220885
  C      -3.863195     -0.010057      0.746781
  O      -3.419724     -1.143309      1.000226
  O      -5.022948      0.410014      0.903189
  H       3.635950      1.170583     -0.192464
  H       4.415362      1.070131      1.315641
  H       3.017518      1.978885      1.094774
  H       3.279165     -0.965557      1.153225
  H       2.107346      0.051310      2.023749
  H       0.658385     -1.663146      0.894467
  H       0.288304     -1.317967     -1.980578
  H      -0.623521     -2.388994     -0.891275
  H      -1.057193      0.138511      0.847472
  H      -2.713727      1.839717      0.959263
  H      -3.196851      1.440847     -0.717110
24
Coordinates from ORCA-job geo_opt E -43.532352269000
  N       3.548520      1.099930      0.806911
  C       2.689521     -0.057827      1.103050
  C       1.748798     -0.231348     -0.093525
  O       1.996035      0.367680     -1.131746
  N       0.744471     -1.096078      0.066882
  C      -0.199135     -1.351340     -0.990636
  C      -1.388147     -0.385622     -1.043005
  O      -2.081407     -0.329191     -2.053746
  N      -1.559209      0.416605      0.027671
  C      -2.847808      1.032398      0.235553
  C      -3.888665     -0.044336      0.733794
  O      -3.435266     -1.180920      0.956729
  O      -5.059954      0.346487      0.872823
  H       3.654588      1.125881     -0.227049
  H       4.461056      1.048905      1.270865
  H       3.079270      1.978194      1.058567
  H       3.288257     -0.966675      1.190105
  H       2.124971      0.090400      2.022286
  H       0.595928     -1.567068      0.946726
  H       0.305112     -1.279594     -1.958243
  H      -0.626927     -2.350214     -0.889644
  H      -1.146383      0.077526      0.888271
  H      -2.780141      1.827137      0.976057
  H      -3.223486      1.429071     -0.707855
24
Coordinates from ORCA-job geo_opt E -43.532579134700
  N       3.537454      1.107485      0.815681
  C       2.687749     -0.060869      1.106956
  C       1.764895     -0.252360     -0.103012
  O       2.020048      0.344768     -1.141718
  N       0.746139     -1.097640      0.058792
  C      -0.193833     -1.350292     -1.004987
  C      -1.388054     -0.394506     -1.056351
  O      -2.069601     -0.322924     -2.072467
  N      -1.564552      0.400879      0.022130
  C      -2.851227      1.025579      0.230122
  C      -3.887602     -0.028003      0.768480
  O      -3.443156     -1.170183      0.987018
  O      -5.053147      0.374124      0.920498
  H       3.628781      1.141124     -0.220358
  H       4.456675      1.054938      1.265571
  H       3.071037      1.979916      1.088898
  H       3.297539     -0.961002      1.200433
  H       2.111728      0.078235      2.019890
  H       0.579317     -1.545290      0.947350
  H       0.317421     -1.268812     -1.968121
  H      -0.610590     -2.354904     -0.915282
  H      -1.157136      0.055542      0.882744
  H      -2.766674      1.840691      0.946998
  H      -3.233212      1.403502     -0.718423
24
Coordinates from ORCA-job geo_opt E -43.532832130430
  N       3.571615      1.088028      0.824867
  C       2.691600     -0.059596      1.118730
  C       1.774619     -0.236695     -0.100591
  O       2.059635      0.341063     -1.142858
  N       0.740308     -1.062241      0.058198
  C      -0.188002     -1.323652     -1.015234
  C      -1.395922     -0.386970     -1.080794
  O      -2.073437     -0.329836     -2.098717
  N      -1.595871      0.395833      0.002047
  C      -2.890594      1.005383      0.207717
  C      -3.898375     -0.037086      0.806606
  O      -3.435002     -1.170321      1.038392
  O      -5.062031      0.359986      0.984447
  H       3.630043      1.129846     -0.213959
  H       4.502532      0.997644      1.243082
  H       3.146238      1.970186      1.129884
  H       3.281852     -0.972157      1.216135
  H       2.114566      0.091822      2.028123
  H       0.554282     -1.488973      0.953375
  H       0.334476     -1.233357     -1.971676
  H      -0.586190     -2.336523     -0.931064
  H      -1.181180      0.063625      0.863125
  H      -2.802856      1.851327      0.888915
  H      -3.292305      1.342664     -0.747909
24
Coordinates from ORCA-job geo_opt E -43.533151197660
  N       3.595360      1.061826      0.859153
  C       2.677260     -0.060822      1.139369
  C       1.783952     -0.215059     -0.102314
  O       2.109772      0.356306     -1.135834
  N       0.733923     -1.023645      0.035996
  C      -0.173852     -1.291706     -1.053241
  C      -1.410306     -0.393836     -1.129054
  O      -2.088197     -0.365124     -2.147357
  N      -1.633098      0.383077     -0.050365
  C      -2.935253      0.972628      0.160411
  C      -3.882546     -0.027619      0.902449
  O      -3.382551     -1.131664      1.196372
  O      -5.038016      0.370237      1.129545
  H       3.602788      1.136159     -0.181352
  H       4.540985      0.910763      1.222763
  H       3.232331      1.947681      1.227075
  H       3.242390     -0.988839      1.244209
  H       2.087029      0.101239      2.037536
  H       0.524551     -1.438071      0.932558
  H       0.363717     -1.173038     -1.998777
  H      -0.535957     -2.320189     -0.987934
  H      -1.190335      0.093484      0.810837
  H      -2.838425      1.884291      0.752350
  H      -3.385520      1.211922     -0.803552
24
Coordinates from ORCA-job geo_opt E -43.533474527810
  N       3.609887      1.032412      0.892886
  C       2.650409     -0.057517      1.162169
  C       1.785922     -0.196096     -0.102052
  O       2.145265      0.378184     -1.122229
  N       0.727453     -0.997593      0.007407
  C      -0.158118     -1.262338     -1.099124
  C      -1.420684     -0.399914     -1.173958
  O      -2.104572     -0.401444     -2.189819
  N      -1.660882      0.375017     -0.101537
  C      -2.970688      0.940540      0.118863
  C      -3.845246     -0.011878      0.999749
  O      -3.293851     -1.066905      1.371421
  O      -4.997538      0.376469      1.258366
  H       3.585742      1.132515     -0.147905
  H       4.559535      0.825450      1.215950
  H       3.304495      1.921717      1.302294
  H       3.183143     -1.002126      1.289604
  H       2.042575      0.130745      2.043441
  H       0.499086     -1.417099      0.897517
  H       0.390777     -1.106794     -2.033174
  H      -0.488939     -2.303161     -1.062159
  H      -1.190538      0.127732      0.758460
  H      -2.881348      1.909112      0.615762
  H      -3.471886      1.072971     -0.841090
24
Coordinates from ORCA-job geo_opt E -43.534288230070
  N       3.621697      0.961214      0.973051
  C       2.576571     -0.051939      1.211947
  C       1.775819     -0.154038     -0.096821
  O       2.193059      0.447429     -1.077724
  N       0.712348     -0.954411     -0.062034
  C      -0.121780     -1.199772     -1.208009
  C      -1.441923     -0.421890     -1.269088
  O      -2.143191     -0.500227     -2.273712
  N      -1.714047      0.356749     -0.216236
  C      -3.041413      0.855387      0.035993
  C      -3.712988      0.059452      1.208449
  O      -3.007969     -0.815486      1.747368
  O      -4.867072      0.401168      1.519601
  H       3.547218      1.127990     -0.063336
  H       4.563961      0.639698      1.212296
  H       3.435342      1.842908      1.461575
  H       3.028800     -1.029978      1.390718
  H       1.933777      0.200284      2.052343
  H       0.448992     -1.407351      0.802850
  H       0.442060     -0.948143     -2.112314
  H      -0.381630     -2.261085     -1.247388
  H      -1.185709      0.210245      0.634258
  H      -3.014225      1.916338      0.299759
  H      -3.647698      0.725457     -0.862702
24
Coordinates from ORCA-job geo_opt E -43.535083542250
  N       3.585687      0.921763      1.044886
  C       2.505259     -0.059383      1.239446
  C       1.751273     -0.137342     -0.097056
  O       2.183245      0.511576     -1.040723
  N       0.704134     -0.958264     -0.125972
  C      -0.097111     -1.173542     -1.297666
  C      -1.452079     -0.451736     -1.330707
  O      -2.177377     -0.593537     -2.315162
  N      -1.730264      0.344932     -0.298966
  C      -3.063559      0.795272     -0.006883
  C      -3.558448      0.153474      1.343282
  O      -2.720744     -0.523023      1.967154
  O      -4.718086      0.430027      1.694057
  H       3.512411      1.139150      0.013063
  H       4.516629      0.549061      1.251445
  H       3.442221      1.786502      1.575930
  H       2.910923     -1.051006      1.451468
  H       1.831824      0.224450      2.046579
  H       0.427981     -1.458203      0.709067
  H       0.464941     -0.846325     -2.178461
  H      -0.315120     -2.239811     -1.403183
  H      -1.158263      0.275208      0.535749
  H      -3.112404      1.883020      0.093143
  H      -3.733072      0.477737     -0.809648
24
Coordinates from ORCA-job geo_opt E -43.536374986300
  N       3.479131      0.882614      1.155960
  C       2.386961     -0.090829      1.276856
  C       1.712737     -0.144482     -0.099723
  O       2.169596      0.564512     -0.988269
  N       0.691611     -0.986179     -0.224530
  C      -0.061282     -1.143248     -1.433874
  C      -1.458931     -0.502453     -1.416662
  O      -2.217607     -0.724587     -2.364800
  N      -1.738183      0.316974     -0.407689
  C      -3.070923      0.694215     -0.036175
  C      -3.272641      0.348100      1.496480
  O      -2.249681      0.021276      2.121262
  O      -4.416316      0.502390      1.952790
  H       3.406056      1.176708      0.137182
  H       4.405419      0.478083      1.317136
  H       3.356058      1.710630      1.746223
  H       2.751919     -1.088078      1.528451
  H       1.658578      0.211886      2.030066
  H       0.377924     -1.532772      0.566984
  H       0.490573     -0.699205     -2.267711
  H      -0.221399     -2.203113     -1.648064
  H      -1.121077      0.320410      0.403400
  H      -3.266319      1.762375     -0.157081
  H      -3.792204      0.124773     -0.627369
24
Coordinates from ORCA-job geo_opt E -43.537347725070
  N       3.265304      0.915807      1.269803
  C       2.236073     -0.128816      1.288407
  C       1.642477     -0.192502     -0.122967
  O       2.072440      0.583376     -0.971972
  N       0.684060     -1.086739     -0.329692
  C      -0.045901     -1.183170     -1.562289
  C      -1.450966     -0.566067     -1.478780
  O      -2.267569     -0.833886     -2.365800
  N      -1.677080      0.292916     -0.487117
  C      -2.974985      0.672798     -0.013430
  C      -2.917845      0.520955      1.569722
  O      -1.784248      0.383950      2.056953
  O      -3.995682      0.588105      2.175080
  H       3.276052      1.235742      0.257362
  H       4.198392      0.564733      1.501419
  H       3.036035      1.725321      1.852416
  H       2.625369     -1.104821      1.574388
  H       1.429645      0.132095      1.979075
  H       0.353160     -1.673108      0.423122
  H       0.492342     -0.666102     -2.359447
  H      -0.198979     -2.221597     -1.861606
  H      -1.013417      0.312686      0.295861
  H      -3.235432      1.711947     -0.213182
  H      -3.749244      0.016375     -0.416485
24
Coordinates from ORCA-job geo_opt E -43.538835489730
  N       3.172223      0.899734      1.343538
  C       2.155629     -0.160892      1.306993
  C       1.612934     -0.188993     -0.126117
  O       2.044940      0.636061     -0.927872
  N       0.695359     -1.108061     -0.396174
  C      -0.029949     -1.161750     -1.639005
  C      -1.464442     -0.628403     -1.519018
  O      -2.305855     -0.963417     -2.354601
  N      -1.686094      0.228489     -0.526504
  C      -2.961291      0.591182      0.019103
  C      -2.739566      0.692748      1.585119
  O      -1.552960      0.654020      1.958123
  O      -3.750488      0.799615      2.289820
  H       3.141525      1.292043      0.358906
  H       4.117761      0.545564      1.511444
  H       2.958568      1.652099      2.001943
  H       2.549208     -1.137013      1.581729
  H       1.317099      0.065353      1.971586
  H       0.364246     -1.722645      0.333439
  H       0.484384     -0.562013     -2.392913
  H      -0.115556     -2.184123     -2.010604
  H      -0.973062      0.341055      0.204788
  H      -3.308688      1.573466     -0.305305
  H      -3.725926     -0.154119     -0.207576
24
Coordinates from ORCA-job geo_opt E -43.537112611800
  N       2.786771      1.033345      1.424040
  C       1.913740     -0.157409      1.291426
  C       1.499602     -0.229557     -0.185581
  O       1.907577      0.629337     -0.966184
  N       0.699832     -1.242632     -0.506756
  C      -0.052380     -1.276542     -1.751334
  C      -1.463246     -0.718343     -1.579678
  O      -2.399143     -1.042472     -2.290012
  N      -1.520088      0.154355     -0.568915
  C      -2.670541      0.681289      0.119922
  C      -2.308910      0.713438      1.638895
  O      -1.157493      0.289374      1.904108
  O      -3.200583      1.034212      2.430085
  H       2.823191      1.425112      0.462711
  H       3.739191      0.800099      1.722922
  H       2.398016      1.735651      2.056197
  H       2.426937     -1.067202      1.586610
  H       0.993934     -0.075608      1.876493
  H       0.375793     -1.844937      0.233908
  H       0.468727     -0.658617     -2.487038
  H      -0.122683     -2.290858     -2.142876
  H      -0.707047      0.287525      0.040591
  H      -2.852849      1.713271     -0.197012
  H      -3.578348      0.107168     -0.051679
24
Coordinates from ORCA-job geo_opt E -43.540215380390
  N       3.005863      0.939148      1.414670
  C       2.071124     -0.196691      1.292684
  C       1.558039     -0.192633     -0.153701
  O       1.936846      0.693573     -0.915429
  N       0.729004     -1.183318     -0.476224
  C      -0.037880     -1.204571     -1.702456
  C      -1.478922     -0.708728     -1.531234
  O      -2.378016     -1.102636     -2.266201
  N      -1.633738      0.184593     -0.556138
  C      -2.855757      0.614747      0.065261
  C      -2.557620      0.785478      1.596449
  O      -1.362172      0.627626      1.928026
  O      -3.516991      1.039217      2.335957
  H       2.980386      1.381557      0.463122
  H       3.967828      0.644410      1.609063
  H       2.712096      1.622774      2.116224
  H       2.551179     -1.145624      1.521879
  H       1.200788     -0.084296      1.945170
  H       0.436290     -1.824160      0.248021
  H       0.456413     -0.562804     -2.437501
  H      -0.083480     -2.216000     -2.109352
  H      -0.859183      0.394409      0.076238
  H      -3.174896      1.591044     -0.314580
  H      -3.667203     -0.097116     -0.089105
24
Coordinates from ORCA-job geo_opt E -43.539800148980
  N       2.827319      0.916501      1.507907
  C       1.930453     -0.232809      1.306136
  C       1.505590     -0.206441     -0.165564
  O       1.876335      0.724473     -0.873768
  N       0.741390     -1.220986     -0.566407
  C      -0.016921     -1.190871     -1.791665
  C      -1.473066     -0.759761     -1.548098
  O      -2.395670     -1.229084     -2.211118
  N      -1.604409      0.164826     -0.603190
  C      -2.777522      0.538920      0.127876
  C      -2.260644      0.953921      1.561928
  O      -1.020264      1.049318      1.666448
  O      -3.110264      1.167407      2.433951
  H       2.828994      1.399282      0.573223
  H       3.788444      0.640280      1.730437
  H       2.478534      1.571548      2.212747
  H       2.403661     -1.179471      1.559705
  H       1.012962     -0.132369      1.895563
  H       0.435968     -1.898896      0.117925
  H       0.439764     -0.474084     -2.479831
  H      -0.039221     -2.172410     -2.266746
  H      -0.795518      0.428735     -0.030911
  H      -3.275526      1.416397     -0.297275
  H      -3.500386     -0.274427      0.201567
24
Coordinates from ORCA-job geo_opt E -43.540802843160
  N       2.910811      0.932006      1.453238
  C       1.984466     -0.203514      1.299454
  C       1.527843     -0.200509     -0.163455
  O       1.916615      0.698166     -0.902246
  N       0.734365     -1.208581     -0.526570
  C      -0.025219     -1.199991     -1.753596
  C      -1.474265     -0.736436     -1.541426
  O      -2.392378     -1.170252     -2.230911
  N      -1.607113      0.172607     -0.578415
  C      -2.803836      0.584039      0.098702
  C      -2.404061      0.852244      1.595774
  O      -1.180241      0.790788      1.839335
  O      -3.316850      1.104289      2.391886
  H       2.901890      1.387486      0.507370
  H       3.868729      0.640854      1.669784
  H       2.589697      1.608148      2.151128
  H       2.453539     -1.152401      1.553546
  H       1.088115     -0.076588      1.912980
  H       0.425384     -1.859351      0.181748
  H       0.454191     -0.513777     -2.457297
  H      -0.053760     -2.195735     -2.198516
  H      -0.810644      0.403640      0.022104
  H      -3.202469      1.518886     -0.309487
  H      -3.584807     -0.176017      0.045710
24
Coordinates from ORCA-job geo_opt E -43.540905592460
  N       2.886013      0.941363      1.458350
  C       1.966170     -0.199387      1.297656
  C       1.518479     -0.202494     -0.167785
  O       1.900652      0.698325     -0.906852
  N       0.736625     -1.219698     -0.534180
  C      -0.026972     -1.209735     -1.759503
  C      -1.474380     -0.740367     -1.539123
  O      -2.400687     -1.181006     -2.212633
  N      -1.595035      0.181898     -0.587306
  C      -2.783575      0.598162      0.100565
  C      -2.370316      0.836845      1.598723
  O      -1.147156      0.743493      1.834390
  O      -3.272880      1.096718      2.403696
  H       2.895661      1.391985      0.511059
  H       3.839190      0.655753      1.700992
  H       2.544362      1.621929      2.142241
  H       2.438059     -1.144977      1.557369
  H       1.064244     -0.071639      1.903701
  H       0.429047     -1.871029      0.174141
  H       0.452284     -0.524957     -2.464403
  H      -0.061138     -2.205766     -2.202403
  H      -0.791500      0.416255      0.001879
  H      -3.174345      1.541891     -0.293041
  H      -3.572803     -0.153562      0.043309
24
Coordinates from ORCA-job geo_opt E -43.540998439340
  N       2.861023      0.939590      1.471658
  C       1.946042     -0.204472      1.297465
  C       1.505545     -0.200264     -0.169394
  O       1.874429      0.713759     -0.898480
  N       0.744182     -1.229423     -0.549690
  C      -0.026729     -1.211463     -1.771445
  C      -1.476848     -0.755906     -1.532616
  O      -2.413057     -1.229249     -2.168409
  N      -1.586889      0.191303     -0.604566
  C      -2.764613      0.602372      0.105319
  C      -2.330685      0.848727      1.594884
  O      -1.106229      0.742938      1.819768
  O      -3.220287      1.125587      2.408692
  H       2.872078      1.401211      0.530503
  H       3.812910      0.655940      1.721035
  H       2.508994      1.609758      2.160711
  H       2.420930     -1.149088      1.553887
  H       1.039022     -0.078552      1.897059
  H       0.441375     -1.886637      0.155314
  H       0.445381     -0.514049     -2.468687
  H      -0.053915     -2.203652     -2.223022
  H      -0.771756      0.455094     -0.045535
  H      -3.175273      1.536301     -0.290566
  H      -3.545627     -0.159824      0.066955
24
Coordinates from ORCA-job geo_opt E -43.541093190930
  N       2.853439      0.931844      1.482374
  C       1.943294     -0.215110      1.298618
  C       1.496393     -0.197203     -0.165092
  O       1.849704      0.730756     -0.883970
  N       0.749150     -1.233108     -0.557226
  C      -0.026451     -1.208510     -1.776146
  C      -1.479712     -0.768887     -1.519512
  O      -2.421780     -1.284949     -2.112198
  N      -1.586696      0.213600     -0.627901
  C      -2.759338      0.607992      0.100744
  C      -2.311875      0.859429      1.585263
  O      -1.086279      0.755561      1.801223
  O      -3.194309      1.141374      2.405651
  H       2.856645      1.407551      0.548435
  H       3.806447      0.650570      1.729412
  H       2.495573      1.590427      2.179902
  H       2.422734     -1.160159      1.543673
  H       1.037072     -0.092787      1.900183
  H       0.451879     -1.898537      0.142355
  H       0.437424     -0.499119     -2.466389
  H      -0.048710     -2.197548     -2.234413
  H      -0.763776      0.509695     -0.098509
  H      -3.197571      1.529865     -0.292126
  H      -3.523261     -0.172748      0.076492
24
Coordinates from ORCA-job geo_opt E -43.541216340690
  N       2.842307      0.918995      1.500610
  C       1.941839     -0.233841      1.302282
  C       1.485514     -0.194898     -0.157136
  O       1.818489      0.753372     -0.859893
  N       0.753630     -1.234994     -0.566285
  C      -0.027160     -1.200137     -1.782484
  C      -1.483884     -0.788137     -1.500216
  O      -2.430018     -1.371103     -2.019676
  N      -1.592023      0.246712     -0.668070
  C      -2.754517      0.612004      0.093599
  C      -2.283207      0.882496      1.566900
  O      -1.053941      0.793818      1.764636
  O      -3.155284      1.164057      2.399374
  H       2.826819      1.416856      0.578576
  H       3.800135      0.642508      1.733581
  H       2.482511      1.556636      2.216620
  H       2.429782     -1.178610      1.529973
  H       1.036183     -0.123896      1.906651
  H       0.465247     -1.914113      0.123908
  H       0.423807     -0.471218     -2.460287
  H      -0.039739     -2.183103     -2.253824
  H      -0.760319      0.591489     -0.187733
  H      -3.237188      1.512733     -0.294592
  H      -3.488982     -0.197626      0.094330
24
Coordinates from ORCA-job geo_opt E -43.541431233780
  N       2.825482      0.911048      1.520279
  C       1.939024     -0.251051      1.311741
  C       1.467220     -0.193788     -0.140908
  O       1.779828      0.772318     -0.830302
  N       0.746304     -1.234710     -0.563197
  C      -0.033597     -1.193004     -1.780738
  C      -1.489976     -0.803764     -1.470101
  O      -2.436076     -1.477681     -1.864313
  N      -1.603804      0.314913     -0.749090
  C      -2.741680      0.634628      0.071780
  C      -2.233843      0.868798      1.539813
  O      -1.002071      0.775290      1.708798
  O      -3.088775      1.131231      2.397287
  H       2.790853      1.425784      0.608334
  H       3.788184      0.644156      1.743408
  H       2.459829      1.531960      2.248219
  H       2.439654     -1.193317      1.520557
  H       1.035603     -0.157119      1.921118
  H       0.466012     -1.928018      0.116132
  H       0.407931     -0.448774     -2.446965
  H      -0.041978     -2.172732     -2.258572
  H      -0.760787      0.715141     -0.344104
  H      -3.265299      1.528837     -0.273414
  H      -3.448036     -0.200145      0.075079
24
Coordinates from ORCA-job geo_opt E -43.541669840080
  N       2.821357      0.888379      1.560066
  C       1.962001     -0.290451      1.328007
  C       1.435932     -0.180510     -0.102218
  O       1.687118      0.831651     -0.752848
  N       0.742454     -1.224288     -0.553633
  C      -0.045994     -1.171225     -1.768361
  C      -1.502091     -0.840379     -1.408812
  O      -2.412650     -1.642233     -1.583203
  N      -1.663308      0.381820     -0.880809
  C      -2.748172      0.661964      0.027723
  C      -2.176235      0.874895      1.473766
  O      -0.941351      0.766681      1.594835
  O      -2.998628      1.128203      2.366806
  H       2.728534      1.447865      0.680054
  H       3.800281      0.640086      1.726965
  H       2.471490      1.457940      2.335874
  H       2.494021     -1.226067      1.479113
  H       1.073933     -0.249574      1.963817
  H       0.500879     -1.956683      0.098662
  H       0.368189     -0.394275     -2.413167
  H      -0.032816     -2.140404     -2.266864
  H      -0.823041      0.887059     -0.628379
  H      -3.316242      1.545555     -0.268706
  H      -3.425661     -0.196008      0.052151
24
Coordinates from ORCA-job geo_opt E -43.542016482540
  N       2.817200      0.899441      1.555803
  C       1.989663     -0.301114      1.325115
  C       1.422252     -0.179648     -0.089248
  O       1.640044      0.846036     -0.731352
  N       0.738388     -1.228219     -0.538607
  C      -0.049327     -1.183118     -1.754220
  C      -1.499566     -0.845163     -1.391765
  O      -2.410084     -1.653384     -1.532167
  N      -1.657464      0.392511     -0.891504
  C      -2.745355      0.693272      0.008758
  C      -2.197665      0.850471      1.471130
  O      -0.969250      0.702585      1.614305
  O      -3.033875      1.099644      2.352670
  H       2.685930      1.467192      0.685914
  H       3.808495      0.679172      1.686506
  H       2.477216      1.447789      2.350383
  H       2.555139     -1.222041      1.442873
  H       1.119697     -0.310807      1.985699
  H       0.517071     -1.972602      0.106993
  H       0.364565     -0.410520     -2.404083
  H      -0.035827     -2.154610     -2.248611
  H      -0.812651      0.903217     -0.666089
  H      -3.263817      1.611876     -0.273618
  H      -3.460780     -0.131980     -0.004045
24
Coordinates from ORCA-job geo_opt E -43.542691233890
  N       2.729291      0.941337      1.566846
  C       1.992691     -0.311325      1.318491
  C       1.362728     -0.181513     -0.069466
  O       1.494053      0.873975     -0.685921
  N       0.736252     -1.258933     -0.532191
  C      -0.060840     -1.225075     -1.742861
  C      -1.495221     -0.859550     -1.358945
  O      -2.408509     -1.675727     -1.397293
  N      -1.631004      0.412955     -0.935826
  C      -2.678766      0.772300     -0.009421
  C      -2.131649      0.775792      1.462450
  O      -0.924666      0.501652      1.601488
  O      -2.952557      1.042898      2.353559
  H       2.538303      1.520079      0.715455
  H       3.738564      0.795737      1.661992
  H       2.372993      1.443539      2.383776
  H       2.636367     -1.186119      1.375775
  H       1.157386     -0.430563      2.011183
  H       0.559929     -2.028286      0.097215
  H       0.352599     -0.464238     -2.406961
  H      -0.055534     -2.202339     -2.224932
  H      -0.772248      0.935431     -0.815525
  H      -3.075199      1.766172     -0.229687
  H      -3.484964      0.041801     -0.078359
24
Coordinates from ORCA-job geo_opt E -43.543125295150
  N       2.668733      0.948030      1.593757
  C       2.032066     -0.347522      1.300293
  C       1.315012     -0.187494     -0.042538
  O       1.318910      0.911873     -0.591995
  N       0.781848     -1.292520     -0.557499
  C      -0.064626     -1.246257     -1.737101
  C      -1.483853     -0.900781     -1.284116
  O      -2.372652     -1.740743     -1.206551
  N      -1.626585      0.394701     -0.951247
  C      -2.648408      0.835002     -0.034950
  C      -2.128358      0.794696      1.445386
  O      -0.951025      0.421351      1.608215
  O      -2.940642      1.130957      2.321006
  H       2.379747      1.556920      0.792397
  H       3.691354      0.892711      1.619214
  H       2.320834      1.365104      2.460277
  H       2.754805     -1.159987      1.263300
  H       1.255874     -0.591813      2.027086
  H       0.681855     -2.104655      0.032716
  H       0.312356     -0.467186     -2.402621
  H      -0.052985     -2.212873     -2.237528
  H      -0.785112      0.957727     -0.975258
  H      -2.944190      1.861628     -0.262860
  H      -3.514957      0.181132     -0.118545
24
Coordinates from ORCA-job geo_opt E -43.543306449900
  N       2.631898      0.976000      1.578414
  C       2.013159     -0.329098      1.290523
  C       1.317301     -0.194632     -0.064479
  O       1.336718      0.892225     -0.636564
  N       0.793866     -1.310864     -0.571431
  C      -0.066937     -1.268459     -1.740519
  C      -1.479838     -0.887352     -1.280378
  O      -2.396658     -1.701443     -1.236776
  N      -1.587598      0.400580     -0.923517
  C      -2.609937      0.862572     -0.022425
  C      -2.123587      0.735613      1.466857
  O      -0.969747      0.299915      1.636794
  O      -2.928913      1.088567      2.342365
  H       2.363702      1.568211      0.755711
  H       3.652675      0.930862      1.647442
  H       2.240931      1.407884      2.419656
  H       2.745488     -1.133764      1.270037
  H       1.229842     -0.564537      2.013141
  H       0.680923     -2.111003      0.032927
  H       0.315968     -0.511424     -2.427449
  H      -0.079286     -2.245569     -2.219338
  H      -0.724264      0.934999     -0.904538
  H      -2.850109      1.908181     -0.220618
  H      -3.505598      0.252536     -0.144994
24
Coordinates from ORCA-job geo_opt E -43.543269496200
  N       2.608765      0.980605      1.604490
  C       2.000667     -0.327755      1.302143
  C       1.308020     -0.192054     -0.050592
  O       1.326257      0.898031     -0.619318
  N       0.786082     -1.304647     -0.564910
  C      -0.078830     -1.260194     -1.732063
  C      -1.482392     -0.870508     -1.246048
  O      -2.356753     -1.709846     -1.045919
  N      -1.634462      0.445985     -1.026152
  C      -2.594439      0.889011     -0.045874
  C      -2.041598      0.667271      1.410863
  O      -0.909986      0.162650      1.506374
  O      -2.780084      1.030962      2.341465
  H       2.349444      1.576998      0.781423
  H       3.626537      0.938763      1.705914
  H       2.186899      1.406974      2.434219
  H       2.735744     -1.129297      1.278584
  H       1.209358     -0.557907      2.017600
  H       0.670023     -2.107286      0.036649
  H       0.306620     -0.514981     -2.427854
  H      -0.113611     -2.247350     -2.190193
  H      -0.784359      0.996983     -1.084129
  H      -2.836788      1.941606     -0.181206
  H      -3.501114      0.285986     -0.144626
24
Coordinates from ORCA-job geo_opt E -43.543573683680
  N       2.624904      0.966632      1.605605
  C       2.017468     -0.340483      1.293984
  C       1.313997     -0.191521     -0.054299
  O       1.310946      0.908197     -0.604505
  N       0.807488     -1.305612     -0.581243
  C      -0.072100     -1.260681     -1.737752
  C      -1.478004     -0.889329     -1.246947
  O      -2.357544     -1.731678     -1.093888
  N      -1.623012      0.417261     -0.979620
  C      -2.616427      0.876116     -0.042795
  C      -2.088922      0.731778      1.430800
  O      -0.945103      0.260678      1.567592
  O      -2.856456      1.108507      2.331011
  H       2.348679      1.570742      0.794219
  H       3.645422      0.929438      1.679278
  H       2.225445      1.378364      2.453173
  H       2.757420     -1.137112      1.255017
  H       1.235967     -0.590266      2.013772
  H       0.709246     -2.115626      0.013343
  H       0.298947     -0.504842     -2.431126
  H      -0.093439     -2.241649     -2.209517
  H      -0.781603      0.982116     -1.030149
  H      -2.870618      1.919388     -0.228882
  H      -3.512700      0.259583     -0.136230
24
Coordinates from ORCA-job geo_opt E -43.543596585080
  N       2.624284      0.967995      1.604101
  C       2.014291     -0.338594      1.295081
  C       1.312543     -0.190045     -0.054304
  O       1.312318      0.909207     -0.605444
  N       0.805538     -1.304273     -0.580397
  C      -0.072082     -1.261929     -1.737798
  C      -1.477371     -0.886603     -1.250473
  O      -2.360243     -1.726662     -1.105362
  N      -1.619412      0.419231     -0.978749
  C      -2.614733      0.874601     -0.042155
  C      -2.086512      0.728539      1.430812
  O      -0.944879      0.250863      1.566178
  O      -2.850803      1.109046      2.332081
  H       2.347570      1.569558      0.790885
  H       3.644856      0.929395      1.676334
  H       2.227367      1.381927      2.451705
  H       2.753440     -1.136132      1.256644
  H       1.232281     -0.586747      2.014722
  H       0.703896     -2.111930      0.017121
  H       0.301739     -0.509130     -2.433210
  H      -0.095343     -2.244551     -2.206184
  H      -0.777072      0.983031     -1.017930
  H      -2.872329      1.917182     -0.227682
  H      -3.509342      0.256022     -0.135132
24
Coordinates from ORCA-job geo_opt E -43.543609782180
  N       2.617275      0.971817      1.605577
  C       2.018461     -0.339249      1.294268
  C       1.304597     -0.188693     -0.048765
  O       1.292925      0.913864     -0.593380
  N       0.807065     -1.304727     -0.579481
  C      -0.073890     -1.266280     -1.734128
  C      -1.474341     -0.883315     -1.242454
  O      -2.355981     -1.721917     -1.081874
  N      -1.616520      0.426205     -0.988046
  C      -2.608469      0.884247     -0.048451
  C      -2.085540      0.715117      1.423928
  O      -0.958398      0.203108      1.557042
  O      -2.838674      1.112077      2.327377
  H       2.326862      1.572197      0.795784
  H       3.638833      0.943778      1.668197
  H       2.224738      1.377898      2.458846
  H       2.766468     -1.127863      1.242303
  H       1.246000     -0.602310      2.018459
  H       0.710014     -2.113432      0.017530
  H       0.300727     -0.519173     -2.435361
  H      -0.103209     -2.251748     -2.195860
  H      -0.774949      0.990890     -1.028588
  H      -2.854298      1.931010     -0.225322
  H      -3.509696      0.276497     -0.146759
24
Coordinates from ORCA-job geo_opt E -43.543612205250
  N       2.619346      0.967296      1.609014
  C       2.011343     -0.339638      1.297411
  C       1.306748     -0.187088     -0.050452
  O       1.302502      0.915612     -0.595088
  N       0.808814     -1.301704     -0.583779
  C      -0.072261     -1.262874     -1.738574
  C      -1.474350     -0.884676     -1.248043
  O      -2.353598     -1.726603     -1.090990
  N      -1.620745      0.423038     -0.987282
  C      -2.614250      0.874644     -0.045730
  C      -2.076644      0.728647      1.423611
  O      -0.944299      0.226836      1.552649
  O      -2.824442      1.130252      2.329309
  H       2.335217      1.568622      0.797403
  H       3.640619      0.931229      1.672759
  H       2.229947      1.376731      2.462079
  H       2.752570     -1.135015      1.252738
  H       1.231580     -0.593811      2.017086
  H       0.710027     -2.109989      0.013616
  H       0.301476     -0.514550     -2.439025
  H      -0.100051     -2.247722     -2.201808
  H      -0.783044      0.994775     -1.024813
  H      -2.880060      1.914977     -0.231398
  H      -3.506443      0.251010     -0.129851
24
Coordinates from ORCA-job geo_opt E -43.543616009810
  N       2.621633      0.967942      1.607564
  C       2.015156     -0.339675      1.296662
  C       1.307662     -0.187503     -0.049794
  O       1.302039      0.914992     -0.594671
  N       0.808327     -1.302198     -0.581676
  C      -0.072539     -1.262738     -1.736714
  C      -1.474940     -0.884780     -1.245877
  O      -2.354451     -1.726189     -1.087960
  N      -1.621070      0.423509     -0.987468
  C      -2.614714      0.877040     -0.047162
  C      -2.083010      0.724772      1.423996
  O      -0.952488      0.219909      1.555554
  O      -2.833277      1.126292      2.327759
  H       2.335736      1.569331      0.796648
  H       3.643045      0.933462      1.670053
  H       2.232199      1.377073      2.460795
  H       2.757335     -1.134081      1.250486
  H       1.237344     -0.595448      2.017909
  H       0.710724     -2.111214      0.014911
  H       0.300822     -0.513506     -2.436333
  H      -0.099666     -2.247174     -2.200845
  H      -0.782184      0.992847     -1.026068
  H      -2.874298      1.919424     -0.230225
  H      -3.509386      0.257913     -0.136701
24
Coordinates from ORCA-job geo_opt E -43.543616706030
  N       2.619247      0.968332      1.608022
  C       2.015028     -0.339971      1.296343
  C       1.306211     -0.187925     -0.049442
  O       1.297602      0.915170     -0.592999
  N       0.808897     -1.303074     -0.582242
  C      -0.072372     -1.263406     -1.736936
  C      -1.474551     -0.885233     -1.245395
  O      -2.354050     -1.726433     -1.086258
  N      -1.620489      0.423251     -0.987761
  C      -2.613211      0.877903     -0.047121
  C      -2.081307      0.725168      1.424095
  O      -0.952150      0.217395      1.555640
  O      -2.830196      1.129643      2.327717
  H       2.331753      1.570198      0.797985
  H       3.640835      0.935649      1.669137
  H       2.230108      1.376006      2.462079
  H       2.758363     -1.133245      1.249319
  H       1.238060     -0.597791      2.017846
  H       0.712956     -2.112996      0.013363
  H       0.300594     -0.513966     -2.436523
  H      -0.099567     -2.247687     -2.201408
  H      -0.781709      0.992596     -1.028259
  H      -2.871492      1.920663     -0.229798
  H      -3.508557      0.259754     -0.136561
