24
zwitterion conformer 1
N       3.37067659     1.25181639     0.85119073
C       2.74612948    -0.03548878     0.92043774
C       1.60432767    -0.16578021    -0.03423870
O       1.33331182     0.82630269    -0.75843675
N       0.88397809    -1.39273337    -0.07972430
C      -0.21851168    -1.58310843    -0.96127868
C      -1.37488957    -0.71135233    -0.77592336
O      -2.35673039    -0.86050045    -1.58136061
N      -1.51154175     0.28880589     0.22008439
C      -2.71972526     1.08316516     0.28224896
C      -3.92573330     0.23535843     0.50327215
O      -3.84171015    -1.03284385     0.61656544
O      -5.14407463     0.89791149     0.57926475
H       3.48088472     1.59572980    -0.11595002
H       4.34699450     1.12275610     1.24682061
H       2.89831201     1.89838993     1.50024282
H       3.48601047    -0.83893922     0.74063867
H       2.29915882    -0.15359114     1.93554231
H       1.20741631    -2.16484288     0.57731157
H       0.19462914    -1.53621678    -2.01078272
H      -0.58014212    -2.64764456    -0.85588295
H      -0.74785699     0.44539559     0.90935391
H      -2.62297028     1.86853432     1.05374482
H      -2.80794347     1.60887620    -0.70229885
