20
neutral_delta CPCM-opt conformer 2
N      -0.97920830     0.02160390    -1.96751691
C      -1.44355645    -0.29581107    -0.62090860
C      -0.40468084    -1.16882321     0.14534085
C       0.92650453    -0.52549256     0.36373067
C       1.47837360     0.11591501     1.45801756
N       2.76100211     0.55494073     1.17971505
C       2.99049977     0.18249154    -0.07489427
N       1.91613496    -0.46850638    -0.60268890
C      -1.80548365     0.93873584     0.21197996
O      -1.47599250     2.08467079    -0.05027516
O      -2.53859029     0.61529320     1.30289810
H      -0.26369611     0.75377261    -1.92242625
H      -1.74947720     0.42438890    -2.50767720
H      -2.35852249    -0.90236269    -0.70405679
H      -0.82817788    -1.44250261     1.12101816
H      -0.28556012    -2.09628898    -0.43455904
H       1.01806877     0.27460015     2.43007759
H       3.90356955     0.35229981    -0.63902324
H       1.85381406    -0.85872059    -1.54008284
H      -2.71502150     1.43979562     1.80805947
