20
Coordinates from ORCA-job geo_opt_tzvp E -549.036435377539
  N      -2.751736     -1.209554      0.237332
  C      -1.538772     -0.440626     -0.081509
  C      -0.243323     -1.009514      0.581807
  C       1.031168     -0.303459      0.236492
  C       1.912105     -0.575270     -0.793389
  N       2.909829      0.370600     -0.691831
  C       2.616725      1.169171      0.371166
  N       1.485675      0.793111      0.959789
  C      -1.765730      0.996238      0.368809
  O      -2.241267      1.310740      1.450308
  O      -1.369934      1.901536     -0.554526
  H      -2.589659     -2.186273     -0.026001
  H      -2.877024     -1.214413      1.255181
  H      -1.401492     -0.443094     -1.171876
  H      -0.181050     -2.062021      0.267069
  H      -0.389567     -0.998473      1.673550
  H       1.920338     -1.338789     -1.563832
  H       3.726297      0.447123     -1.292835
  H       3.254317      1.995116      0.674323
  H      -1.506900      2.797853     -0.171960
20
Coordinates from ORCA-job geo_opt_tzvp E -549.036443318812
  N      -2.750453     -1.209695      0.236318
  C      -1.538246     -0.440385     -0.081138
  C      -0.243192     -1.009573      0.582227
  C       1.031208     -0.303732      0.236453
  C       1.912693     -0.576280     -0.792727
  N       2.909505      0.370179     -0.691933
  C       2.615154      1.170177      0.369222
  N       1.484506      0.794115      0.957627
  C      -1.765690      0.995851      0.369897
  O      -2.242452      1.309857      1.450284
  O      -1.367459      1.901322     -0.550857
  H      -2.590025     -2.186407     -0.028032
  H      -2.879943     -1.213806      1.253678
  H      -1.400264     -0.442209     -1.171600
  H      -0.181252     -2.062292      0.267801
  H      -0.389575     -0.997899      1.674102
  H       1.921887     -1.340853     -1.562114
  H       3.726116      0.446650     -1.292939
  H       3.251748      1.997270      0.671240
  H      -1.504265      2.797709     -0.169441
20
Coordinates from ORCA-job geo_opt_tzvp E -549.036446163413
  N      -2.748542     -1.209257      0.235934
  C      -1.537413     -0.439571     -0.080138
  C      -0.242203     -1.009532      0.582472
  C       1.032335     -0.304180      0.236321
  C       1.914349     -0.577541     -0.792337
  N       2.910561      0.369292     -0.692188
  C       2.616068      1.169728      0.368355
  N       1.485683      0.793717      0.956551
  C      -1.765227      0.996035      0.372168
  O      -2.245716      1.309039      1.450795
  O      -1.370448      1.901670     -0.548564
  H      -2.590917     -2.185775     -0.029880
  H      -2.883471     -1.212237      1.252370
  H      -1.398951     -0.440325     -1.170672
  H      -0.181058     -2.062195      0.267659
  H      -0.388369     -0.998037      1.674463
  H       1.924072     -1.342770     -1.561071
  H       3.726871      0.445972     -1.293631
  H       3.252394      1.997203      0.669900
  H      -1.510017      2.798762     -0.170439
20
Coordinates from ORCA-job geo_opt_tzvp E -549.036446499895
  N      -2.748606     -1.210282      0.235705
  C      -1.538241     -0.440353     -0.080254
  C      -0.242507     -1.009670      0.582385
  C       1.031669     -0.303815      0.235976
  C       1.914493     -0.577665     -0.792013
  N       2.910002      0.369932     -0.692278
  C       2.614250      1.171540      0.367087
  N       1.483781      0.795312      0.954954
  C      -1.766900      0.995342      0.371601
  O      -2.244926      1.308337      1.451421
  O      -1.365244      1.900648     -0.546095
  H      -2.592220     -2.186805     -0.030065
  H      -2.886337     -1.211835      1.251563
  H      -1.399604     -0.441251     -1.170761
  H      -0.181041     -2.062342      0.267790
  H      -0.388687     -0.998054      1.674358
  H       1.925356     -1.343849     -1.559788
  H       3.726407      0.446660     -1.293543
  H       3.249779      1.999867      0.668009
  H      -1.501423      2.798284     -0.167983
20
Coordinates from ORCA-job geo_opt_tzvp E -549.036448280863
  N      -2.748983     -1.209903      0.236298
  C      -1.538226     -0.440270     -0.080320
  C      -0.242386     -1.009669      0.582126
  C       1.031833     -0.303781      0.235982
  C       1.914213     -0.577137     -0.792471
  N       2.910522      0.369664     -0.691925
  C       2.615086      1.170918      0.367928
  N       1.484345      0.794900      0.955762
  C      -1.766234      0.995613      0.371549
  O      -2.244827      1.308670      1.451315
  O      -1.367527      1.900930     -0.547931
  H      -2.592062     -2.186498     -0.029245
  H      -2.884680     -1.211926      1.252512
  H      -1.399900     -0.441271     -1.170820
  H      -0.180913     -2.062219      0.267137
  H      -0.388469     -0.998520      1.674080
  H       1.924531     -1.342742     -1.560831
  H       3.727078      0.446187     -1.293003
  H       3.251097      1.998674      0.669371
  H      -1.504499      2.798379     -0.169447
20
Coordinates from ORCA-job geo_opt_tzvp E -549.036448338280
  N      -2.749004     -1.209849      0.236404
  C      -1.538315     -0.440296     -0.080338
  C      -0.242346     -1.009696      0.582019
  C       1.031874     -0.303802      0.235981
  C       1.914432     -0.577312     -0.792274
  N       2.910445      0.369846     -0.692038
  C       2.615146      1.170889      0.368035
  N       1.484474      0.794740      0.955967
  C      -1.766181      0.995630      0.371547
  O      -2.244900      1.308634      1.451311
  O      -1.367554      1.900905     -0.548007
  H      -2.592313     -2.186470     -0.029125
  H      -2.884794     -1.211686      1.252591
  H      -1.399978     -0.441289     -1.170833
  H      -0.180907     -2.062196      0.266858
  H      -0.388439     -0.998727      1.673969
  H       1.924867     -1.342991     -1.560556
  H       3.726811      0.446611     -1.293341
  H       3.251129      1.998670      0.669463
  H      -1.504447      2.798390     -0.169567
