20
Coordinates from ORCA-job geo_opt_tzvp E -549.036448338280
  N          -2.74900369189626     -1.20984941492678      0.23640449254488
  C          -1.53831501539453     -0.44029640131762     -0.08033778368403
  C          -0.24234617152738     -1.00969593452977      0.58201921053211
  C           1.03187391029033     -0.30380175986263      0.23598069857169
  C           1.91443221323286     -0.57731170965465     -0.79227354800828
  N           2.91044531165749      0.36984558768890     -0.69203798819926
  C           2.61514596088590      1.17088911806669      0.36803477737477
  N           1.48447356872615      0.79474046457965      0.95596737393966
  C          -1.76618141107998      0.99562999024888      0.37154734692075
  O          -2.24489965742866      1.30863364191012      1.45131112547911
  O          -1.36755437888351      1.90090545196222     -0.54800684659880
  H          -2.59231267257056     -2.18647032753773     -0.02912467179835
  H          -2.88479377532203     -1.21168569708534      1.25259106400281
  H          -1.39997827993872     -0.44128902484105     -1.17083293829580
  H          -0.18090710109833     -2.06219645181847      0.26685774591360
  H          -0.38843880584486     -0.99872723986902      1.67396917750241
  H           1.92486654247511     -1.34299106716970     -1.56055553555246
  H           3.72681102391262      0.44661104258372     -1.29334055917860
  H           3.25112901520887      1.99866953274849      0.66946251094881
  H          -1.50444656540452      2.79839020882408     -0.16956702241501
