20
neutral_epsilon conformer 3
N      -2.75173604    -1.20955435     0.23733242
C      -1.53877182    -0.44062557    -0.08150872
C      -0.24332294    -1.00951389     0.58180745
C       1.03116788    -0.30345916     0.23649231
C       1.91210501    -0.57527028    -0.79338921
N       2.90982851     0.37059965    -0.69183090
C       2.61672454     1.16917082     0.37116583
N       1.48567527     0.79311101     0.95978855
C      -1.76572966     0.99623795     0.36880939
O      -2.24126675     1.31073978     1.45030828
O      -1.36993429     1.90153615    -0.55452623
H      -2.58965871    -2.18627289    -0.02600134
H      -2.87702406    -1.21441331     1.25518087
H      -1.40149223    -0.44309448    -1.17187568
H      -0.18105000    -2.06202073     0.26706911
H      -0.38956692    -0.99847326     1.67355034
H       1.92033763    -1.33878932    -1.56383153
H       3.72629725     0.44712327    -1.29283500
H       3.25431696     1.99511599     0.67432251
H      -1.50689961     2.79785263    -0.17195982
