17
Coordinates from ORCA-job geo_opt_tzvp E -492.700560056186
  N       2.788308      0.159288     -0.097102
  C       1.487009      0.490161     -0.751067
  C       0.390865     -0.218900      0.059497
  O       0.682942     -0.726767      1.161085
  N      -0.825632     -0.227476     -0.497718
  C      -2.019270     -0.728334      0.169435
  C      -2.877393      0.344282      0.909782
  O      -3.953975     -0.109911      1.398816
  O      -2.447881      1.530499      0.965694
  H       3.382105      0.984500      0.043758
  H       2.536238     -0.256475      0.829440
  H       3.324736     -0.537876     -0.627219
  H       1.504905      0.169080     -1.797324
  H       1.337328      1.575273     -0.708336
  H      -0.947600      0.262554     -1.381285
  H      -1.710600     -1.485796      0.901426
  H      -2.652086     -1.224102     -0.578883
17
Coordinates from ORCA-job geo_opt_tzvp E -492.700565824483
  N       2.787164      0.161150     -0.095747
  C       1.486986      0.487426     -0.752170
  C       0.390441     -0.219643      0.058793
  O       0.681550     -0.726177      1.160245
  N      -0.825969     -0.226726     -0.497858
  C      -2.019702     -0.727528      0.167401
  C      -2.875498      0.343855      0.911295
  O      -3.951671     -0.109800      1.399691
  O      -2.442042      1.527401      0.974480
  H       3.380051      0.987613      0.041700
  H       2.535001     -0.250406      0.832661
  H       3.325068     -0.537821     -0.622023
  H       1.506588      0.162715     -1.797350
  H       1.335721      1.572615     -0.713812
  H      -0.947226      0.262927     -1.381907
  H      -1.712511     -1.488090      0.896994
  H      -2.653953     -1.219511     -0.582393
17
Coordinates from ORCA-job geo_opt_tzvp E -492.700511070797
  N       2.786337      0.163494     -0.095392
  C       1.487325      0.483022     -0.752929
  C       0.390888     -0.220148      0.060050
  O       0.681584     -0.725939      1.159835
  N      -0.826057     -0.223686     -0.494023
  C      -2.019076     -0.726398      0.167136
  C      -2.869384      0.340069      0.922788
  O      -3.954145     -0.109320      1.391593
  O      -2.441184      1.524057      0.979723
  H       3.378628      0.991490      0.035593
  H       2.536168     -0.241554      0.836394
  H       3.325513     -0.538355     -0.616621
  H       1.507492      0.152778     -1.796535
  H       1.334005      1.568426     -0.721549
  H      -0.946733      0.265628     -1.378624
  H      -1.714308     -1.495514      0.889160
  H      -2.657053     -1.208051     -0.586599
17
Coordinates from ORCA-job geo_opt_tzvp E -492.700568481264
  N       2.787220      0.161414     -0.095902
  C       1.487329      0.486517     -0.752248
  C       0.390321     -0.217962      0.060172
  O       0.680865     -0.723233      1.161859
  N      -0.825937     -0.225336     -0.496711
  C      -2.019790     -0.727001      0.166528
  C      -2.875135      0.342633      0.913632
  O      -3.952416     -0.111147      1.398661
  O      -2.442143      1.525912      0.978125
  H       3.380640      0.987849      0.039564
  H       2.536063     -0.248397      0.833484
  H       3.325030     -0.538645     -0.620870
  H       1.506335      0.159522     -1.796781
  H       1.336305      1.571903     -0.716890
  H      -0.946347      0.262244     -1.382000
  H      -1.713786     -1.490113      0.894099
  H      -2.654554     -1.216159     -0.584723
17
Coordinates from ORCA-job geo_opt_tzvp E -492.700569256641
  N       2.786957      0.161776     -0.095300
  C       1.487345      0.486225     -0.752509
  C       0.390082     -0.218180      0.059726
  O       0.679924     -0.722105      1.162261
  N      -0.826075     -0.225585     -0.497546
  C      -2.020131     -0.726832      0.165572
  C      -2.874399      0.342643      0.914449
  O      -3.950564     -0.111455      1.401772
  O      -2.441038      1.525887      0.978796
  H       3.380081      0.988399      0.040422
  H       2.535721     -0.248039      0.834025
  H       3.325471     -0.538137     -0.619778
  H       1.506895      0.158648     -1.796851
  H       1.335946      1.571584     -0.718042
  H      -0.945998      0.260866     -1.383546
  H      -1.714614     -1.490879      0.892378
  H      -2.655603     -1.214814     -0.585828
