17
Coordinates from ORCA-job geo_opt_tzvp E -492.700569256641
  N           2.78695650838723      0.16177591472610     -0.09530033609333
  C           1.48734488556984      0.48622474891018     -0.75250899063292
  C           0.39008227644447     -0.21817962808584      0.05972557801477
  O           0.67992371385768     -0.72210501412369      1.16226108835476
  N          -0.82607481099644     -0.22558532545811     -0.49754607762843
  C          -2.02013061960007     -0.72683220744761      0.16557150991325
  C          -2.87439903066085      0.34264280881651      0.91444884845067
  O          -3.95056383830555     -0.11145490230436      1.40177238348505
  O          -2.44103793374855      1.52588694213863      0.97879628928885
  H           3.38008086191519      0.98839885274329      0.04042187803468
  H           2.53572126967872     -0.24803910433339      0.83402542589537
  H           3.32547083496448     -0.53813736683850     -0.61977823458043
  H           1.50689525206862      0.15864812907645     -1.79685100834836
  H           1.33594570151043      1.57158360283531     -0.71804221379514
  H          -0.94599828007150      0.26086559020972     -1.38354630247444
  H          -1.71461368819921     -1.49087908885839      0.89237814830035
  H          -2.65560309281448     -1.21481398200628     -0.58582798618468
