17
zwitterion conformer 2
N       2.78830788     0.15928762    -0.09710158
C       1.48700930     0.49016070    -0.75106686
C       0.39086540    -0.21890000     0.05949691
O       0.68294222    -0.72676665     1.16108517
N      -0.82563174    -0.22747592    -0.49771776
C      -2.01926991    -0.72833447     0.16943494
C      -2.87739348     0.34428205     0.90978225
O      -3.95397460    -0.10991091     1.39881634
O      -2.44788067     1.53049918     0.96569355
H       3.38210469     0.98450019     0.04375758
H       2.53623803    -0.25647472     0.82944039
H       3.32473605    -0.53787608    -0.62721921
H       1.50490515     0.16908045    -1.79732432
H       1.33732800     1.57527330    -0.70833603
H      -0.94759962     0.26255368    -1.38128462
H      -1.71060044    -1.48579612     0.90142614
H      -2.65208625    -1.22410233    -0.57888289
