13
Coordinates from ORCA-job geo_opt_tzvp E -323.919803265056
  C       1.433005     -0.052665      0.057257
  C      -0.051128     -0.203180      0.369848
  N      -0.787115      1.107160      0.194043
  C      -0.778531     -1.230717     -0.557955
  O      -1.742911     -0.763215     -1.246594
  O      -0.351131     -2.410759     -0.531028
  H       1.925379     -1.025865      0.170165
  H       1.909750      0.659450      0.745260
  H       1.583487      0.295022     -0.975637
  H      -0.196046     -0.518488      1.410913
  H      -1.525317      0.846640     -0.518262
  H      -1.228782      1.440266      1.057555
  H      -0.190661      1.856351     -0.175566
13
Coordinates from ORCA-job geo_opt_tzvp E -323.919805681148
  C       1.432212     -0.052502      0.057428
  C      -0.051581     -0.203016      0.369750
  N      -0.786539      1.106598      0.194022
  C      -0.778905     -1.230753     -0.557364
  O      -1.742004     -0.763940     -1.246530
  O      -0.350255     -2.409506     -0.531965
  H       1.924442     -1.025819      0.169778
  H       1.909124      0.659157      0.745731
  H       1.582736      0.295737     -0.975273
  H      -0.196481     -0.518212      1.411059
  H      -1.525595      0.846170     -0.517534
  H      -1.227144      1.440870      1.057609
  H      -0.190008      1.855216     -0.176710
13
Coordinates from ORCA-job geo_opt_tzvp E -323.919765598580
  C       1.432318     -0.050344      0.057939
  C      -0.051214     -0.202863      0.366591
  N      -0.784903      1.104887      0.193249
  C      -0.775595     -1.229744     -0.562840
  O      -1.744976     -0.767043     -1.242153
  O      -0.357965     -2.410310     -0.525213
  H       1.924923     -1.023783      0.167169
  H       1.907853      0.658803      0.749665
  H       1.584490      0.302126     -0.973105
  H      -0.197204     -0.521024      1.407304
  H      -1.524604      0.846107     -0.518475
  H      -1.224724      1.439435      1.057112
  H      -0.188401      1.853753     -0.177243
13
Coordinates from ORCA-job geo_opt_tzvp E -323.919807145995
  C       1.432249     -0.052206      0.057713
  C      -0.051623     -0.202869      0.369150
  N      -0.786340      1.106319      0.193865
  C      -0.778513     -1.230790     -0.558142
  O      -1.742481     -0.764669     -1.245872
  O      -0.351022     -2.409673     -0.531186
  H       1.924453     -1.025650      0.169096
  H       1.909102      0.658661      0.746869
  H       1.583236      0.297185     -0.974561
  H      -0.196685     -0.518796      1.410290
  H      -1.526173      0.846282     -0.517094
  H      -1.226101      1.441414      1.057581
  H      -0.190101      1.854791     -0.177710
13
Coordinates from ORCA-job geo_opt_tzvp E -323.919807388234
  C       1.432226     -0.052260      0.057965
  C      -0.051729     -0.202791      0.369097
  N      -0.786321      1.106322      0.193745
  C      -0.778560     -1.230873     -0.558193
  O      -1.743097     -0.765058     -1.245295
  O      -0.350163     -2.409465     -0.531977
  H       1.924305     -1.025805      0.169003
  H       1.909153      0.658273      0.747418
  H       1.583437      0.297516     -0.974159
  H      -0.196907     -0.518868      1.410187
  H      -1.526680      0.846332     -0.516617
  H      -1.225409      1.442156      1.057523
  H      -0.190255      1.854519     -0.178696
