13
Coordinates from ORCA-job geo_opt_tzvp E -323.919807388234
  C           1.43222571586371     -0.05225970526900      0.05796465595963
  C          -0.05172902788577     -0.20279126273151      0.36909747472838
  N          -0.78632063933690      1.10632238362638      0.19374549342250
  C          -0.77856027188341     -1.23087320288322     -0.55819302527611
  O          -1.74309712554180     -0.76505770061488     -1.24529527936738
  O          -0.35016317307558     -2.40946480225866     -0.53197736186584
  H           1.92430488727852     -1.02580504556201      0.16900270743108
  H           1.90915312678878      0.65827326223459      0.74741827817814
  H           1.58343740001515      0.29751624539787     -0.97415913292796
  H          -0.19690714585482     -0.51886782429333      1.41018680617095
  H          -1.52668001677615      0.84633206595821     -0.51661725501740
  H          -1.22540890474516      1.44215617607864      1.05752284459599
  H          -0.19025482484658      1.85451941031692     -0.17869618603198
