13
zwitterion conformer 1
C       1.43300547    -0.05266458     0.05725742
C      -0.05112790    -0.20317964     0.36984816
N      -0.78711451     1.10716018     0.19404328
C      -0.77853068    -1.23071724    -0.55795497
O      -1.74291062    -0.76321506    -1.24659417
O      -0.35113078    -2.41075917    -0.53102769
H       1.92537854    -1.02586486     0.17016466
H       1.90974957     0.65945016     0.74525963
H       1.58348669     0.29502181    -0.97563701
H      -0.19604619    -0.51848819     1.41091316
H      -1.52531710     0.84664000    -0.51826207
H      -1.22878177     1.44026586     1.05755516
H      -0.19066072     1.85635073    -0.17556554
