27
Coordinates from ORCA-job geo_opt E -686.661476352224
  N      -1.916247     -0.542893     -0.993044
  C      -2.388749      0.186907      0.201803
  C      -1.401095      0.051163      1.364180
  C      -0.072835      0.649464      1.030941
  C       0.308245      1.953488      1.177576
  N       1.583293      2.128956      0.722350
  C       2.063794      0.934242      0.276789
  C       3.299047      0.601210     -0.266893
  C       3.506724     -0.712094     -0.628601
  C       2.514475     -1.681304     -0.449383
  C       1.287609     -1.360073      0.085682
  C       1.042419     -0.033810      0.452657
  C      -3.759606     -0.495826      0.602183
  O      -4.014491     -1.521513     -0.067791
  O      -4.416879      0.019705      1.508164
  H      -1.979587      0.002728     -1.853739
  H      -2.629199     -1.338940     -1.019855
  H      -0.961704     -0.898520     -0.874940
  H      -2.571324      1.240128     -0.009440
  H      -1.287815     -1.005917      1.613969
  H      -1.843950      0.548832      2.228111
  H      -0.252261      2.772058      1.585215
  H       2.093445      2.995450      0.739958
  H       4.070879      1.344564     -0.395166
  H       4.455915     -1.005586     -1.051218
  H       2.723539     -2.701792     -0.734090
  H       0.546357     -2.130628      0.246146
27
Coordinates from ORCA-job geo_opt E -686.666734970522
  N      -2.033996     -0.495486     -1.048055
  C      -2.446789      0.190198      0.212569
  C      -1.401330      0.031900      1.338662
  C      -0.063022      0.635403      1.008460
  C       0.310129      1.954983      1.152845
  N       1.598797      2.136933      0.702312
  C       2.102944      0.933687      0.270841
  C       3.358014      0.607685     -0.256384
  C       3.591637     -0.720432     -0.594430
  C       2.603100     -1.708363     -0.404696
  C       1.356090     -1.388888      0.118763
  C       1.081286     -0.048731      0.456587
  C      -3.809184     -0.497434      0.632952
  O      -4.094121     -1.533878     -0.041924
  O      -4.417203     -0.011699      1.607504
  H      -2.142962      0.088972     -1.883504
  H      -2.749957     -1.291446     -1.073608
  H      -1.072309     -0.855863     -1.014313
  H      -2.630025      1.253178      0.023229
  H      -1.284786     -1.037956      1.571807
  H      -1.826744      0.509876      2.230118
  H      -0.265232      2.786346      1.549698
  H       2.104349      3.017105      0.715748
  H       4.127950      1.368925     -0.390879
  H       4.559488     -1.008988     -1.006535
  H       2.829416     -2.742088     -0.670475
  H       0.614459     -2.173936      0.284269
27
Coordinates from ORCA-job geo_opt E -686.665056584599
  N      -2.063584     -0.495405     -1.041072
  C      -2.467052      0.170417      0.246384
  C      -1.393200      0.019284      1.348554
  C      -0.056423      0.626290      1.007903
  C       0.307312      1.957089      1.137801
  N       1.603687      2.140770      0.692997
  C       2.119832      0.933199      0.268002
  C       3.384132      0.613034     -0.252056
  C       3.627267     -0.720836     -0.587773
  C       2.636338     -1.716397     -0.402943
  C       1.379461     -1.397479      0.115465
  C       1.095593     -0.054111      0.453691
  C      -3.812580     -0.527744      0.673797
  O      -4.169199     -1.493969     -0.084615
  O      -4.488687      0.048602      1.560868
  H      -2.200540      0.101561     -1.865040
  H      -2.759882     -1.305844     -1.068343
  H      -1.093364     -0.835187     -1.045765
  H      -2.653258      1.235258      0.056369
  H      -1.269176     -1.053060      1.581331
  H      -1.812459      0.493503      2.248164
  H      -0.272197      2.795701      1.525017
  H       2.104946      3.026090      0.703354
  H       4.152192      1.381783     -0.385521
  H       4.602035     -1.004672     -0.996466
  H       2.866065     -2.753246     -0.668305
  H       0.632741     -2.184633      0.269763
27
Coordinates from ORCA-job geo_opt E -686.667566969924
  N      -2.052071     -0.478502     -1.043624
  C      -2.469825      0.181003      0.244681
  C      -1.398993      0.029736      1.344538
  C      -0.062833      0.631356      1.002633
  C       0.300832      1.963040      1.121352
  N       1.600734      2.139799      0.687024
  C       2.115536      0.929170      0.270035
  C       3.381665      0.604340     -0.239843
  C       3.620170     -0.730167     -0.575099
  C       2.621776     -1.719856     -0.401683
  C       1.362972     -1.394562      0.106635
  C       1.085532     -0.052041      0.448784
  C      -3.813468     -0.517215      0.652547
  O      -4.126290     -1.534909     -0.056181
  O      -4.436038     -0.030196      1.628199
  H      -2.183995      0.123535     -1.863659
  H      -2.742936     -1.289822     -1.083562
  H      -1.080241     -0.812493     -1.045383
  H      -2.653857      1.243952      0.046702
  H      -1.278127     -1.041447      1.577766
  H      -1.819312      0.505829      2.242020
  H      -0.275565      2.805429      1.498142
  H       2.103197      3.022050      0.696689
  H       4.152182      1.368623     -0.367815
  H       4.594810     -1.017212     -0.976723
  H       2.845795     -2.755494     -0.668522
  H       0.608351     -2.173946      0.245911
27
Coordinates from ORCA-job geo_opt E -686.667683717118
  N      -2.051694     -0.458650     -1.049981
  C      -2.468583      0.184490      0.246387
  C      -1.396442      0.019960      1.342096
  C      -0.062924      0.623800      1.000672
  C       0.299982      1.952948      1.124042
  N       1.591535      2.134919      0.674967
  C       2.107900      0.926134      0.262013
  C       3.370439      0.604660     -0.253169
  C       3.614874     -0.729730     -0.574739
  C       2.626457     -1.722425     -0.383504
  C       1.371687     -1.401411      0.130137
  C       1.087934     -0.058849      0.458249
  C      -3.809838     -0.516115      0.649759
  O      -4.119464     -1.529981     -0.059303
  O      -4.430058     -0.037307      1.627727
  H      -2.181472      0.155930     -1.860670
  H      -2.743236     -1.265798     -1.104935
  H      -1.080030     -0.793412     -1.053792
  H      -2.653194      1.248773      0.059926
  H      -1.276150     -1.052583      1.563713
  H      -1.812298      0.486453      2.245546
  H      -0.275420      2.793318      1.502100
  H       2.089305      3.019311      0.676059
  H       4.134373      1.371131     -0.393410
  H       4.587719     -1.014446     -0.978451
  H       2.855063     -2.757900     -0.641030
  H       0.623535     -2.183219      0.281153
27
Coordinates from ORCA-job geo_opt E -686.667746982995
  N      -2.054118     -0.448983     -1.049938
  C      -2.472404      0.183644      0.253826
  C      -1.394699      0.016045      1.342998
  C      -0.063423      0.621282      0.996924
  C       0.295388      1.952603      1.110996
  N       1.588741      2.133905      0.667303
  C       2.107971      0.924182      0.260392
  C       3.372622      0.602851     -0.249218
  C       3.618798     -0.732093     -0.567470
  C       2.629680     -1.724558     -0.379417
  C       1.372772     -1.403108      0.128442
  C       1.087741     -0.060576      0.455245
  C      -3.809478     -0.519795      0.654658
  O      -4.125352     -1.526732     -0.061040
  O      -4.425373     -0.048093      1.639481
  H      -2.188844      0.172451     -1.854752
  H      -2.738221     -1.258977     -1.112929
  H      -1.079892     -0.776324     -1.059729
  H      -2.657678      1.248443      0.069930
  H      -1.273341     -1.057343      1.559982
  H      -1.807221      0.478238      2.250387
  H      -0.280913      2.795323      1.482545
  H       2.085034      3.019242      0.666412
  H       4.136318      1.369749     -0.388439
  H       4.593698     -1.016693     -0.966436
  H       2.859108     -2.760552     -0.634320
  H       0.623086     -2.184131      0.275728
27
Coordinates from ORCA-job geo_opt E -686.667789007447
  N      -2.061409     -0.429989     -1.052551
  C      -2.479055      0.183811      0.263699
  C      -1.392199      0.007379      1.342052
  C      -0.063896      0.615752      0.990658
  C       0.289345      1.949756      1.094538
  N       1.583500      2.131993      0.653592
  C       2.108148      0.921122      0.256441
  C       3.375581      0.600886     -0.246964
  C       3.626391     -0.735224     -0.557244
  C       2.638891     -1.729100     -0.368246
  C       1.379476     -1.408503      0.133827
  C       1.090000     -0.065209      0.454302
  C      -3.811163     -0.524581      0.661868
  O      -4.136575     -1.521241     -0.062820
  O      -4.420823     -0.061133      1.655790
  H      -2.204870      0.203127     -1.846854
  H      -2.733837     -1.243939     -1.129388
  H      -1.083446     -0.745759     -1.072121
  H      -2.665448      1.249997      0.088081
  H      -1.269259     -1.068095      1.547697
  H      -1.798653      0.459276      2.257547
  H      -0.288618      2.795162      1.457732
  H       2.076063      3.019396      0.647217
  H       4.137286      1.369540     -0.388311
  H       4.603862     -1.018743     -0.951099
  H       2.871026     -2.765994     -0.617667
  H       0.629683     -2.189686      0.279787
27
Coordinates from ORCA-job geo_opt E -686.667811728404
  N      -2.069391     -0.407241     -1.056703
  C      -2.484430      0.186364      0.270646
  C      -1.390361     -0.000941      1.339944
  C      -0.064221      0.610352      0.985117
  C       0.284448      1.946191      1.080680
  N       1.578733      2.129615      0.640674
  C       2.107813      0.918018      0.251827
  C       3.376876      0.598709     -0.248180
  C       3.632504     -0.738499     -0.549301
  C       2.648240     -1.734392     -0.354589
  C       1.387224     -1.414963      0.143854
  C       1.092655     -0.070377      0.454847
  C      -3.812254     -0.530550      0.666723
  O      -4.140557     -1.519328     -0.065881
  O      -4.416983     -0.077541      1.669161
  H      -2.224037      0.235696     -1.841093
  H      -2.730301     -1.226774     -1.144592
  H      -1.087750     -0.710744     -1.085570
  H      -2.674529      1.254046      0.108724
  H      -1.266218     -1.078508      1.533404
  H      -1.790737      0.440734      2.263088
  H      -0.295844      2.792942      1.437010
  H       2.067919      3.018825      0.628517
  H       4.136105      1.369039     -0.393811
  H       4.611515     -1.021119     -0.940030
  H       2.884014     -2.772218     -0.596775
  H       0.639564     -2.197335      0.293869
27
Coordinates from ORCA-job geo_opt E -686.667818793404
  N      -2.102587     -0.321455     -1.069922
  C      -2.503216      0.197630      0.293559
  C      -1.384344     -0.030607      1.329120
  C      -0.064957      0.590233      0.963618
  C       0.267843      1.931885      1.030341
  N       1.562271      2.119940      0.592659
  C       2.107615      0.906162      0.234858
  C       3.382903      0.590407     -0.252144
  C       3.656569     -0.750190     -0.519245
  C       2.684000     -1.753353     -0.303772
  C       1.416663     -1.438364      0.180639
  C       1.103152     -0.089633      0.455831
  C      -3.815436     -0.552511      0.682446
  O      -4.148487     -1.515211     -0.077955
  O      -4.403327     -0.141072      1.714358
  H      -2.301454      0.352007     -1.818328
  H      -2.723942     -1.160284     -1.192637
  H      -1.109362     -0.579253     -1.132461
  H      -2.707677      1.269454      0.187068
  H      -1.257071     -1.114701      1.478204
  H      -1.761863      0.374583      2.278272
  H      -0.322386      2.781574      1.362661
  H       2.039542      3.015082      0.559214
  H       4.133203      1.366517     -0.413146
  H       4.640960     -1.029587     -0.898766
  H       2.933832     -2.793900     -0.519132
  H       0.677556     -2.225352      0.346223
27
Coordinates from ORCA-job geo_opt E -686.667845842168
  N      -2.093504     -0.357121     -1.065735
  C      -2.495795      0.194968      0.282398
  C      -1.386422     -0.020782      1.330875
  C      -0.064137      0.597297      0.971004
  C       0.274394      1.936806      1.050114
  N       1.569202      2.123751      0.613005
  C       2.108822      0.911163      0.242692
  C       3.382262      0.594552     -0.248518
  C       3.649496     -0.744482     -0.529889
  C       2.672245     -1.745336     -0.324450
  C       1.406809     -1.429276      0.164584
  C       1.100306     -0.082412      0.454818
  C      -3.816127     -0.539269      0.678244
  O      -4.146255     -1.516628     -0.066206
  O      -4.410829     -0.105759      1.696210
  H      -2.277863      0.301494     -1.830689
  H      -2.730740     -1.190200     -1.169656
  H      -1.104482     -0.633287     -1.116241
  H      -2.692871      1.265962      0.155614
  H      -1.260024     -1.102980      1.494133
  H      -1.772433      0.396173      2.271455
  H      -0.313293      2.784376      1.392186
  H       2.050958      3.016798      0.588647
  H       4.136173      1.368693     -0.401885
  H       4.632070     -1.024867     -0.913297
  H       2.917278     -2.784581     -0.551148
  H       0.664760     -2.215053      0.323298
27
Coordinates from ORCA-job geo_opt E -686.667855019308
  N      -2.098428     -0.360670     -1.065993
  C      -2.495912      0.196742      0.280067
  C      -1.386407     -0.022526      1.327736
  C      -0.063564      0.595934      0.969687
  C       0.274611      1.935475      1.050763
  N       1.569797      2.123352      0.615152
  C       2.110232      0.911338      0.244135
  C       3.384419      0.595860     -0.246029
  C       3.652619     -0.742722     -0.528767
  C       2.675414     -1.744322     -0.325691
  C       1.409299     -1.429338      0.162559
  C       1.101944     -0.083006      0.454248
  C      -3.818329     -0.532747      0.679993
  O      -4.147683     -1.515347     -0.058383
  O      -4.413483     -0.092421      1.694558
  H      -2.286109      0.293430     -1.834020
  H      -2.736434     -1.194629     -1.162829
  H      -1.109686     -0.637237     -1.118224
  H      -2.689650      1.268306      0.153455
  H      -1.260190     -1.105212      1.487849
  H      -1.771898      0.392069      2.269607
  H      -0.314451      2.781837      1.393476
  H       2.051309      3.016570      0.591826
  H       4.138226      1.370503     -0.397461
  H       4.635582     -1.022428     -0.911667
  H       2.921266     -2.783068     -0.553786
  H       0.667506     -2.215744      0.319303
27
Coordinates from ORCA-job geo_opt E -686.667865018586
  N      -2.113202     -0.350418     -1.068631
  C      -2.499671      0.201902      0.281059
  C      -1.384958     -0.031093      1.320209
  C      -0.062692      0.589697      0.962845
  C       0.271738      1.930443      1.041611
  N       1.567672      2.120733      0.609567
  C       2.112598      0.909234      0.243476
  C       3.389374      0.596401     -0.241744
  C       3.662498     -0.742032     -0.520401
  C       2.687235     -1.746014     -0.318400
  C       1.418605     -1.433495      0.165017
  C       1.106478     -0.087515      0.452888
  C      -3.821955     -0.525696      0.686413
  O      -4.150099     -1.512990     -0.046591
  O      -4.415745     -0.081627      1.699995
  H      -2.317150      0.300869     -1.834962
  H      -2.744320     -1.190508     -1.158481
  H      -1.122453     -0.617222     -1.131967
  H      -2.689778      1.275159      0.164639
  H      -1.258614     -1.115722      1.466327
  H      -1.764822      0.372505      2.269212
  H      -0.321557      2.775322      1.380639
  H       2.046583      3.015310      0.584073
  H       4.141436      1.372916     -0.392265
  H       4.647388     -1.020100     -0.899485
  H       2.936988     -2.784416     -0.543767
  H       0.678423     -2.221641      0.320285
27
Coordinates from ORCA-job geo_opt E -686.667868854061
  N      -2.123159     -0.337454     -1.070795
  C      -2.503084      0.205550      0.284165
  C      -1.383462     -0.037916      1.315554
  C      -0.062289      0.584878      0.957362
  C       0.268827      1.926779      1.032215
  N       1.565217      2.118548      0.602529
  C       2.113729      0.907032      0.241736
  C       3.392342      0.595744     -0.239581
  C       3.669211     -0.742949     -0.513208
  C       2.695636     -1.748479     -0.310346
  C       1.425212     -1.437304      0.169103
  C       1.109438     -0.091258      0.452228
  C      -3.823237     -0.524393      0.691013
  O      -4.149888     -1.512619     -0.041581
  O      -4.416404     -0.082260      1.705776
  H      -2.341814      0.314104     -1.832929
  H      -2.746245     -1.183440     -1.158682
  H      -1.130070     -0.592903     -1.144408
  H      -2.692082      1.279946      0.177199
  H      -1.256982     -1.123957      1.450494
  H      -1.758238      0.356798      2.270383
  H      -0.327408      2.771266      1.367003
  H       2.041849      3.014246      0.573963
  H       4.142853      1.373592     -0.390901
  H       4.655613     -1.020099     -0.889009
  H       2.948274     -2.786972     -0.532030
  H       0.686164     -2.226482      0.324308
27
Coordinates from ORCA-job geo_opt E -686.667870792846
  N      -2.122882     -0.334167     -1.070744
  C      -2.503402      0.206139      0.285540
  C      -1.383055     -0.038648      1.315727
  C      -0.062378      0.584585      0.956937
  C       0.268261      1.926721      1.030468
  N       1.564709      2.118340      0.601036
  C       2.113533      0.906558      0.241383
  C       3.392201      0.595045     -0.239504
  C       3.669032     -0.743859     -0.512174
  C       2.695351     -1.749162     -0.309013
  C       1.424873     -1.437633      0.169904
  C       1.109289     -0.091520      0.452469
  C      -3.822221     -0.525824      0.691082
  O      -4.146438     -1.514859     -0.041698
  O      -4.417424     -0.084911      1.705113
  H      -2.346875      0.316912     -1.831785
  H      -2.742467     -1.182774     -1.157781
  H      -1.128541     -0.584172     -1.147170
  H      -2.692573      1.280637      0.179812
  H      -1.256547     -1.124904      1.448813
  H      -1.756993      0.354643      2.271511
  H      -0.328153      2.771526      1.364129
  H       2.041039      3.014161      0.571340
  H       4.142638      1.372840     -0.391393
  H       4.655567     -1.021275     -0.887438
  H       2.947896     -2.787822     -0.530034
  H       0.685559     -2.226579      0.325031
27
Coordinates from ORCA-job geo_opt E -686.667871855298
  N      -2.118890     -0.335065     -1.069927
  C      -2.502604      0.205807      0.285793
  C      -1.383241     -0.036857      1.317609
  C      -0.062656      0.586170      0.958528
  C       0.268814      1.928107      1.032130
  N       1.565231      2.118879      0.602232
  C       2.112969      0.906801      0.241720
  C       3.390979      0.594360     -0.240236
  C       3.666243     -0.744686     -0.513843
  C       2.691798     -1.749133     -0.310569
  C       1.421983     -1.436682      0.169397
  C       1.108016     -0.090431      0.453025
  C      -3.820583     -0.528017      0.689292
  O      -4.141362     -1.518646     -0.042995
  O      -4.419258     -0.087160      1.701243
  H      -2.345549      0.314532     -1.831449
  H      -2.736027     -1.185714     -1.155782
  H      -1.123491     -0.580941     -1.146193
  H      -2.692417      1.280001      0.178052
  H      -1.256785     -1.122890      1.452458
  H      -1.758076      0.357856      2.272455
  H      -0.326605      2.773474      1.366150
  H       2.042106      3.014400      0.572353
  H       4.141981      1.371541     -0.392442
  H       4.652315     -1.022782     -0.889839
  H       2.943112     -2.787950     -0.532274
  H       0.681997     -2.224973      0.324674
