27
Coordinates from ORCA-job geo_opt E -686.667871855298
  N          -2.11889041960452     -0.33506462307200     -1.06992660992918
  C          -2.50260448959465      0.20580671828576      0.28579284316368
  C          -1.38324062486375     -0.03685663516009      1.31760934268175
  C          -0.06265606921773      0.58616997665363      0.95852768653198
  C           0.26881425559740      1.92810707027874      1.03213017046953
  N           1.56523097013663      2.11887873336428      0.60223203034013
  C           2.11296905764375      0.90680127696302      0.24171992267275
  C           3.39097884556052      0.59435978240566     -0.24023585897271
  C           3.66624328481665     -0.74468622123481     -0.51384324000494
  C           2.69179770712084     -1.74913342871925     -0.31056929589807
  C           1.42198275423789     -1.43668245214554      0.16939694100169
  C           1.10801601905281     -0.09043095638030      0.45302493738233
  C          -3.82058338641346     -0.52801684125857      0.68929199536737
  O          -4.14136212990781     -1.51864623008321     -0.04299513678028
  O          -4.41925756496741     -0.08715968996397      1.70124275417380
  H          -2.34554932719118      0.31453239476547     -1.83144864919790
  H          -2.73602652515949     -1.18571376870939     -1.15578207591576
  H          -1.12349088412111     -0.58094114850173     -1.14619290385996
  H          -2.69241724937121      1.28000066955634      0.17805201141863
  H          -1.25678514279150     -1.12289045168673      1.45245837340940
  H          -1.75807581755391      0.35785601080626      2.27245494587873
  H          -0.32660506998023      2.77347419850100      1.36615033248208
  H           2.04210647504664      3.01440036583701      0.57235319485795
  H           4.14198115939999      1.37154077707813     -0.39244151615225
  H           4.65231513076580     -1.02278208824915     -0.88983947131079
  H           2.94311239040034     -2.78795018220750     -0.53227368099441
  H           0.68199665095867     -2.22497328712310      0.32467423718448
