27
zwitterion conformer 3
N      -1.91624693    -0.54289294    -0.99304448
C      -2.38874919     0.18690702     0.20180310
C      -1.40109484     0.05116297     1.36418042
C      -0.07283495     0.64946446     1.03094138
C       0.30824505     1.95348828     1.17757583
N       1.58329304     2.12895620     0.72234999
C       2.06379445     0.93424163     0.27678853
C       3.29904687     0.60121030    -0.26689265
C       3.50672358    -0.71209374    -0.62860113
C       2.51447480    -1.68130393    -0.44938250
C       1.28760883    -1.36007251     0.08568189
C       1.04241903    -0.03381006     0.45265668
C      -3.75960570    -0.49582566     0.60218305
O      -4.01449104    -1.52151299    -0.06779114
O      -4.41687899     0.01970528     1.50816411
H      -1.97958713     0.00272782    -1.85373872
H      -2.62919896    -1.33894039    -1.01985544
H      -0.96170371    -0.89852009    -0.87494026
H      -2.57132445     1.24012762    -0.00944001
H      -1.28781460    -1.00591673     1.61396919
H      -1.84395033     0.54883166     2.22811079
H      -0.25226067     2.77205763     1.58521488
H       2.09344504     2.99545019     0.73995839
H       4.07087888     1.34456426    -0.39516638
H       4.45591522    -1.00558567    -1.05121831
H       2.72353921    -2.70179223    -0.73409027
H       0.54635749    -2.13062841     0.24614634
