24
Coordinates from ORCA-job geo_opt_tzvp E -700.811684804004
  N          -3.23381805685118      1.21043026293344     -0.89116646455227
  C          -2.46398915351991      0.92830185368956      0.35569844317362
  C          -1.47882296429007     -0.20040368275190      0.03612754931817
  O          -1.25749221344337     -0.50997509048636     -1.15014807070549
  N          -0.88643566708382     -0.77810459286747      1.09040958195230
  C           0.10254448508788     -1.84757677777473      0.96294093364905
  C           1.53290943850214     -1.32151189032198      0.73182929641526
  O           2.40632548296571     -1.41887537264850      1.61148079098479
  N           1.74063127095158     -0.77416195153142     -0.48485520168463
  C           2.97003500189566     -0.09768423821862     -0.85889273370670
  C           3.02894304165077      1.43125305103529     -0.55267863280567
  O           2.03021810995086      1.98130048576063     -0.00971181223658
  O           4.11495365487920      1.98617105830534     -0.89420488024352
  H          -2.68122507758177      0.81394881154613     -1.68034577892461
  H          -4.15454696465140      0.75371664168709     -0.89151313384856
  H          -3.37642836349089      2.21567097713082     -1.04459528424535
  H          -3.15296276060863      0.66856244480925      1.16561906938993
  H          -1.90602612005622      1.83120257654400      0.63236656848287
  H          -1.10397308453220     -0.44089449777832      2.02574878468976
  H           0.09955675486774     -2.42425682000227      1.89319873610835
  H          -0.19652180867404     -2.50184025414509      0.13200393428012
  H           0.93001939693747     -0.68887452624692     -1.10021594114820
  H           3.80571311798998     -0.58080173676801     -0.33491601217816
  H           3.13039246910451     -0.23559673189997     -1.93737611216448
