24
Coordinates from ORCA-job geo_opt_tzvp E -700.811672311667
  N      -3.228090      1.213230     -0.892895
  C      -2.466374      0.926052      0.359539
  C      -1.477208     -0.199673      0.039805
  O      -1.248965     -0.503520     -1.148024
  N      -0.888821     -0.780992      1.094443
  C       0.102344     -1.849554      0.964428
  C       1.532232     -1.321283      0.732888
  O       2.407648     -1.419982      1.611788
  N       1.738505     -0.775191     -0.484941
  C       2.968670     -0.097688     -0.859112
  C       3.026015      1.433013     -0.560098
  O       2.024663      1.987095     -0.023747
  O       4.114234      1.985781     -0.901547
  H      -2.668581      0.820463     -1.679045
  H      -4.147946      0.754926     -0.901970
  H      -3.370733      2.219011     -1.043206
  H      -3.160990      0.660121      1.162456
  H      -1.912085      1.828405      0.644490
  H      -1.108015     -0.445818      2.030067
  H       0.100462     -2.427069      1.894029
  H      -0.196813     -2.502663      0.132894
  H       0.925827     -0.686175     -1.097103
  H       3.803327     -0.578227     -0.331703
  H       3.130693     -0.240262     -1.936633
24
Coordinates from ORCA-job geo_opt_tzvp E -700.811679441680
  N      -3.231763      1.210531     -0.891636
  C      -2.463672      0.928266      0.356828
  C      -1.476965     -0.199274      0.037518
  O      -1.252287     -0.506298     -1.149235
  N      -0.886989     -0.778966      1.091861
  C       0.102346     -1.848490      0.963128
  C       1.532507     -1.322106      0.731504
  O       2.406865     -1.420753      1.610420
  N       1.739299     -0.774526     -0.485268
  C       2.968994     -0.097463     -0.859004
  C       3.026420      1.432073     -0.556507
  O       2.026990      1.983406     -0.015615
  O       4.115034      1.985279     -0.893250
  H      -2.677527      0.813587     -1.679473
  H      -4.152302      0.753507     -0.893150
  H      -3.374090      2.215738     -1.045391
  H      -3.154240      0.666531      1.164677
  H      -1.907437      1.831638      0.635156
  H      -1.105008     -0.442461      2.027343
  H       0.099700     -2.425351      1.893251
  H      -0.197359     -2.502090      0.131982
  H       0.927081     -0.685967     -1.098355
  H       3.804010     -0.579218     -0.332920
  H       3.130389     -0.237593     -1.937059
24
Coordinates from ORCA-job geo_opt_tzvp E -700.811592266499
  N      -3.236263      1.208772     -0.888082
  C      -2.457999      0.931601      0.352208
  C      -1.477299     -0.199983      0.032700
  O      -1.258378     -0.510703     -1.151788
  N      -0.884570     -0.777863      1.085878
  C       0.101682     -1.848231      0.959723
  C       1.532325     -1.324151      0.731646
  O       2.402530     -1.423263      1.612046
  N       1.743139     -0.773937     -0.482542
  C       2.972039     -0.097633     -0.853044
  C       3.028589      1.429160     -0.541938
  O       2.023679      1.977420     -0.012729
  O       4.102986      1.991717     -0.901381
  H      -2.692083      0.805502     -1.679826
  H      -4.158726      0.755719     -0.877412
  H      -3.376538      2.213457     -1.045695
  H      -3.141765      0.677455      1.168431
  H      -1.896941      1.835400      0.620632
  H      -1.101781     -0.440728      2.021472
  H       0.096206     -2.425638      1.889775
  H      -0.197005     -2.501595      0.127528
  H       0.934039     -0.688735     -1.100623
  H       3.807186     -0.581508     -0.328293
  H       3.134946     -0.232235     -1.931883
24
Coordinates from ORCA-job geo_opt_tzvp E -700.811684302306
  N      -3.232306      1.211828     -0.890793
  C      -2.464644      0.927352      0.356735
  C      -1.479103     -0.200824      0.036847
  O      -1.254671     -0.507146     -1.149551
  N      -0.887645     -0.779767      1.090826
  C       0.102587     -1.847906      0.962825
  C       1.532289     -1.319764      0.732992
  O       2.405486     -1.417798      1.612573
  N       1.740947     -0.774340     -0.484341
  C       2.970402     -0.098052     -0.858301
  C       3.027451      1.431567     -0.556217
  O       2.027427      1.982259     -0.016679
  O       4.113497      1.986412     -0.897211
  H      -2.678674      0.816006     -1.679637
  H      -4.153332      0.755724     -0.893084
  H      -3.373954      2.217373     -1.042917
  H      -3.155104      0.666076      1.164896
  H      -1.907222      1.829830      0.635990
  H      -1.106378     -0.444027      2.026440
  H       0.099709     -2.425411      1.892590
  H      -0.195366     -2.501617      0.131011
  H       0.930607     -0.689899     -1.100318
  H       3.805539     -0.579204     -0.331648
  H       3.132462     -0.238671     -1.936223
24
Coordinates from ORCA-job geo_opt_tzvp E -700.811684804004
  N      -3.233818      1.210430     -0.891166
  C      -2.463989      0.928302      0.355698
  C      -1.478823     -0.200404      0.036128
  O      -1.257492     -0.509975     -1.150148
  N      -0.886436     -0.778105      1.090410
  C       0.102544     -1.847577      0.962941
  C       1.532909     -1.321512      0.731829
  O       2.406325     -1.418875      1.611481
  N       1.740631     -0.774162     -0.484855
  C       2.970035     -0.097684     -0.858893
  C       3.028943      1.431253     -0.552679
  O       2.030218      1.981300     -0.009712
  O       4.114954      1.986171     -0.894205
  H      -2.681225      0.813949     -1.680346
  H      -4.154547      0.753717     -0.891513
  H      -3.376428      2.215671     -1.044595
  H      -3.152963      0.668562      1.165619
  H      -1.906026      1.831203      0.632367
  H      -1.103973     -0.440894      2.025749
  H       0.099557     -2.424257      1.893199
  H      -0.196522     -2.501840      0.132004
  H       0.930019     -0.688875     -1.100216
  H       3.805713     -0.580802     -0.334916
  H       3.130392     -0.235597     -1.937376
