24
zwitterion conformer 1
N      -3.22809030     1.21323035    -0.89289504
C      -2.46637448     0.92605186     0.35953906
C      -1.47720778    -0.19967327     0.03980463
O      -1.24896478    -0.50352047    -1.14802367
N      -0.88882062    -0.78099170     1.09444338
C       0.10234439    -1.84955373     0.96442817
C       1.53223176    -1.32128304     0.73288840
O       2.40764771    -1.41998245     1.61178772
N       1.73850520    -0.77519057    -0.48494128
C       2.96867005    -0.09768778    -0.85911195
C       3.02601534     1.43301320    -0.56009801
O       2.02466270     1.98709477    -0.02374707
O       4.11423382     1.98578116    -0.90154668
H      -2.66858060     0.82046290    -1.67904515
H      -4.14794650     0.75492561    -0.90197018
H      -3.37073261     2.21901060    -1.04320601
H      -3.16099019     0.66012096     1.16245603
H      -1.91208497     1.82840481     0.64448985
H      -1.10801459    -0.44581751     2.03006718
H       0.10046192    -2.42706887     1.89402887
H      -0.19681271    -2.50266269     0.13289420
H       0.92582723    -0.68617485    -1.09710286
H       3.80332651    -0.57822703    -0.33170311
H       3.13069349    -0.24026226    -1.93663285
