20
Coordinates from ORCA-job geo_opt E -549.022272205793
  N      -0.816266      1.615646      0.412180
  C      -1.137885      0.209851      0.230089
  C      -0.124148     -0.453205     -0.728468
  C       1.241039     -0.477709     -0.135363
  C       2.203514     -1.449083     -0.071980
  N       3.306572     -0.975228      0.572360
  C       3.016113      0.258584      0.897946
  N       1.782430      0.613029      0.485054
  C      -2.537458      0.002474     -0.337771
  O      -3.207474      0.902537     -0.799815
  O      -2.938324     -1.251599     -0.284560
  H      -1.410416      2.017833      1.129026
  H      -1.018309      2.114628     -0.450462
  H      -1.087450     -0.299825      1.197986
  H      -0.437684     -1.474688     -0.941951
  H      -0.113409      0.111502     -1.665603
  H       2.177853     -2.452223     -0.447618
  H       3.678577      0.914604      1.424737
  H       1.251567      1.462521      0.641112
  H      -3.828840     -1.389648     -0.665212
20
Coordinates from ORCA-job geo_opt E -549.026644551750
  N      -0.839601      1.643527      0.403445
  C      -1.158038      0.227587      0.219176
  C      -0.121336     -0.444078     -0.725385
  C       1.255766     -0.482179     -0.136017
  C       2.224201     -1.464202     -0.087443
  N       3.348780     -0.995965      0.565320
  C       3.063061      0.250520      0.911914
  N       1.813126      0.603068      0.505968
  C      -2.567305     -0.000385     -0.348001
  O      -3.250250      0.883085     -0.846720
  O      -2.955593     -1.274425     -0.253502
  H      -1.442407      2.047643      1.124114
  H      -1.044724      2.149011     -0.463669
  H      -1.110086     -0.276481      1.196169
  H      -0.436640     -1.470799     -0.945683
  H      -0.113732      0.117815     -1.674569
  H       2.184688     -2.475363     -0.483266
  H       3.728727      0.915398      1.455551
  H       1.268508      1.455396      0.685567
  H      -3.847146     -1.409170     -0.641279
20
Coordinates from ORCA-job geo_opt E -549.027178018915
  N      -0.840471      1.637449      0.413996
  C      -1.164523      0.223521      0.210142
  C      -0.116661     -0.442760     -0.726016
  C       1.259881     -0.482478     -0.134564
  C       2.231905     -1.465611     -0.086401
  N       3.362748     -0.998430      0.569007
  C       3.074272      0.253462      0.916832
  N       1.824751      0.606464      0.500572
  C      -2.572085     -0.001540     -0.366700
  O      -3.254643      0.874827     -0.881249
  O      -2.975806     -1.277105     -0.227884
  H      -1.450800      2.033906      1.133701
  H      -1.040376      2.156288     -0.447343
  H      -1.127401     -0.287714      1.184965
  H      -0.427570     -1.470597     -0.954768
  H      -0.111462      0.119227     -1.677203
  H       2.185553     -2.477254     -0.484768
  H       3.733137      0.926167      1.461667
  H       1.280353      1.460182      0.676019
  H      -3.870802     -1.388005     -0.618318
20
Coordinates from ORCA-job geo_opt E -549.027288604025
  N      -0.844276      1.646299      0.413868
  C      -1.166987      0.230750      0.212996
  C      -0.118587     -0.435204     -0.720370
  C       1.257196     -0.481591     -0.131698
  C       2.226826     -1.468637     -0.087574
  N       3.366335     -1.007093      0.561119
  C       3.081942      0.248004      0.911480
  N       1.829142      0.602748      0.506471
  C      -2.575463     -0.001266     -0.355281
  O      -3.250832      0.850254     -0.916292
  O      -2.966096     -1.288768     -0.211924
  H      -1.455938      2.040375      1.133868
  H      -1.051832      2.165177     -0.445901
  H      -1.129520     -0.275297      1.190499
  H      -0.430047     -1.462165     -0.955105
  H      -0.115652      0.126286     -1.672282
  H       2.169239     -2.478134     -0.489187
  H       3.738686      0.923760      1.453966
  H       1.286605      1.454267      0.692793
  H      -3.850741     -1.389764     -0.629760
20
Coordinates from ORCA-job geo_opt E -549.027399361195
  N      -0.846877      1.644028      0.410144
  C      -1.163581      0.227702      0.205049
  C      -0.112179     -0.430844     -0.728265
  C       1.259550     -0.479272     -0.133666
  C       2.227583     -1.466451     -0.088844
  N       3.363696     -1.008396      0.564590
  C       3.079438      0.245155      0.916317
  N       1.829055      0.602001      0.510385
  C      -2.567214     -0.006997     -0.368762
  O      -3.245668      0.840995     -0.928163
  O      -2.976234     -1.285126     -0.185125
  H      -1.461754      2.033277      1.129886
  H      -1.055642      2.164387     -0.448356
  H      -1.127753     -0.281141      1.180884
  H      -0.421002     -1.456193     -0.971784
  H      -0.105778      0.136368     -1.676195
  H       2.169342     -2.473888     -0.493698
  H       3.733197      0.919840      1.462441
  H       1.287331      1.452793      0.699760
  H      -3.865511     -1.378237     -0.594912
20
Coordinates from ORCA-job geo_opt E -549.027423082548
  N      -0.845285      1.636499      0.421376
  C      -1.163816      0.221693      0.209163
  C      -0.113003     -0.433135     -0.727209
  C       1.258692     -0.478454     -0.132904
  C       2.225454     -1.465606     -0.083474
  N       3.359541     -1.005780      0.568814
  C       3.077594      0.248855      0.912938
  N       1.831340      0.608109      0.498693
  C      -2.565389     -0.006308     -0.369720
  O      -3.235518      0.843142     -0.935630
  O      -2.983117     -1.281658     -0.188879
  H      -1.460592      2.023586      1.141880
  H      -1.050754      2.160820     -0.435368
  H      -1.130600     -0.292021      1.182244
  H      -0.420124     -1.458529     -0.971993
  H      -0.108054      0.135778     -1.673803
  H       2.165856     -2.475516     -0.481564
  H       3.732777      0.925684      1.454636
  H       1.294353      1.463882      0.678165
  H      -3.869356     -1.371041     -0.605679
20
Coordinates from ORCA-job geo_opt E -549.027435619621
  N      -0.847294      1.637050      0.421544
  C      -1.163467      0.221508      0.209712
  C      -0.112534     -0.430732     -0.728462
  C       1.258864     -0.477120     -0.133618
  C       2.223879     -1.465778     -0.082819
  N       3.358643     -1.006812      0.567827
  C       3.078587      0.247728      0.912039
  N       1.831902      0.608051      0.500005
  C      -2.563907     -0.007745     -0.370021
  O      -3.229688      0.837192     -0.947480
  O      -2.985748     -1.280962     -0.180631
  H      -1.462171      2.022884      1.142996
  H      -1.055202      2.160612     -0.435026
  H      -1.129023     -0.292391      1.182506
  H      -0.419135     -1.455567     -0.976284
  H      -0.107417      0.140816     -1.673424
  H       2.162377     -2.475735     -0.480477
  H       3.734548      0.924065      1.453433
  H       1.296403      1.463880      0.682117
  H      -3.869619     -1.370943     -0.602249
20
Coordinates from ORCA-job geo_opt E -549.027448151965
  N      -0.851568      1.636869      0.423975
  C      -1.163453      0.220261      0.210693
  C      -0.111421     -0.426260     -0.730796
  C       1.259570     -0.474494     -0.135115
  C       2.221797     -1.465893     -0.082080
  N       3.356721     -1.009655      0.569292
  C       3.080796      0.245952      0.911224
  N       1.834564      0.609278      0.499252
  C      -2.561250     -0.010832     -0.372730
  O      -3.216587      0.825662     -0.974158
  O      -2.993690     -1.277977     -0.162731
  H      -1.465850      2.019334      1.147674
  H      -1.064020      2.160130     -0.431665
  H      -1.127188     -0.295308      1.182252
  H      -0.416524     -1.450142     -0.984743
  H      -0.106359      0.150783     -1.672369
  H       2.156846     -2.475963     -0.479008
  H       3.737853      0.921392      1.452495
  H       1.302723      1.466350      0.683780
  H      -3.872960     -1.369487     -0.593554
20
Coordinates from ORCA-job geo_opt E -549.027456331080
  N      -0.856709      1.634882      0.429218
  C      -1.163882      0.217552      0.211767
  C      -0.109823     -0.421289     -0.733579
  C       1.260731     -0.471230     -0.137052
  C       2.219608     -1.465951     -0.080419
  N       3.355688     -1.011779      0.570050
  C       3.083359      0.244712      0.910656
  N       1.838284      0.611632      0.496630
  C      -2.557870     -0.014850     -0.378591
  O      -3.196518      0.811053     -1.012344
  O      -3.007231     -1.271065     -0.138936
  H      -1.470318      2.012204      1.156207
  H      -1.074485      2.159144     -0.424519
  H      -1.126172     -0.301541      1.181028
  H      -0.412620     -1.444180     -0.994774
  H      -0.105336      0.162599     -1.670872
  H       2.151065     -2.476318     -0.476128
  H       3.741796      0.919277      1.451435
  H       1.311122      1.470678      0.682761
  H      -3.880687     -1.365529     -0.580850
20
Coordinates from ORCA-job geo_opt E -549.027460579091
  N      -0.858740      1.633198      0.432334
  C      -1.164281      0.215918      0.211797
  C      -0.108908     -0.419632     -0.734704
  C       1.261460     -0.470020     -0.138008
  C       2.219543     -1.465609     -0.080501
  N       3.355362     -1.012651      0.571925
  C       3.084285      0.244860      0.910668
  N       1.839959      0.612837      0.494774
  C      -2.556522     -0.016715     -0.382691
  O      -3.185661      0.804830     -1.031851
  O      -3.015090     -1.265990     -0.127364
  H      -1.472078      2.007687      1.161088
  H      -1.078812      2.158818     -0.420058
  H      -1.126432     -0.305402      1.179718
  H      -0.410589     -1.442309     -0.998416
  H      -0.104971      0.166905     -1.670333
  H       2.150538     -2.475918     -0.476314
  H       3.743063      0.919029      1.451533
  H       1.314485      1.472790      0.680859
  H      -3.886610     -1.362625     -0.572768
20
Coordinates from ORCA-job geo_opt E -549.027463009469
  N      -0.857996      1.632674      0.432509
  C      -1.164373      0.215796      0.211150
  C      -0.108816     -0.420655     -0.734430
  C       1.261598     -0.470579     -0.138041
  C       2.220566     -1.465348     -0.081239
  N       3.356437     -1.011719      0.571568
  C       3.083550      0.245525      0.911493
  N       1.839502      0.612654      0.494563
  C      -2.556911     -0.016414     -0.383883
  O      -3.185158      0.806899     -1.031817
  O      -3.015744     -1.264672     -0.128009
  H      -1.471332      2.006981      1.161433
  H      -1.077819      2.159168     -0.419479
  H      -1.127133     -0.305850      1.178970
  H      -0.410678     -1.443722     -0.996548
  H      -0.105235      0.164705     -1.670824
  H       2.153186     -2.475474     -0.477784
  H       3.741901      0.919667      1.452877
  H       1.313025      1.472306      0.679998
  H      -3.888569     -1.361942     -0.570819
20
Coordinates from ORCA-job geo_opt E -549.027463261572
  N      -0.857718      1.632242      0.432937
  C      -1.164309      0.215499      0.211101
  C      -0.108763     -0.420986     -0.734323
  C       1.261600     -0.470723     -0.138014
  C       2.220823     -1.465158     -0.081390
  N       3.356613     -1.011321      0.571459
  C       3.083341      0.245919      0.911318
  N       1.839310      0.612649      0.494536
  C      -2.556805     -0.016273     -0.384285
  O      -3.183916      0.806872     -1.033421
  O      -3.016560     -1.263883     -0.127429
  H      -1.471027      2.006254      1.162046
  H      -1.077716      2.159189     -0.418729
  H      -1.127462     -0.306344      1.178835
  H      -0.410618     -1.444134     -0.996168
  H      -0.105382      0.164034     -1.670931
  H       2.153846     -2.475297     -0.477937
  H       3.741567      0.920212      1.452646
  H       1.312513      1.472159      0.679837
  H      -3.889337     -1.360908     -0.570400
