20
Coordinates from ORCA-job geo_opt E -549.027463261572
  N          -0.85771835857073      1.63224170391594      0.43293743406411
  C          -1.16430851909329      0.21549881099033      0.21110091222801
  C          -0.10876308682106     -0.42098598915026     -0.73432331576517
  C           1.26159982925553     -0.47072258528896     -0.13801413481385
  C           2.22082323000486     -1.46515789933511     -0.08139036460094
  N           3.35661273038417     -1.01132148502532      0.57145938786684
  C           3.08334142917943      0.24591894434684      0.91131844145030
  N           1.83930964146327      0.61264855874638      0.49453567102911
  C          -2.55680474327453     -0.01627343836397     -0.38428472528700
  O          -3.18391582413067      0.80687182665235     -1.03342091152413
  O          -3.01656012062889     -1.26388316657139     -0.12742887275748
  H          -1.47102736820444      2.00625362675694      1.16204563836743
  H          -1.07771597858752      2.15918858834644     -0.41872934670971
  H          -1.12746237438827     -0.30634375963926      1.17883545491604
  H          -0.41061826291377     -1.44413447930498     -0.99616797105022
  H          -0.10538193407902      0.16403435418431     -1.67093098929132
  H           2.15384553010259     -2.47529667925833     -0.47793738949256
  H           3.74156737788487      0.92021216673179      1.45264625913942
  H           1.31251335126235      1.47215857506986      0.67983702924110
  H          -3.88933656884487     -1.36090765380360     -0.57040017700997
