20
neutral_delta conformer 1
N      -0.81626643     1.61564593     0.41218044
C      -1.13788500     0.20985148     0.23008857
C      -0.12414822    -0.45320545    -0.72846774
C       1.24103872    -0.47770917    -0.13536256
C       2.20351414    -1.44908349    -0.07198007
N       3.30657204    -0.97522813     0.57236031
C       3.01611344     0.25858403     0.89794582
N       1.78242986     0.61302929     0.48505367
C      -2.53745834     0.00247406    -0.33777141
O      -3.20747394     0.90253664    -0.79981494
O      -2.93832432    -1.25159877    -0.28456009
H      -1.41041569     2.01783319     1.12902562
H      -1.01830858     2.11462781    -0.45046211
H      -1.08744951    -0.29982516     1.19798596
H      -0.43768446    -1.47468774    -0.94195081
H      -0.11340937     0.11150153    -1.66560258
H       2.17785264    -2.45222269    -0.44761759
H       3.67857656     0.91460386     1.42473736
H       1.25156690     1.46252065     0.64111249
H      -3.82884046    -1.38964785    -0.66521231
